2
Properties=species:S:1:pos:R:3:forces:R:3 energy=-3.769927273591e-01 dipole="-4.5174032089e-15 -3.7778245129e-15 1.5925039065e-12" quadrupole="-2.6597298781e+00 -5.0198479510e-30 -2.6971607067e-15 -5.0198479510e-30 -2.6597298781e+00 3.0217813828e-14 -2.6971607067e-15 3.0217813828e-14 -7.8458105674e+00" polarizability="1.9758663754e+01 -3.5391700715e-14 8.4361700541e-15 2.2116479812e-14 1.9758663754e+01 -4.4905400602e-13 -2.1873779501e-14 -4.5421074120e-13 9.4850870779e+01" dipole_derivatives="-1.7987762449e-05 8.6786837598e-13 6.4310099181e-14 -5.8021878511e-13 -1.7987747401e-05 -1.1094506404e-12 2.2672974609e-09 -6.3948846218e-11 2.5341840493e-03 -1.7987738213e-05 -1.2408632750e-12 -1.3326535735e-13 3.0971715692e-13 -1.7987753602e-05 1.0592520798e-12 -2.2750690221e-09 6.3060667799e-11 2.5341810537e-03" charge=0 multiplicity=3 method=b3lyp basis=def2-svpd config_type=h2_q0_m3 sample_index=0 bond_length=0.400000 units=atomic
H         0.0000000000       0.0000000000       0.0000000000  -1.376857613615e-15   1.789640679032e-15  -1.341363415628e+00
H         0.0000000000       0.0000000000       0.4000000000   1.410139665620e-15  -1.324926122824e-15   1.341363415628e+00
2
Properties=species:S:1:pos:R:3:forces:R:3 energy=-4.864487981794e-01 dipole="6.3502907321e-16 -3.6138647869e-15 3.6408653870e-12" quadrupole="-2.5657083046e+00 1.5912783945e-29 2.9235356738e-14 1.5912783945e-29 -2.5657083046e+00 -3.4998381518e-15 2.9235356738e-14 -3.4998381518e-15 -7.5747356677e+00" polarizability="1.8463305057e+01 -9.5822727204e-15 -2.1885857124e-13 -1.9021490726e-14 1.8463305057e+01 4.1729233385e-14 -3.7847670290e-13 3.1872889385e-14 8.6922397059e+01" dipole_derivatives="1.9099497681e-05 -9.4765108140e-13 5.4686997174e-13 1.6865587175e-13 1.9099493840e-05 -3.1608296575e-13 -1.0312861676e-09 8.2844842098e-10 4.6025307546e-03 1.9099508568e-05 8.2985053344e-13 -7.0074707733e-13 -2.3373018305e-13 1.9099512586e-05 3.1363419356e-13 1.0321743460e-09 -8.2978068860e-10 4.6025340686e-03" charge=0 multiplicity=3 method=b3lyp basis=def2-svpd config_type=h2_q0_m3 sample_index=1 bond_length=0.450000 units=atomic
H         0.0000000000       0.0000000000       0.0000000000   1.819182785064e-15   4.383118876657e-16  -9.979244086593e-01
H         0.0000000000       0.0000000000       0.4500000000  -1.831283640024e-15  -1.281875497685e-16   9.979244086594e-01
2
Properties=species:S:1:pos:R:3:forces:R:3 energy=-5.689519245156e-01 dipole="1.8972645043e-15 -1.6994557886e-15 2.3966384433e-12" quadrupole="-2.4715627710e+00 1.4500187678e-29 3.7369386145e-15 1.4500187678e-29 -2.4715627710e+00 -1.7411724200e-14 3.7369386145e-15 -1.7411724200e-14 -7.2592481802e+00" polarizability="1.7164205437e+01 1.9323367337e-14 -4.4404853314e-14 3.1450436280e-14 1.7164205437e+01 4.2143652078e-13 1.2431088477e-14 3.9950812596e-13 7.9102058551e+01" dipole_derivatives="4.3402702665e-05 -3.3879615979e-13 -5.3761791985e-13 3.8770075172e-13 4.3402703021e-05 3.1382429165e-13 1.7486012638e-10 3.5171865420e-10 2.0556861394e-03 4.3402710179e-05 4.9133723800e-13 3.9541286788e-13 -4.1120788976e-13 4.3402709658e-05 -3.9390764938e-13 -1.7175150191e-10 -3.5049740887e-10 2.0556869571e-03" charge=0 multiplicity=3 method=b3lyp basis=def2-svpd config_type=h2_q0_m3 sample_index=2 bond_length=0.500000 units=atomic
H         0.0000000000       0.0000000000       0.0000000000  -6.820575734743e-16  -9.410570705984e-16  -7.626854261595e-01
H         0.0000000000       0.0000000000       0.5000000000   3.724700024856e-16   8.445138519340e-16   7.626854261595e-01
2
Properties=species:S:1:pos:R:3:forces:R:3 energy=-6.327693954566e-01 dipole="7.8158547278e-15 -3.2179241451e-15 -8.1090689719e-13" quadrupole="-2.3805641447e+00 -1.3231097465e-29 -2.7424820573e-15 -1.3231097465e-29 -2.3805641447e+00 -1.7842987142e-14 -2.7424820573e-15 -1.7842987142e-14 -6.9111010135e+00" polarizability="1.5898276071e+01 -4.6913244033e-15 9.7885145415e-14 -1.3744895136e-14 1.5898276071e+01 2.7104060573e-13 1.0182731470e-13 2.8287357761e-13 7.1568386269e+01" dipole_derivatives="4.2155466608e-05 -7.6069833325e-13 2.5998290860e-13 2.5970033435e-14 4.2155465621e-05 3.8367196723e-13 -2.7811086767e-10 1.2545520178e-11 4.9092422150e-04 4.2155466255e-05 6.7920042048e-13 -1.8145098591e-13 -1.1402792636e-13 4.2155467178e-05 -3.8295628622e-13 2.8010926911e-10 -1.5321077740e-11 4.9092454013e-04" charge=0 multiplicity=3 method=b3lyp basis=def2-svpd config_type=h2_q0_m3 sample_index=3 bond_length=0.550000 units=atomic
H         0.0000000000       0.0000000000       0.0000000000  -7.364500995189e-16  -1.522118713852e-16  -5.975491464023e-01
H         0.0000000000       0.0000000000       0.5500000000   5.925076928165e-16   1.429863019216e-16   5.975491464023e-01
2
Properties=species:S:1:pos:R:3:forces:R:3 energy=-6.833439320781e-01 dipole="4.3095008030e-15 -4.7588958923e-16 -3.5549341248e-13" quadrupole="-2.2956381399e+00 -1.2548095489e-29 2.5466476996e-14 -1.2548095489e-29 -2.2956381399e+00 2.5350292521e-15 2.5466476996e-14 2.5350292521e-15 -6.5444009421e+00" polarizability="1.4698730454e+01 -1.4683584803e-14 -4.6567379207e-13 -1.3076077211e-14 1.4698730454e+01 -4.5643282606e-14 -5.0341879179e-13 -2.4483633411e-14 6.4340042930e+01" dipole_derivatives="2.7969040669e-05 -3.2220203658e-15 9.4925961612e-14 1.7437861357e-14 2.7969040101e-05 1.0769920010e-13 5.8508753398e-11 1.4821477379e-11 -3.7702917238e-04 2.7969040536e-05 -7.4381739499e-14 -3.9871957951e-15 -1.7152278967e-13 2.7969041025e-05 -9.5921383574e-14 -5.8730798003e-11 -1.2434497876e-11 -3.7702932093e-04" charge=0 multiplicity=3 method=b3lyp basis=def2-svpd config_type=h2_q0_m3 sample_index=4 bond_length=0.600000 units=atomic
H         0.0000000000       0.0000000000       0.0000000000   3.538980858507e-16  -5.833112863213e-17  -4.793409675230e-01
H         0.0000000000       0.0000000000       0.6000000000  -3.626796933141e-16  -3.605479017168e-17   4.793409675230e-01
2
Properties=species:S:1:pos:R:3:forces:R:3 energy=-7.243595678443e-01 dipole="2.8488440374e-15 1.5913848769e-15 -5.9952043330e-14" quadrupole="-2.2189948161e+00 -1.5919841033e-29 -1.0276042242e-14 -1.5919841033e-29 -2.2189948161e+00 -2.8816656634e-15 -1.0276042242e-14 -2.8816656634e-15 -6.1736229921e+00" polarizability="1.3591565723e+01 3.3939184916e-15 2.5764394963e-13 3.4900889404e-15 1.3591565723e+01 7.1805716062e-14 2.4247912314e-13 7.5555019263e-14 5.7511708364e+01" dipole_derivatives="1.0897339291e-05 -2.4805189350e-14 -7.4447439610e-14 -1.7097438620e-13 1.0897338872e-05 1.4861647546e-13 -5.0182080713e-11 -3.9024339316e-11 -3.8873456609e-04 1.0897339123e-05 1.1418688279e-13 8.2036634787e-14 2.6799199869e-13 1.0897339816e-05 -1.5859656883e-13 4.9960036108e-11 3.9412917374e-11 -3.8873487240e-04" charge=0 multiplicity=3 method=b3lyp basis=def2-svpd config_type=h2_q0_m3 sample_index=5 bond_length=0.650000 units=atomic
H         0.0000000000       0.0000000000       0.0000000000  -1.896398516105e-16  -8.622554293307e-17  -3.932292607139e-01
H         0.0000000000       0.0000000000       0.6500000000   4.788345386027e-16   3.052705065102e-16   3.932292607139e-01
2
Properties=species:S:1:pos:R:3:forces:R:3 energy=-7.583491523129e-01 dipole="-5.7972075157e-15 8.0429019389e-16 2.6512125828e-13" quadrupole="-2.1518635413e+00 8.5154404474e-32 2.2269030710e-16 8.5154404474e-32 -2.1518635413e+00 3.4811463680e-15 2.2269030710e-16 3.4811463680e-15 -5.8117991137e+00" polarizability="1.2593648778e+01 6.2501444228e-15 -1.7853319795e-13 8.1648423317e-15 1.2593648778e+01 -4.8731577774e-14 -1.8220289896e-13 -5.8445945450e-14 5.1156991579e+01" dipole_derivatives="-2.3293495101e-06 1.8600444115e-13 -1.2736897825e-13 9.5106557166e-14 -2.3293498938e-06 7.1124932995e-14 -9.2231777771e-11 -9.5590202420e-11 -2.4761215628e-04 -2.3293492514e-06 -7.5374652432e-14 1.3580738021e-13 -6.7870846781e-14 -2.3293490841e-06 1.0295527572e-13 9.2703622556e-11 9.4757535152e-11 -2.4761238257e-04" charge=0 multiplicity=3 method=b3lyp basis=def2-svpd config_type=h2_q0_m3 sample_index=6 bond_length=0.700000 units=atomic
H         0.0000000000       0.0000000000       0.0000000000   7.912927766980e-17   3.756551552068e-16  -3.292645576801e-01
H         0.0000000000       0.0000000000       0.7000000000  -3.010718629057e-17  -1.534011886833e-17   3.292645576801e-01
2
Properties=species:S:1:pos:R:3:forces:R:3 energy=-7.870614033713e-01 dipole="-1.9386509444e-15 -2.8038335418e-15 -1.0413891971e-13" quadrupole="-2.0945147171e+00 -5.5510532257e-30 1.8715270723e-15 -5.5510532257e-30 -2.0945147171e+00 -1.6040501822e-15 1.8715270723e-15 -1.6040501822e-15 -5.4690579405e+00" polarizability="1.1713052228e+01 1.2026150746e-15 -2.1261164347e-14 1.4830988614e-15 1.1713052228e+01 2.9448053237e-15 -1.9004402064e-14 -3.3101146552e-15 4.5349793471e+01" dipole_derivatives="-8.6406809623e-06 -1.3833862957e-13 -1.9570605411e-14 -1.3668018640e-13 -8.6406809544e-06 -5.2124388504e-15 -7.4523720528e-11 1.4349632593e-11 -1.0506646717e-04 -8.6406806085e-06 5.5604538383e-14 -5.5510395034e-14 9.3208736148e-14 -8.6406806601e-06 -1.2554234315e-13 7.4329431499e-11 -1.4821477379e-11 -1.0506684869e-04" charge=0 multiplicity=3 method=b3lyp basis=def2-svpd config_type=h2_q0_m3 sample_index=7 bond_length=0.750000 units=atomic
H         0.0000000000       0.0000000000       0.0000000000   2.452309719496e-16   1.258591295401e-16  -2.805872633731e-01
H         0.0000000000       0.0000000000       0.7500000000  -2.196438006789e-16   9.314970930197e-17   2.805872633731e-01
2
Properties=species:S:1:pos:R:3:forces:R:3 energy=-8.117041025218e-01 dipole="-7.8988850308e-16 2.7366933799e-15 -1.0857981181e-13" quadrupole="-2.0465328069e+00 4.1100112487e-30 -2.1063457824e-15 4.1100112487e-30 -2.0465328069e+00 7.6251526192e-15 -2.1063457824e-15 7.6251526192e-15 -5.1518950571e+00" polarizability="1.0950787669e+01 -6.6910338451e-15 5.0969331400e-14 -7.7801214787e-15 1.0950787669e+01 -4.2929537335e-14 5.1495929383e-14 -4.4010381773e-14 4.0141229065e+01" dipole_derivatives="-8.7626550531e-06 7.9468607267e-14 8.2472090823e-14 6.0314012736e-15 -8.7626548872e-06 -5.8664972026e-14 3.2557290197e-11 -3.2945868256e-11 -2.6436052764e-05 -8.7626548925e-06 4.4981953353e-14 -6.9463696309e-14 -1.2882025744e-15 -8.7626552711e-06 8.8040799351e-14 -3.2363001168e-11 3.2737701439e-11 -2.6436019498e-05" charge=0 multiplicity=3 method=b3lyp basis=def2-svpd config_type=h2_q0_m3 sample_index=8 bond_length=0.800000 units=atomic
H         0.0000000000       0.0000000000       0.0000000000   3.138267185029e-16  -6.086200381811e-16  -2.424873515576e-01
H         0.0000000000       0.0000000000       0.8000000000  -1.727636083988e-16  -1.068913977840e-15   2.424873515576e-01
2
Properties=species:S:1:pos:R:3:forces:R:3 energy=-8.331171225858e-01 dipole="1.1569230102e-15 7.7655674479e-16 -6.1284310959e-14" quadrupole="-2.0071354232e+00 8.1320228527e-32 1.4024623518e-15 8.1320228527e-32 -2.0071354232e+00 7.9088580719e-17 1.4024623518e-15 7.9088580719e-17 -4.8633547694e+00" polarizability="1.0302668454e+01 4.5658647573e-15 2.4445810498e-14 4.8728589616e-15 1.0302668454e+01 8.9571344216e-15 2.6789020497e-14 8.5488529699e-15 3.5550128711e+01" dipole_derivatives="-5.7155767529e-06 -2.3956717604e-13 -1.1359532292e-13 -5.3777186704e-15 -5.7155767545e-06 2.6601382332e-14 1.3378187447e-11 -3.1225022568e-12 -1.7308703637e-06 -5.7155772600e-06 5.2424433840e-14 -3.5681048965e-15 2.8031383648e-14 -5.7155769815e-06 3.0841507048e-14 -1.3267165144e-11 3.3445468617e-12 -1.7309201850e-06" charge=0 multiplicity=3 method=b3lyp basis=def2-svpd config_type=h2_q0_m3 sample_index=9 bond_length=0.850000 units=atomic
H         0.0000000000       0.0000000000       0.0000000000   2.189685821874e-16  -6.730463016475e-17  -2.118001574093e-01
H         0.0000000000       0.0000000000       0.8500000000  -3.646030731805e-18  -1.317548887036e-16   2.118001574093e-01
2
Properties=species:S:1:pos:R:3:forces:R:3 energy=-8.518952639383e-01 dipole="-1.8902449499e-15 -7.5298416788e-16 -6.4392935428e-14" quadrupole="-1.9753959157e+00 -1.6442478879e-30 -7.7706249401e-16 -1.6442478879e-30 -1.9753959157e+00 1.0035966406e-15 -7.7706249401e-16 1.0035966406e-15 -4.6038257589e+00" polarizability="9.7608975691e+00 -2.1035963828e-15 1.1565139812e-15 -2.1095195434e-15 9.7608975691e+00 -2.1019508431e-14 1.8729204081e-15 -2.1012531237e-14 3.1562755419e+01" dipole_derivatives="-2.4647815906e-06 -5.9317483607e-14 -5.5384455491e-14 1.7583092433e-14 -2.4647814614e-06 4.4681331610e-14 -1.5917822616e-11 1.1005085732e-11 -6.6183830638e-07 -2.4647817076e-06 -6.0658327684e-14 6.2894229749e-14 1.2034473359e-14 -2.4647818239e-06 4.3500886249e-14 1.6070478281e-11 -1.1102230246e-11 -6.6188615699e-07" charge=0 multiplicity=3 method=b3lyp basis=def2-svpd config_type=h2_q0_m3 sample_index=10 bond_length=0.900000 units=atomic
H         0.0000000000       0.0000000000       0.0000000000  -5.671251203857e-18   1.872942375189e-16  -1.864342756882e-01
H         0.0000000000       0.0000000000       0.9000000000   5.473139950883e-17  -1.480461188749e-16   1.864342756882e-01
2
Properties=species:S:1:pos:R:3:forces:R:3 energy=-8.684716369180e-01 dipole="3.7214338875e-16 -5.8750647941e-18 -7.0388139761e-14" quadrupole="-1.9503606199e+00 -1.0214734271e-31 -3.9312272013e-16 -1.0214734271e-31 -1.9503606199e+00 -4.1952774203e-16 -3.9312272013e-16 -4.1952774203e-16 -4.3719784526e+00" polarizability="9.3154339688e+00 6.3533224295e-15 -3.0709859291e-15 6.5242434741e-15 9.3154339688e+00 1.2949936903e-14 -3.1465669725e-15 1.3586205178e-14 2.8140092331e+01" dipole_derivatives="-4.5080068217e-07 6.2243722062e-15 9.3281313090e-14 -6.3409835036e-14 -4.5080079499e-07 4.8907849135e-14 9.3397511947e-12 5.1070259133e-12 -3.2139620687e-06 -4.5080063722e-07 -1.9306511526e-14 -5.4536083863e-14 -8.3145086387e-14 -4.5080057545e-07 -1.9249881774e-14 -9.0760732263e-12 -5.0792703377e-12 -3.2139715334e-06" charge=0 multiplicity=3 method=b3lyp basis=def2-svpd config_type=h2_q0_m3 sample_index=11 bond_length=0.950000 units=atomic
H         0.0000000000       0.0000000000       0.0000000000   5.846363583542e-17  -4.058291961074e-17  -1.650086338494e-01
H         0.0000000000       0.0000000000       0.9500000000   3.935046167281e-17  -2.835773406524e-17   1.650086338494e-01
2
Properties=species:S:1:pos:R:3:forces:R:3 energy=-8.831720237113e-01 dipole="9.9213437379e-16 -5.7710326320e-16 2.5757174171e-14" quadrupole="-1.9311048277e+00 -6.7041986136e-32 -1.7418932761e-15 -6.7041986136e-32 -1.9311048277e+00 -1.2259251896e-15 -1.7418932761e-15 -1.2259251896e-15 -4.1655478016e+00" polarizability="8.9551659542e+00 6.2868014942e-16 1.1484180757e-14 7.0018644560e-16 8.9551659542e+00 1.8761190421e-15 1.1095088245e-14 2.3436552820e-15 2.5227692776e+01" dipole_derivatives="3.0890169189e-07 -6.4391298810e-14 -1.2453637555e-15 1.1774834346e-13 3.0890179384e-07 -1.6304709104e-13 5.5511151231e-13 -2.5118795932e-12 -3.4076347577e-06 3.0890167800e-07 9.5889023971e-15 -5.7206854613e-14 1.8189170568e-13 3.0890159061e-07 -5.0908548091e-15 -5.4123372450e-13 2.5673907444e-12 -3.4076410027e-06" charge=0 multiplicity=3 method=b3lyp basis=def2-svpd config_type=h2_q0_m3 sample_index=12 bond_length=1.000000 units=atomic
H         0.0000000000       0.0000000000       0.0000000000  -6.234806192419e-17  -2.359572845765e-17  -1.465989355665e-01
H         0.0000000000       0.0000000000       1.0000000000   1.751050878627e-16   8.734681619979e-17   1.465989355665e-01
2
Properties=species:S:1:pos:R:3:forces:R:3 energy=-8.962496838390e-01 dipole="7.1186795995e-16 -4.4794161959e-16 -1.3100631691e-14" quadrupole="-1.9167619002e+00 8.7345832360e-31 -7.7351803450e-16 8.7345832360e-31 -1.9167619002e+00 1.4046974804e-15 -7.7351803450e-16 1.4046974804e-15 -3.9818798602e+00" polarizability="8.6688382583e+00 -5.8530576493e-16 -1.0780144729e-14 -3.0325873272e-16 8.6688382583e+00 -3.9174010730e-15 -1.0930353157e-14 -3.3620690450e-15 2.2764454855e+01" dipole_derivatives="3.7038954638e-07 1.0743456533e-14 -2.7197286753e-14 -7.0493163138e-14 3.7038978245e-07 -2.5890046495e-14 -2.2482016249e-12 7.3552275381e-13 -2.0726041855e-06 3.7038971839e-07 3.9240255883e-14 -9.0021253211e-14 -3.1782403315e-14 3.7038963104e-07 -8.0199537265e-14 2.2759572005e-12 -7.6327832943e-13 -2.0726146494e-06" charge=0 multiplicity=3 method=b3lyp basis=def2-svpd config_type=h2_q0_m3 sample_index=13 bond_length=1.050000 units=atomic
H         0.0000000000       0.0000000000       0.0000000000  -1.013367441485e-16   2.082794719454e-16  -1.305728266748e-01
H         0.0000000000       0.0000000000       1.0500000000  -9.878268838803e-17   1.501850218795e-16   1.305728266748e-01
2
Properties=species:S:1:pos:R:3:forces:R:3 energy=-9.079076574308e-01 dipole="-1.3054313529e-16 1.1110669673e-15 3.0642155480e-14" quadrupole="-1.9065404737e+00 1.9817227110e-31 4.1878072648e-16 1.9817227110e-31 -1.9065404737e+00 5.4406588347e-16 4.1878072648e-16 5.4406588347e-16 -3.8182715526e+00" polarizability="8.4456990199e+00 -3.2660241260e-16 -1.2352577793e-15 -3.9267094463e-16 8.4456990199e+00 5.7019935678e-15 -5.2462938178e-16 5.3244947135e-15 2.0688940164e+01" dipole_derivatives="2.2124886123e-07 7.2699462043e-14 -5.8094265056e-15 -6.2572086710e-14 2.2124895724e-07 6.3618110457e-15 5.4331539268e-12 6.4462324367e-12 -7.4874958317e-07 2.2124890386e-07 -2.2267662686e-15 -2.6789942174e-14 8.6885320428e-14 2.2124899948e-07 5.0521744078e-14 -5.4123372450e-12 -6.4739880123e-12 -7.4875422529e-07" charge=0 multiplicity=3 method=b3lyp basis=def2-svpd config_type=h2_q0_m3 sample_index=14 bond_length=1.100000 units=atomic
H         0.0000000000       0.0000000000       0.0000000000   5.581881440785e-17   1.997189406015e-16  -1.164860024524e-01
H         0.0000000000       0.0000000000       1.1000000000   2.297187105403e-17   7.486887745491e-17   1.164860024524e-01
2
Properties=species:S:1:pos:R:3:forces:R:3 energy=-9.183132087537e-01 dipole="2.4048984365e-16 -2.4646554720e-16 -2.4868995752e-14" quadrupole="-1.8997341993e+00 3.2080855186e-31 -2.5291076952e-16 3.2080855186e-31 -1.8997341993e+00 5.8627137898e-16 -2.5291076952e-16 5.8627137898e-16 -3.6721617282e+00" polarizability="8.2758897516e+00 -3.9776919736e-16 3.7732060171e-17 -3.5849839807e-16 8.2758897516e+00 -1.3689050930e-14 -3.4045479822e-16 -1.3335962548e-14 1.8943311165e+01" dipole_derivatives="9.2493679310e-08 -9.3099571292e-14 -4.1706745300e-14 -7.1477521486e-14 9.2493790498e-08 3.4502620356e-14 2.0886070651e-12 7.5009443101e-12 5.0724618950e-08 9.2493785528e-08 5.4976129182e-14 1.5220745745e-13 -4.2573770796e-14 9.2493692607e-08 3.1571772882e-14 -2.0747292773e-12 -7.4454331589e-12 5.0730017409e-08" charge=0 multiplicity=3 method=b3lyp basis=def2-svpd config_type=h2_q0_m3 sample_index=15 bond_length=1.150000 units=atomic
H         0.0000000000       0.0000000000       0.0000000000   4.157608707120e-18   2.857696646319e-16  -1.040168308772e-01
H         0.0000000000       0.0000000000       1.1500000000  -5.688868913466e-18  -2.398097514817e-17   1.040168308772e-01
2
Properties=species:S:1:pos:R:3:forces:R:3 energy=-9.276073029641e-01 dipole="8.0888785417e-16 -1.2184008520e-16 -3.1086244690e-15" quadrupole="-1.8957252517e+00 5.5846683594e-31 -8.2463722102e-17 5.5846683594e-31 -1.8957252517e+00 2.0532192697e-15 -8.2463722102e-17 2.0532192697e-15 -3.5412259079e+00" polarizability="8.1506347111e+00 1.0279712122e-15 5.8416461583e-17 6.0824799966e-16 8.1506347111e+00 1.5563024673e-14 -4.4564386540e-16 1.5485818601e-14 1.7475510324e+01" dipole_derivatives="3.2617611438e-08 -5.1077962248e-14 -1.0370723379e-14 -3.1159489143e-14 3.2617646693e-08 4.0739477430e-14 9.5756735874e-13 6.9527716917e-12 1.8252427347e-08 3.2617735206e-08 2.7185051260e-14 -5.7941717020e-14 -9.0392906890e-14 3.2617724642e-08 6.0302105121e-14 -9.4368957093e-13 -6.8833827527e-12 1.8254286971e-08" charge=0 multiplicity=3 method=b3lyp basis=def2-svpd config_type=h2_q0_m3 sample_index=16 bond_length=1.200000 units=atomic
H         0.0000000000       0.0000000000       0.0000000000  -1.666116342547e-16   1.176671017461e-16  -9.292474045289e-02
H         0.0000000000       0.0000000000       1.2000000000   5.469147686812e-17   1.939892274567e-17   9.292474045289e-02
2
Properties=species:S:1:pos:R:3:forces:R:3 energy=-9.359109075513e-01 dipole="9.8009424233e-16 6.4787530282e-16 -6.6613381478e-15" quadrupole="-1.8939825213e+00 -1.5503970361e-31 -1.5489737311e-16 -1.5503970361e-31 -1.8939825213e+00 1.6346761872e-15 -1.5489737311e-16 1.6346761872e-15 -3.4234131591e+00" polarizability="8.0622909049e+00 1.4296541789e-15 9.0497886902e-15 1.0017900929e-15 8.0622909049e+00 5.0098552014e-15 8.7326406335e-15 4.9773862117e-15 1.6240275589e+01" dipole_derivatives="1.6309427419e-08 7.6067567599e-15 -4.4990147871e-14 4.2599161729e-14 1.6309382631e-08 2.3926502754e-15 -8.9511731360e-13 1.1241008124e-12 2.1990278348e-07 1.6309220733e-08 5.0574242321e-14 3.5882391364e-14 -5.1994994224e-14 1.6309244342e-08 1.1836659256e-13 7.3552275381e-13 -1.2073675393e-12 2.1991749394e-07" charge=0 multiplicity=3 method=b3lyp basis=def2-svpd config_type=h2_q0_m3 sample_index=17 bond_length=1.250000 units=atomic
H         0.0000000000       0.0000000000       0.0000000000  -4.615456772285e-17   3.266331691721e-17  -8.302347430832e-02
H         0.0000000000       0.0000000000       1.2500000000  -1.152498785338e-17  -5.738312644988e-17   8.302347430832e-02
2
Properties=species:S:1:pos:R:3:forces:R:3 energy=-9.433292537842e-01 dipole="7.5406528408e-17 2.2410768987e-16 -4.4408920985e-15" quadrupole="-1.8940557267e+00 8.3687765396e-31 2.6907150304e-15 8.3687765396e-31 -1.8940557267e+00 -1.8996827823e-15 2.6907150304e-15 -1.8996827823e-15 -3.3169500211e+00" polarizability="8.0043097831e+00 7.9228433824e-16 -6.0183571474e-15 5.7687189594e-16 8.0043097831e+00 2.0655168435e-15 -6.0672905805e-15 2.0866562619e-15 1.5199356447e+01" dipole_derivatives="1.0395301916e-08 -4.2388752557e-14 2.1968461226e-14 -4.2395036217e-14 1.0395313204e-08 1.4712214349e-13 -2.3592239273e-13 3.3029134983e-12 -1.2486645051e-07 1.0395388591e-08 -2.8236460847e-14 1.1177857107e-15 7.6824702062e-14 1.0395355924e-08 -4.1124599453e-16 2.2204460493e-13 -3.3029134983e-12 -1.2485619483e-07" charge=0 multiplicity=3 method=b3lyp basis=def2-svpd config_type=h2_q0_m3 sample_index=18 bond_length=1.300000 units=atomic
H         0.0000000000       0.0000000000       0.0000000000   5.716976247329e-17  -1.328797217219e-16  -7.416398134399e-02
H         0.0000000000       0.0000000000       1.3000000000   2.987559158619e-17  -3.934669334989e-17   7.416398134399e-02
2
Properties=species:S:1:pos:R:3:forces:R:3 energy=-9.499548067697e-01 dipole="1.9098239300e-16 5.1566716611e-16 6.2172489379e-15" quadrupole="-1.8955668241e+00 -2.0032301042e-31 -4.5817245550e-16 -2.0032301042e-31 -1.8955668241e+00 1.7536294882e-15 -4.5817245550e-16 1.7536294882e-15 -3.2203254095e+00" polarizability="7.9711462629e+00 -1.5284262212e-15 9.6793363833e-16 -1.7234284870e-15 7.9711462629e+00 2.0336776442e-15 1.3085939027e-15 2.2335308035e-15 1.4321045127e+01" dipole_derivatives="4.4101623469e-09 -8.9231964037e-14 4.2915190228e-14 5.8584707738e-14 4.4102612371e-09 -7.7202273392e-14 -7.2164496601e-13 -2.7408630920e-12 1.0284459395e-07 4.4101852313e-09 1.0321921376e-14 -1.2147249661e-13 2.9235668233e-14 4.4101940959e-09 3.1359765026e-14 7.4246164772e-13 2.6992297286e-12 1.0284779972e-07" charge=0 multiplicity=3 method=b3lyp basis=def2-svpd config_type=h2_q0_m3 sample_index=19 bond_length=1.350000 units=atomic
H         0.0000000000       0.0000000000       0.0000000000  -3.429569607337e-16  -1.111016972333e-16  -6.622370544869e-02
H         0.0000000000       0.0000000000       1.3500000000  -2.497213429098e-16   3.538764553968e-17   6.622370544869e-02
2
Properties=species:S:1:pos:R:3:forces:R:3 energy=-9.558694302548e-01 dipole="-1.1649908410e-15 4.2356918530e-16 -7.1054273576e-15" quadrupole="-1.8982000772e+00 9.0554771271e-33 -2.0919839951e-15 9.0554771271e-33 -1.8982000772e+00 -1.6139100365e-15 -2.0919839951e-15 -1.6139100365e-15 -3.1322644040e+00" polarizability="7.9581399226e+00 -1.5492828454e-15 7.6155926862e-15 -1.3103777531e-15 7.9581399226e+00 -1.1837693263e-15 7.7934980116e-15 -1.1053692691e-15 1.3579294916e+01" dipole_derivatives="-8.3911075295e-09 1.9515349464e-14 -1.8401947114e-14 -7.4619790615e-14 -8.3910158993e-09 -8.7684867722e-15 -2.8796409701e-13 1.1345091533e-12 -1.1962052182e-07 -8.3911424420e-09 1.4522196425e-13 4.0268248231e-14 1.2905645408e-13 -8.3912376411e-09 -3.6887303769e-14 2.7408630920e-13 -1.2004286454e-12 -1.1962667662e-07" charge=0 multiplicity=3 method=b3lyp basis=def2-svpd config_type=h2_q0_m3 sample_index=20 bond_length=1.400000 units=atomic
H         0.0000000000       0.0000000000       0.0000000000   2.569587596063e-17  -1.700435086871e-17  -5.909995200592e-02
H         0.0000000000       0.0000000000       1.4000000000  -3.692031982628e-17  -7.243475800438e-17   5.909995200592e-02
2
Properties=species:S:1:pos:R:3:forces:R:3 energy=-9.611460485147e-01 dipole="4.0833183451e-16 -1.5788693127e-16 -3.9968028887e-15" quadrupole="-1.9016918493e+00 4.3364011281e-33 4.7436416181e-16 4.3364011281e-33 -1.9016918493e+00 -7.0861635102e-16 4.7436416181e-16 -7.0861635102e-16 -3.0516964608e+00" polarizability="7.9613860237e+00 -1.7194069110e-16 3.0779894850e-15 1.1118800456e-16 7.9613860237e+00 1.4641081692e-15 3.0943322521e-15 1.1450673289e-15 1.2952679649e+01" dipole_derivatives="-1.2445243617e-08 -2.9715902789e-14 -9.4021628303e-14 1.3737713904e-13 -1.2445195798e-08 1.3549369965e-15 -4.5033421436e-12 -3.3653635434e-13 1.2104072258e-07 -1.2445265774e-08 5.3482164982e-14 9.3305409006e-14 -3.8408538930e-14 -1.2445301886e-08 2.2403066625e-14 4.4721171211e-12 3.6082248300e-13 1.2103940766e-07" charge=0 multiplicity=3 method=b3lyp basis=def2-svpd config_type=h2_q0_m3 sample_index=21 bond_length=1.450000 units=atomic
H         0.0000000000       0.0000000000       0.0000000000  -6.540877179411e-17  -8.454999317539e-17  -5.270559010511e-02
H         0.0000000000       0.0000000000       1.4500000000  -7.514109920969e-17  -9.193863874746e-17   5.270559010511e-02
2
Properties=species:S:1:pos:R:3:forces:R:3 energy=-9.658499638001e-01 dipole="-6.4982559138e-16 1.2140804217e-15 -3.5527136788e-15" quadrupole="-1.9058210695e+00 -1.9471749508e-31 -5.7144838269e-16 -1.9471749508e-31 -1.9058210695e+00 3.0355338115e-15 -5.7144838269e-16 3.0355338115e-15 -2.9777229091e+00" polarizability="7.9776114009e+00 -7.5887310903e-16 2.2435904265e-16 -3.9508449889e-16 7.9776114009e+00 -2.6674979790e-15 1.6703758902e-16 -2.7790421285e-15 1.2423494362e+01" dipole_derivatives="-1.3152141458e-08 4.9611530346e-14 6.1529947108e-14 -3.8077535091e-14 -1.3152174089e-08 4.9705362511e-14 1.4294121442e-12 1.6618650900e-12 -1.6613500853e-07 -1.3152268782e-08 -2.5985174173e-14 -7.7615926358e-15 -6.4953223272e-14 -1.3152194851e-08 1.1242681451e-14 -1.4814538485e-12 -1.6445178552e-12 -1.6613857512e-07" charge=0 multiplicity=3 method=b3lyp basis=def2-svpd config_type=h2_q0_m3 sample_index=22 bond_length=1.500000 units=atomic
H         0.0000000000       0.0000000000       0.0000000000  -3.822898217854e-17   5.223956678573e-17  -4.696597120238e-02
H         0.0000000000       0.0000000000       1.5000000000  -2.242717952324e-17  -1.551306522573e-17   4.696597120238e-02
2
Properties=species:S:1:pos:R:3:forces:R:3 energy=-9.700399171013e-01 dipole="-6.3995858267e-16 1.1220781677e-15 0.0000000000e+00" quadrupole="-1.9104010765e+00 2.5230253097e-31 -8.6374903249e-16 2.5230253097e-31 -1.9104010765e+00 -2.3588000551e-16 -8.6374903249e-16 -2.3588000551e-16 -2.9095871426e+00" polarizability="8.0040640517e+00 -3.1694082798e-16 -1.3659763674e-15 -3.8898865247e-16 8.0040640517e+00 1.7173261388e-15 -1.4141608476e-15 1.7657484663e-15 1.1977009924e+01" dipole_derivatives="5.4973995560e-09 -7.7455579753e-14 1.3187334471e-14 6.0940867969e-14 5.4974942291e-09 -1.8925614084e-14 2.4286128664e-13 9.3675067703e-13 2.1618521556e-07 5.4974553509e-09 5.8763666955e-14 6.6332423020e-14 6.8709859526e-14 5.4974296672e-09 2.0550435035e-14 -2.0816681712e-13 -9.7838404045e-13 2.1618324839e-07" charge=0 multiplicity=3 method=b3lyp basis=def2-svpd config_type=h2_q0_m3 sample_index=23 bond_length=1.550000 units=atomic
H         0.0000000000       0.0000000000       0.0000000000   1.589159795844e-16  -2.070556757911e-16  -4.181647844587e-02
H         0.0000000000       0.0000000000       1.5500000000   4.145786972032e-17  -8.782718729353e-18   4.181647844587e-02
2
Properties=species:S:1:pos:R:3:forces:R:3 energy=-9.737689360154e-01 dipole="9.2479556134e-16 5.5324881295e-17 -7.5495165675e-15" quadrupole="-1.9152733396e+00 -4.0475115550e-31 1.8556295532e-15 -4.0475115550e-31 -1.9152733396e+00 9.2200431506e-16 1.8556295532e-15 9.2200431506e-16 -2.8466491880e+00" polarizability="8.0384221114e+00 -4.3381062293e-16 -5.9025438147e-15 -8.0595500232e-16 8.0384221114e+00 -3.9363265935e-15 -6.3207454244e-15 -3.8949768209e-15 1.1600920591e+01" dipole_derivatives="2.4129585024e-08 2.3658365489e-14 -2.5989796422e-14 1.8191732185e-14 2.4129592573e-08 3.8554975500e-14 2.0816681712e-13 -1.8735013541e-13 -4.4927364606e-07 2.4129588209e-08 2.2676149906e-14 3.2548226949e-14 3.6623740298e-14 2.4129704846e-08 -2.8926381411e-14 -2.4980018054e-13 2.3939183968e-13 -4.4927320891e-07" charge=0 multiplicity=3 method=b3lyp basis=def2-svpd config_type=h2_q0_m3 sample_index=24 bond_length=1.600000 units=atomic
H         0.0000000000       0.0000000000       0.0000000000   9.990621516081e-18  -2.728119075315e-17  -3.720048848266e-02
H         0.0000000000       0.0000000000       1.6000000000  -2.109130834728e-16   2.213112455473e-17   3.720048848266e-02
2
Properties=species:S:1:pos:R:3:forces:R:3 energy=-9.770850085706e-01 dipole="1.0957476795e-15 5.1667549897e-16 2.2204460493e-15" quadrupole="-1.9203030811e+00 -1.2398763757e-30 -3.2991421760e-15 -1.2398763757e-30 -1.9203030811e+00 -1.2815384153e-16 -3.2991421760e-15 -1.2815384153e-16 -2.7883649697e+00" polarizability="8.0787218660e+00 4.3825960825e-16 1.1019168926e-14 2.8333726787e-16 8.0787218660e+00 1.8711109445e-15 1.1123839692e-14 1.8557585904e-15 1.1284853708e+01" dipole_derivatives="5.7533045763e-08 -9.3069491638e-14 -3.9516999765e-15 -4.3584601795e-14 5.7533017994e-08 -2.7071578107e-14 -1.3877787808e-13 -3.0184188482e-13 5.6529486300e-07 5.7532956225e-08 -6.9074002049e-14 5.0691520637e-14 4.4316438261e-14 5.7532971279e-08 -3.6075045748e-14 1.1449174941e-13 2.8796409701e-13 5.6529685794e-07" charge=0 multiplicity=3 method=b3lyp basis=def2-svpd config_type=h2_q0_m3 sample_index=25 bond_length=1.650000 units=atomic
H         0.0000000000       0.0000000000       0.0000000000  -1.447465270260e-16  -9.408916268691e-17  -3.306767829858e-02
H         0.0000000000       0.0000000000       1.6500000000   8.987088873325e-17  -4.078569344940e-17   3.306767829858e-02
2
Properties=species:S:1:pos:R:3:forces:R:3 energy=-9.800316098850e-01 dipole="-5.7350770284e-16 -1.0209985656e-15 -1.3766765505e-14" quadrupole="-1.9253765579e+00 9.9632893655e-32 -6.0881485684e-15 9.9632893655e-32 -1.9253765579e+00 -1.0413436218e-15 -6.0881485684e-15 -1.0413436218e-15 -2.7342699275e+00" polarizability="8.1233038725e+00 1.3278834469e-15 9.8839756556e-15 6.8205541096e-16 8.1233038725e+00 1.5218390206e-15 1.0082021225e-14 1.4031324030e-15 1.1020047162e+01" dipole_derivatives="7.6080929999e-08 -7.5380904496e-14 -4.9381099025e-14 5.1415383807e-14 7.6080933639e-08 -5.9584512943e-15 4.8572257327e-14 2.0643209364e-13 -9.7074989713e-07 7.6080880349e-08 2.1289009907e-14 -2.0240046156e-14 -8.8953289991e-14 7.6080955591e-08 -2.2884979323e-14 -1.5612511284e-14 -2.2551405188e-13 -9.7074943223e-07" charge=0 multiplicity=3 method=b3lyp basis=def2-svpd config_type=h2_q0_m3 sample_index=26 bond_length=1.700000 units=atomic
H         0.0000000000       0.0000000000       0.0000000000   3.925689025661e-17  -1.442845723409e-16  -2.937267487048e-02
H         0.0000000000       0.0000000000       1.7000000000   4.250987358959e-17  -7.588025471597e-17   2.937267487048e-02
2
Properties=species:S:1:pos:R:3:forces:R:3 energy=-9.826481230138e-01 dipole="-2.6607191734e-16 -1.2957950707e-18 3.5527136788e-15" quadrupole="-1.9303993573e+00 -4.6237280260e-31 1.0603056649e-15 -4.6237280260e-31 -1.9303993573e+00 8.0279028442e-16 1.0603056649e-15 8.0279028442e-16 -2.6839661026e+00" polarizability="8.1707716056e+00 -4.9503327937e-16 -6.9017626252e-15 -1.9148223542e-16 8.1707716056e+00 -1.2585418457e-15 -7.2135800367e-15 -1.1090548283e-15 1.0798977074e+01" dipole_derivatives="9.7524382137e-08 8.3933174095e-14 -4.4689146972e-14 -1.5359702616e-14 9.7524408902e-08 -9.2752129172e-15 -4.2500725161e-13 1.1449174941e-13 1.1748592845e-06 9.7524271278e-08 4.4740262666e-14 5.5852114774e-14 7.1627254269e-14 9.7524343748e-08 3.2573648225e-14 3.8163916471e-13 -1.0581813203e-13 1.1748596419e-06" charge=0 multiplicity=3 method=b3lyp basis=def2-svpd config_type=h2_q0_m3 sample_index=27 bond_length=1.750000 units=atomic
H         0.0000000000       0.0000000000       0.0000000000   1.167104130254e-16   1.309131805202e-16  -2.607404165501e-02
H         0.0000000000       0.0000000000       1.7500000000   1.749957167290e-16   5.583302039386e-17   2.607404165501e-02
2
Properties=species:S:1:pos:R:3:forces:R:3 energy=-9.849701689928e-01 dipole="-3.6185689049e-16 -8.9050720048e-16 -3.1086244690e-15" quadrupole="-1.9352953241e+00 -3.8505993308e-32 -2.1349614798e-15 -3.8505993308e-32 -1.9352953241e+00 -1.5115110293e-15 -2.1349614798e-15 -1.5115110293e-15 -2.6371119356e+00" polarizability="8.2199608106e+00 -3.2743921157e-16 4.9507171491e-15 -3.6085288880e-16 8.2199608106e+00 1.7700162817e-15 4.9584182585e-15 1.6538405680e-15 1.0615239972e+01" dipole_derivatives="9.7277403651e-08 -9.1814963292e-14 1.5043672388e-14 1.8568108967e-14 9.7277450535e-08 6.0206486854e-14 -2.4286128664e-13 3.4694469520e-14 -1.2697825603e-06 9.7277541560e-08 2.0957375002e-14 3.9910422331e-14 4.4437642721e-14 9.7277436410e-08 -6.2777284788e-14 2.0990154059e-13 8.6736173799e-15 -1.2697831051e-06" charge=0 multiplicity=3 method=b3lyp basis=def2-svpd config_type=h2_q0_m3 sample_index=28 bond_length=1.800000 units=atomic
H         0.0000000000       0.0000000000       0.0000000000   1.612444424970e-16  -1.901873315176e-18  -2.313356157133e-02
H         0.0000000000       0.0000000000       1.8000000000   1.825609103678e-16  -1.015225255720e-17   2.313356157133e-02
2
Properties=species:S:1:pos:R:3:forces:R:3 energy=-9.870298958345e-01 dipole="1.5428651801e-16 3.8680422705e-16 8.8817841970e-16" quadrupole="-1.9400053997e+00 4.1925013266e-31 1.2903935575e-15 4.1925013266e-31 -1.9400053997e+00 -6.2293499249e-16 1.2903935575e-15 -6.2293499249e-16 -2.5934138606e+00" polarizability="8.2699129160e+00 6.1944548852e-16 6.5672490221e-15 1.3355686622e-15 8.2699129160e+00 2.1527142922e-15 6.5186020982e-15 2.2616419187e-15 1.0463231666e+01" dipole_derivatives="8.0382843594e-08 7.7954840516e-15 -1.4133772465e-13 5.6260161779e-14 8.0382828286e-08 4.6049573062e-14 -8.3266726847e-14 1.8561541193e-13 9.9200820822e-07 8.0382806715e-08 -7.8400907987e-14 -5.6234258780e-14 -4.3888769128e-14 8.0382821815e-08 -1.0694973709e-14 6.9388939039e-15 -1.6479873022e-13 9.9200861414e-07" charge=0 multiplicity=3 method=b3lyp basis=def2-svpd config_type=h2_q0_m3 sample_index=29 bond_length=1.850000 units=atomic
H         0.0000000000       0.0000000000       0.0000000000   1.927204796475e-17   1.729235002634e-16  -2.051578668641e-02
H         0.0000000000       0.0000000000       1.8500000000   4.268285347319e-17   2.482609857808e-16   2.051578668641e-02
2
Properties=species:S:1:pos:R:3:forces:R:3 energy=-9.888562170565e-01 dipole="8.0446441591e-16 -1.0043660661e-15 -9.3258734069e-15" quadrupole="-1.9444864881e+00 2.7676824752e-31 1.5139444499e-15 2.7676824752e-31 -1.9444864881e+00 -2.3733366153e-15 1.5139444499e-15 -2.3733366153e-15 -2.5526191484e+00" polarizability="8.3198531039e+00 -8.5066481699e-16 -4.4900966137e-15 -7.3538472990e-16 8.3198531039e+00 6.1513611624e-17 -4.3715002301e-15 5.9709056306e-17 1.0338175591e+01" dipole_derivatives="6.3901681004e-08 -7.4312899105e-14 -1.0905643980e-13 -1.2221191113e-13 6.3901648508e-08 -8.5883798684e-15 -6.4184768611e-14 2.2551405188e-14 2.0406762738e-07 6.3901546008e-08 -1.9980290891e-14 2.5490657381e-14 1.6732009938e-14 6.3901582320e-08 -2.2320328833e-14 6.9388939039e-14 -6.9388939039e-15 2.0406763779e-07" charge=0 multiplicity=3 method=b3lyp basis=def2-svpd config_type=h2_q0_m3 sample_index=30 bond_length=1.900000 units=atomic
H         0.0000000000       0.0000000000       0.0000000000  -9.477789862724e-17   4.963730504612e-17  -1.818777381683e-02
H         0.0000000000       0.0000000000       1.9000000000  -1.094653824690e-16   3.139907817153e-17   1.818777381683e-02
2
Properties=species:S:1:pos:R:3:forces:R:3 energy=-9.904750501918e-01 dipole="-1.3024335328e-16 -4.8571934614e-16 8.8817841970e-16" quadrupole="-1.9487098281e+00 2.5943733213e-31 5.6852934448e-16 2.5943733213e-31 -1.9487098281e+00 -2.1074406136e-15 5.6852934448e-16 -2.1074406136e-15 -2.5145095723e+00" polarizability="8.3691689549e+00 -2.5455841218e-16 1.8952932600e-15 -7.9608099510e-16 8.3691689549e+00 9.1106770435e-16 1.9257277253e-15 8.9111741454e-16 1.0235895850e+01" dipole_derivatives="-3.3181427033e-09 2.6328431312e-14 4.6003419400e-14 8.4690710541e-14 -3.3181364985e-09 1.0276997291e-14 -1.0408340856e-14 -7.8062556419e-14 -1.7611396577e-06 -3.3182818839e-09 2.5645669150e-14 -5.3912841008e-14 3.9509783455e-14 -3.3181438754e-09 2.3678811228e-15 5.0306980803e-14 9.1940344227e-14 -1.7611398173e-06" charge=0 multiplicity=3 method=b3lyp basis=def2-svpd config_type=h2_q0_m3 sample_index=31 bond_length=1.950000 units=atomic
H         0.0000000000       0.0000000000       0.0000000000  -6.910345272989e-17  -5.535521358287e-17  -1.611898205673e-02
H         0.0000000000       0.0000000000       1.9500000000  -5.650465120523e-17  -5.373871249611e-17   1.611898205673e-02
2
Properties=species:S:1:pos:R:3:forces:R:3 energy=-9.919095410131e-01 dipole="-1.1695415924e-15 -3.0601101778e-16 0.0000000000e+00" quadrupole="-1.9526592023e+00 -3.6182363338e-31 -1.1369965355e-15 -3.6182363338e-31 -1.9526592023e+00 -1.3981997615e-16 -1.1369965355e-15 -1.3981997615e-16 -2.4788957220e+00" polarizability="8.4173889457e+00 1.3942950575e-15 4.3669846764e-15 1.7241562938e-15 8.4173889457e+00 -1.5156851553e-15 4.3055103831e-15 -1.5538316437e-15 1.0152748563e+01" dipole_derivatives="-2.2514489714e-08 -8.2456528922e-14 -1.2351546048e-13 1.0601408313e-14 -2.2514317183e-08 -6.8105133735e-14 -5.2041704279e-14 -7.2858385991e-14 3.4598681290e-06 -2.2514375729e-08 -3.0847627361e-14 7.1424734166e-14 1.8954482892e-14 -2.2514361154e-08 9.2319635175e-14 3.8163916471e-14 1.0148132334e-13 3.4598683883e-06" charge=0 multiplicity=3 method=b3lyp basis=def2-svpd config_type=h2_q0_m3 sample_index=32 bond_length=2.000000 units=atomic
H         0.0000000000       0.0000000000       0.0000000000   1.523712376122e-16   3.969943437934e-17  -1.428126035102e-02
H         0.0000000000       0.0000000000       2.0000000000   4.831458451484e-17   1.297342601258e-16   1.428126035102e-02
2
Properties=species:S:1:pos:R:3:forces:R:3 energy=-9.931802813610e-01 dipole="7.7364543091e-16 7.5478048745e-17 -8.8817841970e-15" quadrupole="-1.9563290751e+00 -1.9445187332e-31 3.5914350803e-15 -1.9445187332e-31 -1.9563290751e+00 -1.3418067049e-15 3.5914350803e-15 -1.3418067049e-15 -2.4456116334e+00" polarizability="8.4641651836e+00 -4.5103102119e-16 -1.1516627834e-14 -3.4609651522e-16 8.4641651836e+00 -1.1940907930e-15 -1.1515827605e-14 -1.0808880818e-15 1.0085727646e+01" dipole_derivatives="-1.0190547780e-07 3.9225809370e-15 -1.9714552449e-14 6.5444056925e-14 -1.0190549299e-07 -2.6502438375e-14 -1.6479873022e-14 -3.9898639947e-14 -3.6659823788e-06 -1.0190554837e-07 -4.8441653263e-14 -1.4142783821e-14 5.4899049028e-14 -1.0190555544e-07 3.6225317818e-14 2.7755575616e-14 8.6736173799e-16 -3.6659820405e-06" charge=0 multiplicity=3 method=b3lyp basis=def2-svpd config_type=h2_q0_m3 sample_index=33 bond_length=2.050000 units=atomic
H         0.0000000000       0.0000000000       0.0000000000   1.566585662642e-16  -5.194607399723e-17  -1.264887184655e-02
H         0.0000000000       0.0000000000       2.0500000000   1.513252338656e-16   6.004455600593e-17   1.264887184655e-02
2
Properties=species:S:1:pos:R:3:forces:R:3 energy=-9.943055606713e-01 dipole="-1.4109166669e-15 -7.8979201638e-16 -7.9936057773e-15" quadrupole="-1.9597222072e+00 -1.8542903972e-31 -1.7739526177e-15 -1.8542903972e-31 -1.9597222072e+00 -4.1839334330e-15 -1.7739526177e-15 -4.1839334330e-15 -2.4145104585e+00" polarizability="8.5092501794e+00 1.9967406805e-16 4.5912917002e-15 1.9093893164e-16 8.5092501794e+00 3.7377202054e-15 4.5858228922e-15 3.7664078204e-15 1.0032039788e+01" dipole_derivatives="-1.5339620511e-07 -9.8798175073e-14 -1.0165917239e-13 8.6837619703e-14 -1.5339629850e-07 3.6110061324e-14 7.6327832943e-14 -6.6786853825e-14 1.5807109727e-06 -1.5339609879e-07 -1.8287467159e-14 -8.4184765827e-15 2.7740209435e-14 -1.5339629799e-07 -2.0336137324e-14 -1.5005358067e-13 3.3827107782e-14 1.5807109822e-06" charge=0 multiplicity=3 method=b3lyp basis=def2-svpd config_type=h2_q0_m3 sample_index=34 bond_length=2.100000 units=atomic
H         0.0000000000       0.0000000000       0.0000000000   1.379973918204e-16  -3.214424898647e-17  -1.119854908938e-02
H         0.0000000000       0.0000000000       2.1000000000   7.331361159698e-17   5.935772351585e-17   1.119854908938e-02
2
Properties=species:S:1:pos:R:3:forces:R:3 energy=-9.953015732188e-01 dipole="7.5472973362e-16 -8.5029914518e-17 -8.8817841970e-16" quadrupole="-1.9628479585e+00 -9.2196083880e-31 4.5207748261e-15 -9.2196083880e-31 -1.9628479585e+00 1.6975065127e-15 4.5207748261e-15 1.6975065127e-15 -2.3854599765e+00" polarizability="8.5524822721e+00 -1.7459495308e-17 -1.3450280459e-14 -4.8846767879e-16 8.5524822721e+00 -9.9606048088e-16 -1.3382034045e-14 -9.8322716842e-16 9.9894879482e+00" dipole_derivatives="-1.5723106725e-07 8.1962773476e-14 -6.3578199453e-14 -4.7890790926e-15 -1.5723097690e-07 -2.2790694824e-14 -1.0148132334e-13 -4.6837533851e-14 3.1052602746e-06 -1.5723094570e-07 8.4984230820e-14 6.4159674337e-14 4.3596475906e-14 -1.5723092487e-07 -1.0921176671e-13 1.0928757899e-13 2.4286128664e-14 3.1052604628e-06" charge=0 multiplicity=3 method=b3lyp basis=def2-svpd config_type=h2_q0_m3 sample_index=35 bond_length=2.150000 units=atomic
H         0.0000000000       0.0000000000       0.0000000000   3.848211960225e-17   1.370842469801e-16  -9.909468188937e-03
H         0.0000000000       0.0000000000       2.1500000000  -1.192805130315e-16  -1.814155118603e-17   9.909468188937e-03
2
Properties=species:S:1:pos:R:3:forces:R:3 energy=-9.961826627338e-01 dipole="-5.9843046120e-16 -9.4697617487e-16 -8.8817841970e-15" quadrupole="-1.9657201293e+00 -2.8029217173e-31 -5.7097236325e-15 -2.8029217173e-31 -1.9657201293e+00 -2.7500361978e-15 -5.7097236325e-15 -2.7500361978e-15 -2.3583394182e+00" polarizability="8.5937681740e+00 8.4259168233e-16 1.1433312351e-14 9.0708059275e-16 8.5937681740e+00 3.6647730245e-16 1.1325983773e-14 2.4473240364e-16 9.9561756194e+00" dipole_derivatives="-2.5030698239e-07 -7.4739218319e-14 -5.3461167171e-14 1.2875547613e-14 -2.5030713204e-07 5.3336837641e-14 -7.1123662515e-14 1.1882855810e-13 -7.0666924682e-06 -2.5030700514e-07 1.9306152937e-14 4.5294406366e-14 2.4510263217e-14 -2.5030699246e-07 -7.1024950222e-14 3.6429192996e-14 -8.9338259013e-14 -7.0666924838e-06" charge=0 multiplicity=3 method=b3lyp basis=def2-svpd config_type=h2_q0_m3 sample_index=36 bond_length=2.200000 units=atomic
H         0.0000000000       0.0000000000       0.0000000000   1.004400734579e-17   1.336571415810e-16  -8.763204545508e-03
H         0.0000000000       0.0000000000       2.2000000000  -1.811866655285e-17   1.595283841554e-16   8.763204545508e-03
2
Properties=species:S:1:pos:R:3:forces:R:3 energy=-9.969615535431e-01 dipole="7.5831761213e-16 -1.0095171542e-15 -8.8817841970e-16" quadrupole="-1.9683550810e+00 -1.4493035795e-30 -8.0214900275e-16 -1.4493035795e-30 -1.9683550810e+00 -4.3360938845e-15 -8.0214900275e-16 -4.3360938845e-15 -2.3330371603e+00" polarizability="8.6330632780e+00 -1.0658694851e-16 5.2999880858e-15 -3.6659845334e-16 8.6330632780e+00 4.9975691471e-16 5.4414031137e-15 4.0978198406e-16 9.9302569740e+00" dipole_derivatives="-2.0525624342e-07 -9.7720821324e-14 -9.3508625146e-14 1.9680094193e-14 -2.0525623838e-07 -2.4763719640e-14 7.8062556419e-14 4.3368086899e-14 6.0701626546e-06 -2.0525623480e-07 -4.1245408996e-15 1.0641116039e-13 -3.0248853508e-15 -2.0525624836e-07 4.5507185941e-14 -4.2500725161e-14 -7.1557343384e-14 6.0701627431e-06" charge=0 multiplicity=3 method=b3lyp basis=def2-svpd config_type=h2_q0_m3 sample_index=37 bond_length=2.250000 units=atomic
H         0.0000000000       0.0000000000       0.0000000000  -8.049209859785e-17   1.536085324883e-16  -7.743596413717e-03
H         0.0000000000       0.0000000000       2.2500000000  -2.579907486800e-17   1.708714725173e-16   7.743596413717e-03
2
Properties=species:S:1:pos:R:3:forces:R:3 energy=-9.976495181210e-01 dipole="-3.9753257265e-16 4.3858924919e-16 -7.9936057773e-15" quadrupole="-1.9707708447e+00 1.5591972851e-31 -4.8583854280e-16 1.5591972851e-31 -1.9707708447e+00 -5.4473058332e-17 -4.8583854280e-16 -5.4473058332e-17 -2.3094475447e+00" polarizability="8.6703673964e+00 -6.0004020920e-16 1.1736587693e-14 -1.2730916594e-16 8.6703673964e+00 7.4596726643e-16 1.1704213999e-14 9.4016900409e-16 9.9105697642e+00" dipole_derivatives="-1.8353767485e-07 7.3964476317e-14 -2.6660563916e-14 -6.7700929096e-15 -1.8353761964e-07 -9.1228450803e-14 -5.6378512969e-14 -2.9056618223e-14 1.4694797670e-06 -1.8353755832e-07 -4.9688207647e-14 -1.8854288283e-14 6.5705904226e-14 -1.8353764228e-07 1.5982543631e-14 1.1796119637e-13 2.2985086057e-14 1.4694797063e-06" charge=0 multiplicity=3 method=b3lyp basis=def2-svpd config_type=h2_q0_m3 sample_index=38 bond_length=2.300000 units=atomic
H         0.0000000000       0.0000000000       0.0000000000   1.115942501636e-16  -1.904455119803e-17  -6.836540436228e-03
H         0.0000000000       0.0000000000       2.3000000000  -5.252865751807e-17  -2.672535056289e-17   6.836540436228e-03
2
Properties=species:S:1:pos:R:3:forces:R:3 energy=-9.982566026906e-01 dipole="-5.7267224921e-16 1.6812700226e-16 -1.3322676296e-14" quadrupole="-1.9729853680e+00 -5.4718749308e-31 -4.2625276609e-15 -5.4718749308e-31 -1.9729853680e+00 -9.2068506722e-16 -4.2625276609e-15 -9.2068506722e-16 -2.2874707283e+00" polarizability="8.7057064930e+00 -2.2274189208e-15 4.5622641213e-15 -2.0475668302e-15 8.7057064930e+00 4.7273044918e-16 4.6139662857e-15 4.9853478391e-16 9.8958779056e+00" dipole_derivatives="-2.4588174488e-07 -1.0772586340e-13 3.0894023589e-14 -4.7703686935e-14 -2.4588174762e-07 3.5230409176e-15 -2.6020852140e-14 -3.4260788651e-14 -9.8153223340e-06 -2.4588177850e-07 -4.5444957337e-14 -4.4593958551e-15 -2.1632947819e-14 -2.4588185915e-07 -5.4112745437e-14 -2.9056618223e-14 2.6020852140e-14 -9.8153222295e-06" charge=0 multiplicity=3 method=b3lyp basis=def2-svpd config_type=h2_q0_m3 sample_index=39 bond_length=2.350000 units=atomic
H         0.0000000000       0.0000000000       0.0000000000  -3.458249093108e-17   3.250943014665e-17  -6.029772646567e-03
H         0.0000000000       0.0000000000       2.3500000000   9.912531625089e-17   1.361506056403e-16   6.029772646567e-03
2
Properties=species:S:1:pos:R:3:forces:R:3 energy=-9.987917784126e-01 dipole="5.2410315602e-16 -1.3214364786e-15 7.1054273576e-15" quadrupole="-1.9750158473e+00 4.1857279249e-31 2.4092893673e-15 4.1857279249e-31 -1.9750158473e+00 -2.8963598502e-15 2.4092893673e-15 -2.8963598502e-15 -2.2670116732e+00" polarizability="8.7391224051e+00 7.9041212498e-16 -8.3566189083e-15 -5.0932385085e-16 8.7391224051e+00 -2.7470977158e-16 -8.2248296443e-15 -3.2398747326e-16 9.8849522896e+00" dipole_derivatives="-9.8782324614e-08 6.0842590322e-14 -1.1782363471e-13 1.0744017441e-14 -9.8782301866e-08 -3.7334602653e-14 1.6046192153e-14 5.1174342541e-14 9.8553374368e-06 -9.8782349058e-08 -8.3693792234e-14 6.0469366258e-14 -4.4625269833e-15 -9.8782297065e-08 6.4384441005e-14 -1.7347234760e-14 -2.3418766926e-14 9.8553375838e-06" charge=0 multiplicity=3 method=b3lyp basis=def2-svpd config_type=h2_q0_m3 sample_index=40 bond_length=2.400000 units=atomic
H         0.0000000000       0.0000000000       0.0000000000   6.182402563713e-18  -4.914668993923e-17  -5.312594648231e-03
H         0.0000000000       0.0000000000       2.4000000000   3.827790685141e-17  -6.371113291998e-17   5.312594648231e-03
2
Properties=species:S:1:pos:R:3:forces:R:3 energy=-9.992630394891e-01 dipole="-4.5547334189e-16 -5.6735598770e-16 -7.9936057773e-15" quadrupole="-1.9768787783e+00 -6.9196050530e-32 -1.1870108890e-15 -6.9196050530e-32 -1.9768787783e+00 -2.7655267244e-15 -1.1870108890e-15 -2.7655267244e-15 -2.2479778524e+00" polarizability="8.7706782076e+00 -2.7239615081e-16 2.8322043872e-15 -3.0663079996e-16 8.7706782076e+00 5.0551016089e-16 2.9198082320e-15 4.7713308297e-16 9.8773266788e+00" dipole_derivatives="-4.6766830118e-08 6.0219962781e-14 -5.5624222485e-14 -1.4063753732e-14 -4.6766995170e-08 1.4099263744e-14 -5.3776427755e-14 -3.1225022568e-14 1.7828821947e-06 -4.6766768571e-08 -3.2195096863e-14 4.0897284147e-14 3.4035096563e-14 -4.6766843932e-08 -1.3145187008e-14 2.1684043450e-14 -3.4694469520e-15 1.7828822572e-06" charge=0 multiplicity=3 method=b3lyp basis=def2-svpd config_type=h2_q0_m3 sample_index=41 bond_length=2.450000 units=atomic
H         0.0000000000       0.0000000000       0.0000000000  -3.456294348979e-17  -7.455749468122e-17  -4.675632510109e-03
H         0.0000000000       0.0000000000       2.4500000000   2.617138808134e-17  -5.649749160186e-18   4.675632510109e-03
2
Properties=species:S:1:pos:R:3:forces:R:3 energy=-9.996775744867e-01 dipole="-7.4154058452e-16 9.9677573332e-17 -3.5527136788e-15" quadrupole="-1.9785888125e+00 6.1047094159e-32 1.1763646981e-15 6.1047094159e-32 -1.9785888125e+00 -1.5330479131e-16 1.1763646981e-15 -1.5330479131e-16 -2.2302815343e+00" polarizability="8.8004398147e+00 -5.2375217300e-16 -6.2371582205e-15 -1.2548762334e-15 8.8004398147e+00 1.4381915150e-15 -6.1790166346e-15 1.3459907382e-15 9.8721840614e+00" dipole_derivatives="-1.0158840674e-07 1.5038709717e-14 1.4924731275e-14 -4.8105929835e-14 -1.0158846860e-07 -8.6139054525e-14 9.0205620751e-14 -1.8214596498e-14 -1.4111713714e-05 -1.0158841027e-07 2.6631618754e-14 -7.5177003844e-14 -2.4033272244e-14 -1.0158848481e-07 9.9501879244e-15 -1.5178830415e-14 1.8648277367e-14 -1.4111713704e-05" charge=0 multiplicity=3 method=b3lyp basis=def2-svpd config_type=h2_q0_m3 sample_index=42 bond_length=2.500000 units=atomic
H         0.0000000000       0.0000000000       0.0000000000   3.777326144265e-17  -2.813703828282e-17  -4.110608204321e-03
H         0.0000000000       0.0000000000       2.5000000000   4.007245454181e-17  -1.570101243285e-18   4.110608204321e-03
2
Properties=species:S:1:pos:R:3:forces:R:3 energy=-1.000642028962e+00 dipole="4.4295418280e-16 -5.2606701198e-16 1.9539925233e-14" quadrupole="-1.9829264529e+00 -4.0668592995e-31 -8.9337307938e-16 -4.0668592995e-31 -1.9829264529e+00 -3.3361113371e-16 -8.9337307938e-16 -3.3361113371e-16 -2.1843920278e+00" polarizability="8.8796665814e+00 -1.4627191562e-15 -5.5330202030e-15 -9.3530398957e-16 8.8796665814e+00 2.0107636998e-16 -5.4783048861e-15 1.6406879782e-16 9.8656227763e+00" dipole_derivatives="8.3175336606e-08 -1.5388992880e-13 5.3545307456e-14 7.6140825923e-15 8.3175298996e-08 7.0346896450e-15 5.0306980803e-14 -8.7169854668e-14 -1.9247606650e-05 8.3175342916e-08 -6.6143714028e-14 8.4388530144e-15 3.8375359521e-14 8.3175268016e-08 -1.1085518836e-14 8.0664641633e-14 -2.2985086057e-14 -1.9247606735e-05" charge=0 multiplicity=3 method=b3lyp basis=def2-svpd config_type=h2_q0_m3 sample_index=43 bond_length=2.650000 units=atomic
H         0.0000000000       0.0000000000       0.0000000000  -1.049066020194e-17   6.385353039926e-17  -2.776921777211e-03
H         0.0000000000       0.0000000000       2.6500000000   1.884781433947e-16   1.051243545012e-16   2.776921777211e-03
2
Properties=species:S:1:pos:R:3:forces:R:3 energy=-1.001291457724e+00 dipole="1.3974464156e-16 4.0739971804e-16 2.6645352591e-15" quadrupole="-1.9862850364e+00 2.4098008676e-32 1.0238089064e-15 2.4098008676e-32 -1.9862850364e+00 1.7466091402e-15 1.0238089064e-15 1.7466091402e-15 -2.1477119024e+00" polarizability="8.9453547067e+00 1.1669454102e-16 -4.8391523123e-15 -2.7324333257e-16 8.9453547067e+00 1.2974852157e-15 -4.8601769628e-15 1.2998178371e-15 9.8647678714e+00" dipole_derivatives="2.3874464581e-07 -1.7849265735e-13 3.4002212950e-14 6.6908241065e-14 2.3874474050e-07 -7.3098715551e-14 -4.3368086899e-14 5.2800645800e-14 -1.6073520765e-05 2.3874464285e-07 -1.0186599039e-13 3.6367272605e-14 7.6279396416e-14 2.3874466766e-07 6.0891911990e-14 3.5561831258e-14 2.6454533009e-14 -1.6073520793e-05" charge=0 multiplicity=3 method=b3lyp basis=def2-svpd config_type=h2_q0_m3 sample_index=44 bond_length=2.800000 units=atomic
H         0.0000000000       0.0000000000       0.0000000000   8.343879163685e-17  -9.139179577439e-17  -1.864111614045e-03
H         0.0000000000       0.0000000000       2.8000000000  -1.648700461505e-17  -8.377377068485e-17   1.864111614045e-03
2
Properties=species:S:1:pos:R:3:forces:R:3 energy=-1.001726841818e+00 dipole="-1.2725931143e-15 -1.2685390461e-15 1.3322676296e-14" quadrupole="-1.9888721843e+00 1.5499771792e-29 -4.0335367598e-15 1.5499771792e-29 -1.9888721843e+00 -2.2674742544e-15 -4.0335367598e-15 -2.2674742544e-15 -2.1184271445e+00" polarizability="8.9994325240e+00 1.8474462774e-15 1.3914811139e-14 6.4696546776e-16 8.9994325240e+00 1.9704185431e-16 1.3885175633e-14 1.7825275498e-16 9.8631457841e+00" dipole_derivatives="3.4381825903e-07 9.5191485836e-14 8.2117277316e-14 7.9741003003e-14 3.4381838620e-07 -1.3845388612e-14 5.5402731014e-14 7.5894152074e-15 6.0845144775e-06 3.4381831498e-07 -3.4260406779e-15 4.9133998342e-14 -3.2419972157e-14 3.4381835095e-07 -3.1055086768e-14 -4.1958624075e-14 -5.4101688407e-14 6.0845144151e-06" charge=0 multiplicity=3 method=b3lyp basis=def2-svpd config_type=h2_q0_m3 sample_index=45 bond_length=2.950000 units=atomic
H         0.0000000000       0.0000000000       0.0000000000   3.248675121009e-16   1.969059351759e-17  -1.248656352917e-03
H         0.0000000000       0.0000000000       2.9500000000   3.880368415134e-16  -2.572983255239e-17   1.248656352917e-03
2
Properties=species:S:1:pos:R:3:forces:R:3 energy=-1.002018731792e+00 dipole="7.7572413326e-16 -8.4514562880e-16 -8.8817841970e-15" quadrupole="-1.9908489994e+00 3.8508293119e-29 1.7700376718e-15 3.8508293119e-29 -1.9908489994e+00 -3.7656830169e-15 1.7700376718e-15 -3.7656830169e-15 -2.0949799047e+00" polarizability="9.0437039340e+00 -1.1582095042e-15 -3.8251467066e-15 -4.9622177328e-16 9.0437039340e+00 -9.8046294124e-16 -3.8120209398e-15 -1.0117458814e-15 9.8575770933e+00" dipole_derivatives="3.3076455039e-07 -8.4301661332e-14 -9.6842289897e-15 1.1373927404e-13 3.3076448758e-07 -7.3463689465e-16 1.9190378453e-14 -3.8109706363e-14 2.9689196122e-05 3.3076444557e-07 -6.4940183844e-14 -1.2855079509e-14 -1.5555555839e-14 3.3076444383e-07 -1.4673368872e-14 2.4394548881e-14 3.6917083973e-14 2.9689196092e-05" charge=0 multiplicity=3 method=b3lyp basis=def2-svpd config_type=h2_q0_m3 sample_index=46 bond_length=3.100000 units=atomic
H         0.0000000000       0.0000000000       0.0000000000  -4.192971052071e-16   1.302057004640e-16  -8.384035431554e-04
H         0.0000000000       0.0000000000       3.1000000000  -3.597844237987e-16   1.716827711681e-16   8.384035431554e-04
2
Properties=species:S:1:pos:R:3:forces:R:3 energy=-1.002215270203e+00 dipole="-9.7485754551e-16 5.6436134852e-16 2.1316282073e-14" quadrupole="-1.9923458496e+00 -2.4264217643e-30 -5.0920813189e-15 -2.4264217643e-30 -1.9923458496e+00 8.2614425784e-16 -5.0920813189e-15 8.2614425784e-16 -2.0760581612e+00" polarizability="9.0798078783e+00 1.2252368015e-15 1.2940009173e-14 1.5229159672e-15 9.0798078783e+00 -2.6735994508e-15 1.3065797854e-14 -2.6127988921e-15 9.8470681950e+00" dipole_derivatives="-1.4865889046e-08 -6.7233048212e-14 2.1870307588e-14 -5.4404436443e-14 -1.4865944800e-08 -3.6060656703e-14 7.9688859678e-15 -1.0261973563e-13 8.3232173763e-06 -1.4865883330e-08 -2.9987064133e-14 -6.6201920935e-14 -7.9721748447e-14 -1.4865924592e-08 1.0977311218e-14 -1.4148838351e-14 5.2909066017e-14 8.3232173391e-06" charge=0 multiplicity=3 method=b3lyp basis=def2-svpd config_type=h2_q0_m3 sample_index=47 bond_length=3.250000 units=atomic
H         0.0000000000       0.0000000000       0.0000000000  -2.014563737883e-17  -7.323451014224e-17  -5.666179629918e-04
H         0.0000000000       0.0000000000       3.2500000000   7.990640584602e-17   6.851748953810e-17   5.666179629918e-04
2
Properties=species:S:1:pos:R:3:forces:R:3 energy=-1.002348658589e+00 dipole="1.1098082312e-15 -1.6272948647e-16 1.4210854715e-14" quadrupole="-1.9934672314e+00 -5.5330825786e-30 3.6470151918e-15 -5.5330825786e-30 -1.9934672314e+00 -3.0679574285e-15 3.6470151918e-15 -3.0679574285e-15 -2.0606056088e+00" polarizability="9.1091750413e+00 -5.0873172902e-16 5.7227950438e-15 1.2966740480e-15 9.1091750413e+00 3.2565226210e-15 5.7499562595e-15 3.2007320230e-15 9.8308780826e+00" dipole_derivatives="-2.9720503767e-07 7.1515247990e-15 7.6062934002e-15 2.7124776330e-14 -2.9720516653e-07 -3.5329634328e-14 2.0437210951e-14 -1.6046192153e-14 -4.1978804825e-05 -2.9720502037e-07 -5.4183360068e-14 -5.1121261107e-14 4.3744776301e-14 -2.9720509329e-07 -3.4505055799e-14 -5.3125906452e-15 1.5775141610e-14 -4.1978804914e-05" charge=0 multiplicity=3 method=b3lyp basis=def2-svpd config_type=h2_q0_m3 sample_index=48 bond_length=3.400000 units=atomic
H         0.0000000000       0.0000000000       0.0000000000   3.646627313971e-17  -2.781770910382e-16  -3.864702485109e-04
H         0.0000000000       0.0000000000       3.4000000000   4.124939681756e-17  -3.187628140339e-16   3.864702485107e-04
2
Properties=species:S:1:pos:R:3:forces:R:3 energy=-1.002440067976e+00 dipole="4.8790551563e-16 -1.2365735548e-16 1.4210854715e-14" quadrupole="-1.9942950109e+00 1.8213538038e-30 1.4466205178e-15 1.8213538038e-30 -1.9942950109e+00 -4.5889958628e-16 1.4466205178e-15 -4.5889958628e-16 -2.0478291072e+00" polarizability="9.1330283736e+00 -4.5279402137e-16 -3.4106560050e-15 8.3698209067e-16 9.1330283736e+00 5.1591908063e-17 -3.3367773083e-15 5.0698003172e-17 9.8065120687e+00" dipole_derivatives="-2.3731230416e-08 2.1964314273e-15 -4.6297574429e-14 4.7754721402e-15 -2.3731189111e-08 -7.5165279164e-14 -3.6889978919e-14 2.8595832299e-14 1.5905473609e-05 -2.3731179276e-08 4.6079721711e-14 2.8438427367e-14 -2.6467985919e-14 -2.3731201146e-08 -5.3144277538e-14 -1.3010426070e-14 5.6107462426e-15 1.5905473581e-05" charge=0 multiplicity=3 method=b3lyp basis=def2-svpd config_type=h2_q0_m3 sample_index=49 bond_length=3.550000 units=atomic
H         0.0000000000       0.0000000000       0.0000000000   4.547630726989e-17  -2.558906045087e-17  -2.660627904403e-04
H         0.0000000000       0.0000000000       3.5500000000   1.317726161325e-16  -4.537197173831e-17   2.660627904403e-04
2
Properties=species:S:1:pos:R:3:forces:R:3 energy=-1.002503199149e+00 dipole="-5.3693966934e-16 -4.7942722328e-16 -1.4210854715e-14" quadrupole="-1.9948932877e+00 -5.3138866979e-29 7.3935587304e-16 -5.3138866979e-29 -1.9948932877e+00 -2.8771606292e-15 7.3935587304e-16 -2.8771606292e-15 -2.0371649564e+00" polarizability="9.1524380646e+00 -5.6842738278e-16 -1.9949051794e-15 -7.7793969979e-16 9.1524380646e+00 -1.5877627888e-15 -1.9720181013e-15 -1.6322372485e-15 9.7763220846e+00" dipole_derivatives="6.6370178028e-08 -2.4979257459e-14 -4.4803832903e-14 1.7902238241e-14 6.6370230166e-08 7.0639273681e-14 3.4694469520e-14 1.8783802638e-14 3.5332293740e-05 6.6370170052e-08 8.5207040519e-14 1.2051416371e-14 -5.1971019246e-14 6.6370233755e-08 2.2172985913e-14 -2.4394548881e-14 6.9659989582e-14 3.5332293696e-05" charge=0 multiplicity=3 method=b3lyp basis=def2-svpd config_type=h2_q0_m3 sample_index=50 bond_length=3.700000 units=atomic
H         0.0000000000       0.0000000000       0.0000000000   9.992033258644e-17   1.252312981641e-16  -1.842822438436e-04
H         0.0000000000       0.0000000000       3.7000000000   1.204309740677e-16   2.207443384000e-16   1.842822438436e-04
2
Properties=species:S:1:pos:R:3:forces:R:3 energy=-1.002546905125e+00 dipole="-7.4122462360e-16 -3.8705981241e-16 9.7699626167e-15" quadrupole="-1.9953121523e+00 2.3805253241e-30 2.1394972766e-15 2.3805253241e-30 -1.9953121523e+00 -3.6404419783e-15 2.1394972766e-15 -3.6404419783e-15 -2.0282495126e+00" polarizability="9.1682928318e+00 -1.1973915182e-15 -9.9439510766e-15 -1.0802070854e-15 9.1682928318e+00 -8.3265994214e-16 -9.9001741970e-15 -9.2121023139e-16 9.7428362660e+00" dipole_derivatives="-2.9821484174e-07 -6.5961982170e-14 -9.7148729945e-14 4.9478793145e-14 -2.9821479261e-07 -1.0666557373e-13 3.0926866970e-14 1.4555414166e-14 -6.5993821883e-05 -2.9821473987e-07 -1.4784482928e-14 -1.0856462563e-13 1.9939156773e-14 -2.9821467813e-07 -6.3465348619e-15 1.4365678785e-14 2.5858221814e-14 -6.5993821905e-05" charge=0 multiplicity=3 method=b3lyp basis=def2-svpd config_type=h2_q0_m3 sample_index=51 bond_length=3.850000 units=atomic
H         0.0000000000       0.0000000000       0.0000000000   8.643759984690e-17   8.908987126947e-18  -1.276705777728e-04
H         0.0000000000       0.0000000000       3.8500000000  -1.114126922059e-16   3.323371275868e-17   1.276705777730e-04
2
Properties=species:S:1:pos:R:3:forces:R:3 energy=-1.002577134933e+00 dipole="-2.8265772147e-16 3.8974782665e-16 -1.0658141036e-14" quadrupole="-1.9955916417e+00 1.6806350749e-29 -1.5900193190e-15 1.6806350749e-29 -1.9955916417e+00 6.4540231508e-16 -1.5900193190e-15 6.4540231508e-16 -2.0208678653e+00" polarizability="9.1812842543e+00 6.2952651040e-16 4.8035669853e-15 6.7554102376e-16 9.1812842543e+00 2.7146233095e-15 4.9775440890e-15 2.7781423429e-15 9.6999161651e+00" dipole_derivatives="6.2691460975e-07 -3.5652510831e-14 -4.7787387191e-14 1.1469287194e-14 6.2691462345e-07 8.6985251871e-15 4.4221896110e-14 1.9014195600e-14 5.8627817579e-05 6.2691471623e-07 3.3082943742e-14 -4.1821922364e-14 -5.7297528349e-14 6.2691467570e-07 2.5887524115e-14 -1.5558301175e-14 -1.3403449357e-14 5.8627817636e-05" charge=0 multiplicity=3 method=b3lyp basis=def2-svpd config_type=h2_q0_m3 sample_index=52 bond_length=4.000000 units=atomic
H         0.0000000000       0.0000000000       0.0000000000   2.826976174723e-16   1.361182236781e-17  -8.763987787863e-05
H         0.0000000000       0.0000000000       4.0000000000   3.187414883876e-16  -7.014121308079e-17   8.763987787801e-05
2
Properties=species:S:1:pos:R:3:forces:R:3 energy=-1.002597640431e+00 dipole="-9.0754996727e-16 7.5028108150e-16 0.0000000000e+00" quadrupole="-1.9957662824e+00 -3.7793163069e-31 -1.0262271383e-14 -3.7793163069e-31 -1.9957662824e+00 1.5059323954e-15 -1.0262271383e-14 1.5059323954e-15 -2.0148524963e+00" polarizability="9.1920902654e+00 6.3163246773e-16 2.1527181826e-14 2.0738110128e-16 9.1920902654e+00 1.4037012525e-15 2.1497443188e-14 1.3215766964e-15 9.6589613820e+00" dipole_derivatives="-3.0345276569e-07 4.6397916782e-14 2.5115767073e-14 1.1257014223e-14 -3.0345276503e-07 3.6975015797e-14 2.7599721553e-14 2.5993747085e-14 -4.2208799167e-05 -3.0345273221e-07 -1.1138392479e-13 -6.4755880819e-14 -9.9980314081e-14 -3.0345281085e-07 -5.5677355624e-15 -1.1207939958e-14 -2.5925984450e-14 -4.2208799174e-05" charge=0 multiplicity=3 method=b3lyp basis=def2-svpd config_type=h2_q0_m3 sample_index=53 bond_length=4.150000 units=atomic
H         0.0000000000       0.0000000000       0.0000000000   1.552328978623e-17   5.959685991596e-17  -5.923178044405e-05
H         0.0000000000       0.0000000000       4.1500000000   1.232354307889e-16  -4.586845927242e-17   5.923178044395e-05
2
Properties=species:S:1:pos:R:3:forces:R:3 energy=-1.002611395748e+00 dipole="6.3302724730e-16 6.6294583828e-16 -2.6645352591e-14" quadrupole="-1.9958639984e+00 -3.0729111550e-31 3.9714019141e-15 -3.0729111550e-31 -1.9958639984e+00 7.0115622316e-15 3.9714019141e-15 7.0115622316e-15 -2.0100796024e+00" polarizability="9.2011125165e+00 3.4841991851e-16 -1.8126407437e-14 5.5941924560e-16 9.2011125165e+00 1.7446403004e-15 -1.8081504687e-14 1.7129135495e-15 9.6127815066e+00" dipole_derivatives="4.0599513279e-07 -2.3679694810e-14 1.3309495649e-14 6.7864048463e-15 4.0599506489e-07 -3.0423518515e-14 8.6770055117e-15 2.4330174377e-14 2.9862894152e-05 4.0599515164e-07 -9.0451175142e-14 1.4834997130e-14 6.2624319649e-14 4.0599518383e-07 1.8742024273e-14 2.7609885949e-14 -1.0963994469e-14 2.9862894128e-05" charge=0 multiplicity=3 method=b3lyp basis=def2-svpd config_type=h2_q0_m3 sample_index=54 bond_length=4.300000 units=atomic
H         0.0000000000       0.0000000000       0.0000000000  -8.938099232721e-17  -6.872079602207e-18  -3.890557995857e-05
H         0.0000000000       0.0000000000       4.3000000000  -3.120981782396e-17  -1.012108067751e-16   3.890557995833e-05
2
Properties=species:S:1:pos:R:3:forces:R:3 energy=-1.002620280286e+00 dipole="2.6976834347e-16 3.8851933063e-16 -1.2434497876e-14" quadrupole="-1.9959096161e+00 -8.7768711229e-31 2.5108712865e-15 -8.7768711229e-31 -1.9959096161e+00 1.1854323964e-15 2.5108712865e-15 1.1854323964e-15 -2.0063987232e+00" polarizability="9.2088126177e+00 5.4356753884e-16 -1.1024827516e-14 1.3945426384e-16 9.2088126177e+00 1.2213328619e-16 -1.1045267853e-14 9.1202318496e-17 9.5692624129e+00" dipole_derivatives="-1.8570649612e-07 3.2980495036e-14 3.0890016832e-14 2.9553974172e-14 -1.8570647146e-07 -1.2238432389e-14 -3.0887903455e-14 1.2246402351e-14 2.0225044741e-05 -1.8570655493e-07 3.5492378698e-14 1.7335738672e-14 2.9274174624e-14 -1.8570644207e-07 -1.4873249294e-14 1.6744147301e-14 -2.8888905699e-14 2.0225044763e-05" charge=0 multiplicity=3 method=b3lyp basis=def2-svpd config_type=h2_q0_m3 sample_index=55 bond_length=4.450000 units=atomic
H         0.0000000000       0.0000000000       0.0000000000  -7.289518305882e-17   5.377029686796e-17  -2.473457194138e-05
H         0.0000000000       0.0000000000       4.4500000000   2.219002397839e-17   3.937736874803e-17   2.473457194140e-05
2
Properties=species:S:1:pos:R:3:forces:R:3 energy=-1.002625732383e+00 dipole="-3.5387871781e-17 -1.2113830590e-15 -1.9539925233e-14" quadrupole="-1.9959223220e+00 -1.5215390695e-31 8.1868451274e-16 -1.5215390695e-31 -1.9959223220e+00 -1.6885546957e-15 8.1868451274e-16 -1.6885546957e-15 -2.0036565464e+00" polarizability="9.2154219844e+00 7.0025179876e-17 1.2259777993e-15 -4.0237847851e-16 9.2154219844e+00 -5.3401488996e-15 1.2615575194e-15 -5.2850268477e-15 9.5279958200e+00" dipole_derivatives="1.4739650756e-07 -1.1019535819e-14 -7.2903161690e-14 7.3239864863e-14 1.4739649227e-07 2.2137551789e-15 -1.6788193015e-15 1.5854762707e-14 2.4190764347e-05 1.4739646193e-07 -1.2348598417e-13 -6.2572146508e-14 -4.2436571232e-14 1.4739643308e-07 -1.0033202697e-14 -2.0965759510e-14 3.1255515754e-14 2.4190764347e-05" charge=0 multiplicity=3 method=b3lyp basis=def2-svpd config_type=h2_q0_m3 sample_index=56 bond_length=4.600000 units=atomic
H         0.0000000000       0.0000000000       0.0000000000  -3.063563661159e-17   1.493192194781e-16  -1.532254251824e-05
H         0.0000000000       0.0000000000       4.6000000000  -4.499481690056e-17   7.998101177044e-17   1.532254251827e-05
2
Properties=species:S:1:pos:R:3:forces:R:3 energy=-1.002629064152e+00 dipole="4.3752925923e-16 -1.8173425868e-16 2.8421709430e-14" quadrupole="-1.9959158224e+00 -4.9006546676e-31 3.7561689356e-15 -4.9006546676e-31 -1.9959158224e+00 -6.5396626833e-16 3.7561689356e-15 -6.5396626833e-16 -2.0016804310e+00" polarizability="9.2212178090e+00 -1.6256872209e-15 2.7003707032e-15 -1.2918077623e-15 9.2212178090e+00 -9.0846400134e-17 2.6055733599e-15 -6.4246192544e-17 9.4903361204e+00" dipole_derivatives="-1.0745006789e-06 -1.3520885190e-13 4.8353507143e-14 2.3290733651e-14 -1.0745007256e-06 -7.4024632878e-15 -1.1209634024e-14 -1.5964029957e-14 2.9250157199e-05 -1.0745007158e-06 -2.8880762853e-14 1.8318417144e-15 -3.6168710734e-14 -1.0745007736e-06 -7.3044903641e-14 9.2089422025e-15 2.6671373443e-14 2.9250157214e-05" charge=0 multiplicity=3 method=b3lyp basis=def2-svpd config_type=h2_q0_m3 sample_index=57 bond_length=4.750000 units=atomic
H         0.0000000000       0.0000000000       0.0000000000  -3.242791898088e-17  -3.987209748189e-18  -9.069791414817e-06
H         0.0000000000       0.0000000000       4.7500000000   5.803541904228e-17   1.702474087233e-17   9.069791414954e-06
2
Properties=species:S:1:pos:R:3:forces:R:3 energy=-1.002631187196e+00 dipole="1.0583495500e-15 3.0046571532e-16 -2.8421709430e-14" quadrupole="-1.9959009076e+00 1.5947698722e-32 6.0238789521e-15 1.5947698722e-32 -1.9959009076e+00 -2.1078123246e-15 6.0238789521e-15 -2.1078123246e-15 -2.0002796802e+00" polarizability="9.2262743544e+00 -3.5001275081e-15 -2.5041199635e-15 -2.5112700235e-15 9.2262743544e+00 1.5678442541e-16 -2.5102351296e-15 1.0887878987e-16 9.4571899752e+00" dipole_derivatives="5.3530098512e-07 1.3800799425e-13 4.9142500282e-14 -6.3732298167e-15 5.3530109845e-07 1.9057130314e-14 -6.0901668908e-15 3.8149516911e-14 4.3577313971e-05 5.3530101021e-07 1.6041000304e-14 -1.9193058875e-14 -3.0648326241e-14 5.3530105193e-07 1.8450353821e-14 5.2414398776e-15 9.5316617555e-15 4.3577313982e-05" charge=0 multiplicity=3 method=b3lyp basis=def2-svpd config_type=h2_q0_m3 sample_index=58 bond_length=4.900000 units=atomic
H         0.0000000000       0.0000000000       0.0000000000  -1.007449725370e-16   8.730767585595e-17  -5.016603283849e-06
H         0.0000000000       0.0000000000       4.9000000000   9.168830970808e-18   9.279056960084e-17   5.016603283874e-06
2
Properties=species:S:1:pos:R:3:forces:R:3 energy=-1.002632299132e+00 dipole="9.3884168987e-17 -2.6361335018e-16 -2.1316282073e-14" quadrupole="-1.9958855909e+00 5.4582035026e-34 -3.9046774530e-15 5.4582035026e-34 -1.9958855909e+00 -2.0920514075e-15 -3.9046774530e-15 -2.0920514075e-15 -1.9993146331e+00" polarizability="9.2308479968e+00 1.1487991348e-15 8.1757992900e-15 1.8374606502e-16 9.2308479968e+00 -1.0807910490e-15 8.1382107366e-15 -9.8682643770e-16 9.4332330065e+00" dipole_derivatives="-7.5593153008e-07 -3.4879106242e-14 -1.1623223008e-15 -1.9139260041e-14 -7.5593155413e-07 -8.6366638460e-15 3.4455606228e-14 -1.2731752230e-14 -1.0390828302e-04 -7.5593144868e-07 -8.4854465207e-14 -6.2436143206e-15 -5.3179188768e-14 -7.5593147738e-07 2.6189588041e-15 2.2664060570e-14 2.9731703482e-14 -1.0390828302e-04" charge=0 multiplicity=3 method=b3lyp basis=def2-svpd config_type=h2_q0_m3 sample_index=59 bond_length=5.050000 units=atomic
H         0.0000000000       0.0000000000       0.0000000000   3.051230057590e-17  -4.022772596793e-17  -2.747591744307e-06
H         0.0000000000       0.0000000000       5.0500000000   3.157265516103e-17   4.109703323472e-17   2.747591744348e-06
2
Properties=species:S:1:pos:R:3:forces:R:3 energy=-1.002632596337e+00 dipole="-8.7262929121e-16 -3.5671206918e-17 3.5527136788e-14" quadrupole="-1.9958733348e+00 8.2839635058e-31 4.5257812751e-15 8.2839635058e-31 -1.9958733348e+00 -2.8087525393e-15 4.5257812751e-15 -2.8087525393e-15 -1.9986534395e+00" polarizability="9.2348590321e+00 -7.4341083370e-16 -2.3127783234e-16 -8.2181282600e-16 9.2348590321e+00 2.4841211954e-15 -2.9177113868e-16 2.5099625987e-15 9.4061425482e+00" dipole_derivatives="1.2116323262e-06 -8.2730617036e-14 6.9477673874e-14 7.9272308842e-14 1.2116323355e-06 1.2999743948e-15 -1.9730785473e-14 3.6608763980e-14 3.3852434560e-05 1.2116323986e-06 -3.9124447485e-14 2.3766443054e-16 -1.3821802901e-15 1.2116323621e-06 -2.0987899091e-14 -1.6728900708e-14 7.9765092643e-15 3.3852434592e-05" charge=0 multiplicity=3 method=b3lyp basis=def2-svpd config_type=h2_q0_m3 sample_index=60 bond_length=5.200000 units=atomic
H         0.0000000000       0.0000000000       0.0000000000  -4.828000113881e-17  -1.459018067227e-17  -1.869197154426e-06
H         0.0000000000       0.0000000000       5.2000000000   1.469179180357e-17  -2.509312430942e-17   1.869197154269e-06
2
Properties=species:S:1:pos:R:3:forces:R:3 energy=-1.002632553948e+00 dipole="4.2318744340e-16 -2.6650873630e-16 3.9079850467e-14" quadrupole="-1.9958609310e+00 1.7670526398e-31 7.3857108235e-15 1.7670526398e-31 -1.9958609310e+00 -2.4214422684e-15 7.3857108235e-15 -2.4214422684e-15 -1.9982509343e+00" polarizability="9.2385138960e+00 -1.6647414739e-15 -1.8751965030e-15 -1.4730563421e-15 9.2385138960e+00 7.3484551716e-17 -1.9090210597e-15 7.0934930517e-17 9.3908976699e+00" dipole_derivatives="-1.1467656355e-06 -1.6368865846e-14 -9.6488352230e-14 7.8128174922e-14 -1.1467657027e-06 -3.0530348787e-14 -1.6022898747e-14 -1.1323559955e-14 -9.5717022003e-05 -1.1467657046e-06 -5.2297708683e-16 -1.7502444508e-14 1.0384611575e-13 -1.1467657025e-06 -8.6863315239e-14 -1.9059511863e-14 3.1258903885e-14 -9.5717021989e-05" charge=0 multiplicity=3 method=b3lyp basis=def2-svpd config_type=h2_q0_m3 sample_index=61 bond_length=5.350000 units=atomic
H         0.0000000000       0.0000000000       0.0000000000   8.006279522647e-17   8.816976198842e-17  -1.917691721812e-06
H         0.0000000000       0.0000000000       5.3500000000  -1.209474101657e-16  -1.323664241217e-17   1.917691721748e-06
2
Properties=species:S:1:pos:R:3:forces:R:3 energy=-1.002633349778e+00 dipole="5.4212690779e-17 -6.9990860179e-17 7.1054273576e-15" quadrupole="-1.9958505667e+00 1.9469884010e-31 1.0004543636e-14 1.9469884010e-31 -1.9958505667e+00 -1.5650232076e-15 1.0004543636e-14 -1.5650232076e-15 -1.9979173315e+00" polarizability="9.2417546564e+00 4.4855125870e-17 -2.8821593135e-15 3.5728902078e-17 9.2417546564e+00 6.5957698642e-16 -2.9272465081e-15 7.1288334033e-16 9.3700961890e+00" dipole_derivatives="-1.1516386666e-06 1.3655502637e-14 -3.2568323139e-14 3.3882536898e-14 -1.1516386413e-06 2.0931084632e-14 -3.0568995550e-14 4.3487942061e-14 1.0405884587e-04 -1.1516386065e-06 2.0633393799e-13 -9.5911006847e-15 9.8158832729e-14 -1.1516387091e-06 -3.4837445326e-14 4.5189207736e-16 -4.0170537524e-15 1.0405884588e-04" charge=0 multiplicity=3 method=b3lyp basis=def2-svpd config_type=h2_q0_m3 sample_index=62 bond_length=5.500000 units=atomic
H         0.0000000000       0.0000000000       0.0000000000   1.603414891284e-17  -7.117096545352e-17  -1.295865125201e-06
H         0.0000000000       0.0000000000       5.5000000000  -1.550008247714e-18  -9.670366895928e-17   1.295865125288e-06
2
Properties=species:S:1:pos:R:3:forces:R:3 energy=-1.002634561263e+00 dipole="9.7012553152e-16 -9.1696747759e-19 -3.0198066270e-14" quadrupole="-1.9958443877e+00 -5.9587919085e-34 2.8603977351e-15 -5.9587919085e-34 -1.9958443877e+00 -3.1791795723e-16 2.8603977351e-15 -3.1791795723e-16 -1.9976315394e+00" polarizability="9.2446671867e+00 1.1275522685e-15 1.2700445677e-14 -2.2792414129e-16 9.2446671867e+00 3.0372340016e-16 1.2644342034e-14 2.8058900487e-16 9.3610378862e+00" dipole_derivatives="1.0069011149e-06 -1.6525372551e-14 -3.9191682310e-14 6.2217583570e-14 1.0069010498e-06 4.3262744819e-14 -3.9423030948e-15 1.2432114325e-14 -3.6183536725e-06 1.0069010525e-06 -6.6818914938e-14 3.8475452403e-15 2.4607477403e-14 1.0069009724e-06 -1.1335863224e-14 -2.5739848959e-14 -2.3697652524e-14 -3.6183536912e-06" charge=0 multiplicity=3 method=b3lyp basis=def2-svpd config_type=h2_q0_m3 sample_index=63 bond_length=5.650000 units=atomic
H         0.0000000000       0.0000000000       0.0000000000  -6.118703131607e-17  -3.764486095947e-17   2.457723283400e-07
H         0.0000000000       0.0000000000       5.6500000000  -1.654348824771e-16   1.265708626736e-17  -2.457723287666e-07
2
Properties=species:S:1:pos:R:3:forces:R:3 energy=-1.002635173670e+00 dipole="-2.8587495053e-16 -5.6444391211e-16 -1.2434497876e-14" quadrupole="-1.9958455423e+00 3.1876010607e-31 -3.0636141019e-15 3.1876010607e-31 -1.9958455423e+00 -2.1454561458e-15 -3.0636141019e-15 -2.1454561458e-15 -1.9973726086e+00" polarizability="9.2473493936e+00 -1.3106453954e-15 9.8457715332e-15 -1.1043295516e-15 9.2473493936e+00 -4.0732186907e-16 9.7772967504e-15 -3.6711267400e-16 9.3546462414e+00" dipole_derivatives="3.5494167812e-06 2.9107327116e-15 6.6928698304e-15 -1.4486562885e-14 3.5494167596e-06 -5.6682745333e-14 3.6154754321e-14 -7.7524690497e-16 -1.1955518836e-04 3.5494168462e-06 -8.9390963646e-14 3.3161586937e-14 2.3053557097e-14 3.5494167691e-06 2.9012974403e-14 -1.4406336367e-14 -1.7907970571e-14 -1.1955518837e-04" charge=0 multiplicity=3 method=b3lyp basis=def2-svpd config_type=h2_q0_m3 sample_index=64 bond_length=5.800000 units=atomic
H         0.0000000000       0.0000000000       0.0000000000  -1.956946510300e-16   6.212607904428e-17   1.667295514250e-06
H         0.0000000000       0.0000000000       5.8000000000  -5.704185426686e-17   4.800770240018e-17  -1.667295514765e-06
2
Properties=species:S:1:pos:R:3:forces:R:3 energy=-1.002634421442e+00 dipole="-9.5642064619e-16 4.9797512165e-16 -2.6645352591e-14" quadrupole="-1.9958509207e+00 2.2751951435e-31 -1.0638179803e-14 2.2751951435e-31 -1.9958509207e+00 -1.7227839013e-15 -1.0638179803e-14 -1.7227839013e-15 -1.9971657893e+00" polarizability="9.2497877289e+00 1.9259685581e-15 2.4199422973e-14 2.6273048596e-15 9.2497877289e+00 1.6009627085e-15 2.4208477282e-14 1.5910544510e-15 9.3422355096e+00" dipole_derivatives="6.3267774839e-06 -2.6172868617e-14 -2.2264899767e-14 -5.1087648012e-14 6.3267773389e-06 3.3267335493e-14 -8.1131992062e-15 -1.5356919092e-14 3.2831348689e-05 6.3267775242e-06 -1.5284872188e-14 8.1278142426e-14 -7.9520981102e-14 6.3267774804e-06 2.2387152904e-14 -1.6648856095e-14 -1.7062419931e-14 3.2831348698e-05" charge=0 multiplicity=3 method=b3lyp basis=def2-svpd config_type=h2_q0_m3 sample_index=65 bond_length=5.950000 units=atomic
H         0.0000000000       0.0000000000       0.0000000000  -1.466147700822e-16  -7.211982046656e-17   1.449974700204e-06
H         0.0000000000       0.0000000000       5.9500000000   6.460688355273e-17   6.609848741048e-17  -1.449974700299e-06
