2
Properties=species:S:1:pos:R:3:forces:R:3 energy=-9.566441596616e-01 dipole="2.2629216655e-16 -2.2633375559e-16 1.2679968187e-11" quadrupole="-1.1238548364e+00 6.5945162248e-33 -4.6066851471e-16 6.5945162248e-33 -1.1238548364e+00 7.5725036602e-16 -4.6066851471e-16 7.5725036602e-16 -1.0355450658e+00" polarizability="2.4347126241e+00 1.4466870951e-16 1.9500881715e-15 1.1462988648e-16 2.4347126241e+00 -3.1400380428e-15 1.9719892472e-15 -2.8145912620e-15 3.2284193061e+00" dipole_derivatives="6.4082470648e-10 -1.0035276983e-13 8.5409824959e-14 1.6546584395e-13 6.4079262989e-10 -1.1063524565e-11 1.5022427746e-09 9.1526786150e-10 1.0434098030e-08 6.4037017458e-10 3.3679015859e-13 1.2294642975e-13 -2.4802811947e-14 6.4066209643e-10 1.0896826775e-11 -1.5015766408e-09 -9.1571195071e-10 -1.0414780149e-08" charge=0 multiplicity=1 method=b3lyp basis=def2-svpd config_type=h2_q0_m1 sample_index=0 bond_length=0.400000 units=atomic
H         0.0000000000       0.0000000000       0.0000000000  -3.683830285726e-16   6.221460870219e-17  -1.031885290004e+00
H         0.0000000000       0.0000000000       0.4000000000   2.876929759512e-16   3.311864555183e-16   1.031885290004e+00
2
Properties=species:S:1:pos:R:3:forces:R:3 energy=-1.037086956197e+00 dipole="1.3692463505e-15 6.1333614602e-16 4.0598191475e-11" quadrupole="-1.1775044105e+00 -7.8459762249e-31 9.7809262910e-16 -7.8459762249e-31 -1.1775044105e+00 3.2846494867e-17 9.7809262910e-16 3.2846494867e-17 -1.0548015341e+00" polarizability="2.7042219753e+00 -7.9635911782e-16 -3.2223983282e-15 -8.2775129077e-16 2.7042219753e+00 8.1979575914e-16 -3.2861806244e-15 8.3604929039e-16 3.6238510922e+00" dipole_derivatives="4.0189957765e-10 2.0087653304e-13 1.4704219445e-13 2.6490965232e-14 4.0247744682e-10 -7.4526910516e-12 1.6665002711e-09 8.7613249988e-10 1.8219925568e-08 4.0226129671e-10 1.9990991071e-13 4.9629501293e-15 1.6755236372e-13 4.0189600580e-10 7.2564504584e-12 -1.6667223157e-09 -8.7641005564e-10 -1.8414214598e-08" charge=0 multiplicity=1 method=b3lyp basis=def2-svpd config_type=h2_q0_m1 sample_index=1 bond_length=0.450000 units=atomic
H         0.0000000000       0.0000000000       0.0000000000   2.540384556432e-16   6.583817982923e-18  -6.933726078279e-01
H         0.0000000000       0.0000000000       0.4500000000  -3.825352099350e-16  -3.943170443685e-16   6.933726078279e-01
2
Properties=species:S:1:pos:R:3:forces:R:3 energy=-1.091064085636e+00 dipole="-3.2195625932e-16 -1.4453789000e-16 1.1386447341e-12" quadrupole="-1.2319508898e+00 -3.7896085510e-31 -1.5491686667e-16 -3.7896085510e-31 -1.2319508898e+00 4.6034748528e-16 -1.5491686667e-16 4.6034748528e-16 -1.0724317274e+00" polarizability="2.9854283168e+00 1.0736534998e-15 -6.8701369374e-16 1.1157636274e-15 2.9854283168e+00 -1.2514425648e-15 -3.0582295168e-16 -1.1785717331e-15 4.0579220237e+00" dipole_derivatives="1.7284306047e-10 1.4131923381e-13 -9.4627225983e-14 -6.7638737780e-15 1.7283748976e-10 -3.1852125395e-12 1.6095735855e-09 9.0524809870e-10 2.8873264890e-08 1.7249926322e-10 4.2992393661e-13 1.9451578328e-13 -5.9842133343e-14 1.7268551105e-10 3.6438704912e-12 -1.6099344080e-09 -9.0497054295e-10 -3.0314695199e-08" charge=0 multiplicity=1 method=b3lyp basis=def2-svpd config_type=h2_q0_m1 sample_index=2 bond_length=0.500000 units=atomic
H         0.0000000000       0.0000000000       0.0000000000  -4.233909380956e-16   4.345850214275e-16  -4.634402782957e-01
H         0.0000000000       0.0000000000       0.5000000000   3.557367225325e-16  -2.865972804886e-17   4.634402782957e-01
2
Properties=species:S:1:pos:R:3:forces:R:3 energy=-1.126854876686e+00 dipole="-1.8319611756e-16 -9.3947903890e-16 1.3056222770e-12" quadrupole="-1.2867026772e+00 -8.6569975941e-32 -1.5683640707e-15 -8.6569975941e-32 -1.2867026772e+00 -1.7076974686e-16 -1.5683640707e-15 -1.7076974686e-16 -1.0880080843e+00" polarizability="3.2760231743e+00 -2.2809096239e-16 9.9988977287e-15 -7.6807310905e-16 3.2760231743e+00 3.6007091492e-16 9.0191933587e-15 3.2520600902e-16 4.5303746138e+00" dipole_derivatives="1.4796714766e-09 1.3849139831e-13 -7.4479591354e-15 -1.1500169199e-13 1.4801562605e-09 1.4185072538e-12 1.6026346916e-09 6.3027361108e-10 4.2770065267e-08 1.4802990747e-09 3.8996507242e-13 1.0180065320e-13 -2.9666987291e-13 1.4802059308e-09 -1.0550284754e-12 -1.6030787808e-09 -6.3013483320e-10 -4.6490589156e-08" charge=0 multiplicity=1 method=b3lyp basis=def2-svpd config_type=h2_q0_m1 sample_index=3 bond_length=0.550000 units=atomic
H         0.0000000000       0.0000000000       0.0000000000  -8.246550854530e-17  -3.989446752750e-17  -3.035383347782e-01
H         0.0000000000       0.0000000000       0.5500000000   1.853156371327e-16   3.071503030451e-16   3.035383347782e-01
2
Properties=species:S:1:pos:R:3:forces:R:3 energy=-1.149887043856e+00 dipole="-1.3532800950e-15 -7.0174906217e-16 1.2032597141e-12" quadrupole="-1.3413675516e+00 9.5351796735e-31 -2.1875126249e-15 9.5351796735e-31 -1.3413675516e+00 1.3961968242e-15 -2.1875126249e-15 1.3961968242e-15 -1.1012306122e+00" polarizability="3.5739320331e+00 -1.1410526442e-15 3.0260730664e-15 -1.0957516795e-15 3.5739320331e+00 -6.9987748819e-15 2.2968301303e-15 -6.6879722435e-15 5.0410910450e+00" dipole_derivatives="2.7703352698e-09 -5.9163259757e-15 -1.1744051414e-13 2.5957168894e-14 2.7703306155e-09 5.7840356085e-12 1.2143896999e-09 3.0012103913e-10 6.3193048017e-08 2.7700224681e-09 2.2617483046e-14 -2.2476249393e-13 1.8459489300e-13 2.7701444600e-09 -5.6008951033e-12 -1.2147644002e-09 -3.0050961719e-10 -6.3978253251e-08" charge=0 multiplicity=1 method=b3lyp basis=def2-svpd config_type=h2_q0_m1 sample_index=4 bond_length=0.600000 units=atomic
H         0.0000000000       0.0000000000       0.0000000000  -1.425094845493e-16   1.791164720229e-16  -1.903471856243e-01
H         0.0000000000       0.0000000000       0.6000000000   1.590707124388e-16  -1.990604295916e-16   1.903471856243e-01
2
Properties=species:S:1:pos:R:3:forces:R:3 energy=-1.163827266360e+00 dipole="4.7989181141e-16 -5.6680216777e-16 1.3087309014e-12" quadrupole="-1.3956056253e+00 -1.9166425129e-31 2.8811531518e-15 -1.9166425129e-31 -1.3956056253e+00 -6.7690862130e-16 2.8811531518e-15 -6.7690862130e-16 -1.1119136832e+00" polarizability="3.8772080083e+00 4.9363316718e-16 -6.6533088745e-15 7.3478047423e-16 3.8772080083e+00 2.2933739043e-15 -5.3712115433e-15 1.8566467016e-15 5.5901092956e+00" dipole_derivatives="1.6751949367e-09 6.5357617668e-13 5.8086459777e-14 -7.2293063595e-14 1.6749498515e-09 1.0537985240e-11 9.5720653626e-10 -1.3128387266e-11 8.9412477422e-08 1.6749502283e-09 3.1032006530e-14 1.2465940967e-13 5.6640396931e-14 1.6750693178e-09 -1.0469744840e-11 -9.5747021422e-10 1.3516965325e-11 -8.3143020246e-08" charge=0 multiplicity=1 method=b3lyp basis=def2-svpd config_type=h2_q0_m1 sample_index=5 bond_length=0.650000 units=atomic
H         0.0000000000       0.0000000000       0.0000000000   3.548883076863e-16   1.524436061445e-17  -1.091341007357e-01
H         0.0000000000       0.0000000000       0.6500000000  -1.412713629491e-16  -7.710778725037e-17   1.091341007357e-01
2
Properties=species:S:1:pos:R:3:forces:R:3 energy=-1.171211061464e+00 dipole="-3.4228889426e-16 -1.6275135112e-16 2.3296919949e-12" quadrupole="-1.4491174577e+00 7.5128065584e-32 -1.1643921918e-15 7.5128065584e-32 -1.4491174577e+00 2.9787663935e-16 -1.1643921918e-15 2.9787663935e-16 -1.1199701670e+00" polarizability="4.1840358822e+00 6.8570564517e-16 -2.3372550009e-15 6.6852932186e-16 4.1840358822e+00 -2.1577850692e-15 -5.7185373893e-15 -1.7521889122e-15 6.1776374883e+00" dipole_derivatives="-1.7929727724e-12 4.4310193499e-13 -2.9385713539e-14 2.3085202102e-13 -1.3748832928e-12 1.5250149605e-11 4.0575875992e-10 -4.4614312245e-10 1.1549822210e-07 -1.5680007144e-12 2.2901607492e-13 2.8064565480e-14 -7.8887671902e-14 -1.3310045606e-12 -1.5442912873e-11 -4.0571712656e-10 4.4624026696e-10 -1.0916141602e-07" charge=0 multiplicity=1 method=b3lyp basis=def2-svpd config_type=h2_q0_m1 sample_index=6 bond_length=0.700000 units=atomic
H         0.0000000000       0.0000000000       0.0000000000  -1.014078843383e-16   2.587556947894e-17  -5.027074742261e-02
H         0.0000000000       0.0000000000       0.7000000000   1.734013802070e-16  -1.469745989849e-16   5.027074742261e-02
2
Properties=species:S:1:pos:R:3:forces:R:3 energy=-1.173825923907e+00 dipole="4.9403065544e-16 -3.6772212289e-16 5.3299586966e-12" quadrupole="-1.5016448298e+00 1.3768830192e-31 2.6235543227e-15 1.3768830192e-31 -1.5016448298e+00 -1.2585733725e-16 2.6235543227e-15 -1.2585733725e-16 -1.1253941859e+00" polarizability="4.4927632807e+00 3.3011795001e-16 -9.7642744190e-15 1.7336258059e-16 4.4927632807e+00 -3.5667387623e-16 -7.8321423926e-15 -5.6510814111e-18 6.8040193263e+00" dipole_derivatives="1.4870852872e-09 3.9137061238e-13 -1.2965000729e-13 3.1344311508e-13 1.4872479614e-09 1.9666430970e-11 -1.1260437027e-10 -7.6200157295e-10 1.4027644324e-07 1.4871434802e-09 1.2160577123e-13 1.4198986699e-13 -8.1944689296e-14 1.4869363617e-09 -1.9604285616e-11 1.1224354779e-10 7.6232076207e-10 -1.4124004744e-07" charge=0 multiplicity=1 method=b3lyp basis=def2-svpd config_type=h2_q0_m1 sample_index=7 bond_length=0.750000 units=atomic
H         0.0000000000       0.0000000000       0.0000000000   7.103547189081e-17  -7.945319577813e-17  -7.313572143194e-03
H         0.0000000000       0.0000000000       0.7500000000  -3.363049694006e-17   1.588167948041e-16   7.313572143194e-03
2
Properties=species:S:1:pos:R:3:forces:R:3 energy=-1.172954516210e+00 dipole="-8.9280680254e-16 2.5271610513e-16 6.7108540946e-12" quadrupole="-1.5529691062e+00 1.0575905673e-30 -1.6376097178e-15 1.0575905673e-30 -1.5529691062e+00 1.8726841036e-15 -1.6376097178e-15 1.8726841036e-15 -1.1282431012e+00" polarizability="4.8019048433e+00 -6.7346141013e-17 8.1173694167e-15 1.1121259876e-16 4.8019048433e+00 -8.1380270166e-15 8.2759539212e-15 -5.8042885923e-15 7.4696513733e+00" dipole_derivatives="6.1582893907e-09 -1.4787366135e-14 -1.3019499469e-13 1.8435939892e-13 6.1585862282e-09 2.3612771026e-11 -6.2742866458e-10 -1.1817768986e-09 1.6974843753e-07 6.1583803099e-09 2.1282597042e-13 -2.0402161847e-13 -1.1174825271e-13 6.1584372280e-09 -2.3398718369e-11 6.2788663158e-10 1.1818601653e-09 -1.7205127600e-07" charge=0 multiplicity=1 method=b3lyp basis=def2-svpd config_type=h2_q0_m1 sample_index=8 bond_length=0.800000 units=atomic
H         0.0000000000       0.0000000000       0.0000000000  -1.543027255857e-16  -3.393224480912e-17   2.412524400087e-02
H         0.0000000000       0.0000000000       0.8000000000  -1.417911936542e-16  -3.773775395691e-17  -2.412524400087e-02
2
Properties=species:S:1:pos:R:3:forces:R:3 energy=-1.169533105911e+00 dipole="1.0197003675e-15 2.4778674987e-16 1.1238787678e-11" quadrupole="-1.6029055409e+00 3.5277318183e-31 1.4670434220e-15 3.5277318183e-31 -1.6029055409e+00 -1.1046527751e-15 1.4670434220e-15 -1.1046527751e-15 -1.1286207860e+00" polarizability="5.1101197121e+00 2.1706762775e-15 -3.9195144149e-15 1.9065923590e-15 5.1101197121e+00 5.2057399142e-15 -8.0685909399e-15 3.8473934078e-15 8.1748934835e+00" dipole_derivatives="1.0069301068e-08 2.3473474670e-13 3.4036112618e-14 -2.8685696404e-14 1.0069473565e-08 2.6839957122e-11 -1.1027845304e-09 -1.6054102492e-09 2.0598474315e-07 1.0069292284e-08 1.9078760848e-13 2.6693419177e-14 -5.8463598896e-14 1.0069463609e-08 -2.6538004549e-11 1.1025902413e-09 1.6051604490e-09 -1.9811825791e-07" charge=0 multiplicity=1 method=b3lyp basis=def2-svpd config_type=h2_q0_m1 sample_index=9 bond_length=0.850000 units=atomic
H         0.0000000000       0.0000000000       0.0000000000   3.888881982683e-17  -1.117838792337e-16   4.708322002462e-02
H         0.0000000000       0.0000000000       0.8500000000  -2.999647029613e-16   1.897617326890e-17  -4.708322002462e-02
2
Properties=species:S:1:pos:R:3:forces:R:3 energy=-1.164256070257e+00 dipole="-2.4696267704e-15 -7.3247085206e-16 1.8261392398e-11" quadrupole="-1.6512972437e+00 -1.0942115981e-30 -2.0968688659e-15 -1.0942115981e-30 -1.6512972437e+00 -6.9167485479e-16 -2.0968688659e-15 -6.9167485479e-16 -1.1266641170e+00" polarizability="5.4161842647e+00 1.9716376518e-16 5.1136981555e-15 -3.3547270399e-16 5.4161842647e+00 -8.4022545147e-16 4.5849907022e-15 -1.1460851349e-15 8.9199987202e+00" dipole_derivatives="9.9178576090e-09 2.2967452348e-13 -1.4436385378e-13 1.0888287644e-13 9.9180063236e-09 2.9375810652e-11 -1.6564527527e-09 -1.9254597916e-09 2.0243710874e-07 9.9180138662e-09 3.2544018837e-13 6.4335820273e-14 -6.5119794258e-14 9.9179304670e-09 -2.9366364395e-11 1.6564111194e-09 1.9253348915e-09 -1.8572683669e-07" charge=0 multiplicity=1 method=b3lyp basis=def2-svpd config_type=h2_q0_m1 sample_index=10 bond_length=0.900000 units=atomic
H         0.0000000000       0.0000000000       0.0000000000   7.708578779877e-18   2.720216535821e-16   6.370366752519e-02
H         0.0000000000       0.0000000000       0.9000000000  -1.157650350823e-16   4.337188489124e-17  -6.370366752519e-02
2
Properties=species:S:1:pos:R:3:forces:R:3 energy=-1.157645345387e+00 dipole="-5.2286142880e-16 9.7087513769e-17 2.8707480837e-11" quadrupole="-1.6980116367e+00 2.6095516741e-32 -1.3960617192e-15 2.6095516741e-32 -1.6980116367e+00 3.4013207290e-16 -1.3960617192e-15 3.4013207290e-16 -1.1225333699e+00" polarizability="5.7189765213e+00 9.4861097930e-16 3.3553294469e-15 1.7520743315e-15 5.7189765213e+00 5.9375931590e-16 2.1483342223e-15 2.3853224798e-15 9.7050646769e+00" dipole_derivatives="6.1673089361e-09 3.1051917363e-13 -1.8641707144e-13 6.8942222411e-14 6.1672208293e-09 3.1573266770e-11 -2.1363258385e-09 -2.2588389492e-09 2.1787746607e-07 6.1672704068e-09 3.2591495534e-13 1.6126087450e-13 -5.4898480045e-14 6.1673583232e-09 -3.1457908007e-11 2.1369780945e-09 2.2589152771e-09 -2.1122277538e-07" charge=0 multiplicity=1 method=b3lyp basis=def2-svpd config_type=h2_q0_m1 sample_index=11 bond_length=0.950000 units=atomic
H         0.0000000000       0.0000000000       0.0000000000   1.331548492876e-16  -3.887255058604e-17   7.553283553373e-02
H         0.0000000000       0.0000000000       0.9500000000   8.189015329399e-17  -3.902095848828e-18  -7.553283553373e-02
2
Properties=species:S:1:pos:R:3:forces:R:3 energy=-1.150097090789e+00 dipole="1.5091607100e-15 1.6403922784e-16 4.3387071713e-11" quadrupole="-1.7429398502e+00 -1.2710635991e-31 1.0033875206e-15 -1.2710635991e-31 -1.7429398502e+00 -3.4917185815e-16 1.0033875206e-15 -3.4917185815e-16 -1.1164060284e+00" polarizability="6.0174760451e+00 8.3216104189e-17 4.9366539460e-15 -4.0122556392e-17 6.0174760451e+00 5.9571378191e-16 2.5126400615e-15 -3.4035988310e-15 1.0530001132e+01" dipole_derivatives="2.0796292324e-09 7.7976420382e-14 2.9477980904e-14 1.8684710118e-13 2.0795631056e-09 3.2629562079e-11 -2.5067656284e-09 -2.3790552861e-09 2.2205136341e-07 2.0794869221e-09 -3.4003598281e-14 1.5006067439e-13 4.6267139103e-14 2.0796634670e-09 -3.2831798435e-11 2.5067170561e-09 2.3788609971e-09 -2.4859833636e-07" charge=0 multiplicity=1 method=b3lyp basis=def2-svpd config_type=h2_q0_m1 sample_index=12 bond_length=1.000000 units=atomic
H         0.0000000000       0.0000000000       0.0000000000  -2.547180888113e-17   1.221117614257e-16   8.371224161643e-02
H         0.0000000000       0.0000000000       1.0000000000   5.976660458102e-17   2.654807947119e-17  -8.371224161643e-02
2
Properties=species:S:1:pos:R:3:forces:R:3 energy=-1.141913665640e+00 dipole="-1.2923206974e-16 -5.9549949240e-16 6.3052008059e-11" quadrupole="-1.7859979578e+00 4.5158386299e-33 -8.6053321293e-16 4.5158386299e-33 -1.7859979578e+00 -2.7932487122e-16 -8.6053321293e-16 -2.7932487122e-16 -1.1084729046e+00" polarizability="6.3107742890e+00 6.0998524785e-16 9.1586935769e-16 1.7132070380e-15 6.3107742890e+00 -1.5356263081e-15 -5.6220303112e-15 8.0298623614e-16 1.1394509463e+01" dipole_derivatives="7.4824669337e-10 -9.9004763763e-14 7.0448070070e-14 4.7242189408e-14 7.4811738595e-10 7.8100325542e-12 -2.7058633112e-09 -2.5085974964e-09 -4.6860820779e-08 7.4783533653e-10 -3.6827344981e-15 9.5786365691e-14 -5.8279242950e-14 7.4804160978e-10 -7.7012782958e-12 2.7053637108e-09 2.5085697408e-09 -2.2907079011e-08" charge=0 multiplicity=1 method=b3lyp basis=def2-svpd config_type=h2_q0_m1 sample_index=13 bond_length=1.050000 units=atomic
H         0.0000000000       0.0000000000       0.0000000000  -3.707167807262e-17   7.391211999474e-18   8.910214893352e-02
H         0.0000000000       0.0000000000       1.0500000000   8.849567116743e-17   2.184159000424e-16  -8.910214893352e-02
2
Properties=species:S:1:pos:R:3:forces:R:3 energy=-1.133326184741e+00 dipole="1.1689488857e-15 6.1206069908e-16 8.8428375733e-11" quadrupole="-1.8271285140e+00 -5.7229221955e-31 1.8866311194e-15 -5.7229221955e-31 -1.8271285140e+00 1.3021303983e-15 1.8866311194e-15 1.3021303983e-15 -1.0989353577e+00" polarizability="6.5980872974e+00 4.0672783494e-15 -1.2550353253e-14 2.4855397936e-15 6.5980872974e+00 -9.6935209744e-16 -1.0686925854e-14 5.3821395261e-15 1.2298070053e+01" dipole_derivatives="3.0009143301e-09 -4.4696784533e-15 9.2978704947e-15 -1.7647816880e-13 3.0002892323e-09 7.5409882352e-12 -2.9167918081e-09 -2.5019430971e-09 -6.3908899006e-08 2.9995609417e-09 1.3392782755e-13 6.3349203523e-14 9.2304697320e-14 3.0002998416e-09 -7.7633572446e-12 2.9167016025e-09 2.5020263639e-09 -3.7959364818e-08" charge=0 multiplicity=1 method=b3lyp basis=def2-svpd config_type=h2_q0_m1 sample_index=14 bond_length=1.100000 units=atomic
H         0.0000000000       0.0000000000       0.0000000000   4.856121271622e-17  -6.865469118174e-18   9.236084853765e-02
H         0.0000000000       0.0000000000       1.1000000000   9.795178347114e-17  -1.112769922990e-16  -9.236084853765e-02
2
Properties=species:S:1:pos:R:3:forces:R:3 energy=-1.124510990091e+00 dipole="1.5570010946e-15 -4.9836716103e-16 1.2036727171e-10" quadrupole="-1.8663010973e+00 2.1054650481e-31 3.0695637047e-15 2.1054650481e-31 -1.8663010973e+00 -1.3152477796e-17 3.0695637047e-15 -1.3152477796e-17 -1.0880025843e+00" polarizability="6.8787637349e+00 1.8677744793e-15 -1.0457116362e-14 2.8486510595e-15 6.8787637349e+00 -4.6890946814e-15 1.1149274030e-15 -2.9537000787e-15 1.3239935709e+01" dipole_derivatives="7.2340098448e-09 1.0151026469e-13 1.8783604098e-14 -1.1497245331e-13 7.2321690499e-09 7.9081749382e-12 -3.0298055731e-09 -2.4347884819e-09 -6.7121488923e-08 7.2306236687e-09 1.3804321436e-13 -7.4489890131e-14 -2.3911221430e-13 7.2318636679e-09 -7.9414908955e-12 3.0293267894e-09 2.4348578709e-09 -3.8905489941e-08" charge=0 multiplicity=1 method=b3lyp basis=def2-svpd config_type=h2_q0_m1 sample_index=15 bond_length=1.150000 units=atomic
H         0.0000000000       0.0000000000       0.0000000000  -1.543349012714e-16   8.269030723022e-17   9.399639834967e-02
H         0.0000000000       0.0000000000       1.1500000000  -1.279909275448e-16  -1.703108090539e-17  -9.399639834967e-02
2
Properties=species:S:1:pos:R:3:forces:R:3 energy=-1.115602090737e+00 dipole="1.6521102327e-15 1.3733735171e-16 1.6142420733e-10" quadrupole="-1.9035110177e+00 -1.6779009227e-31 1.9176677641e-15 -1.6779009227e-31 -1.9035110177e+00 8.4594187222e-16 1.9176677641e-15 8.4594187222e-16 -1.0758882987e+00" polarizability="7.1522840407e+00 7.1369219034e-16 -2.2525851552e-15 -7.9356825399e-16 7.1522840407e+00 -7.2414281105e-16 2.5162644445e-15 1.5883150167e-14 1.4219132368e+01" dipole_derivatives="1.0665973372e-08 1.3647797611e-13 4.2935705380e-14 1.4171179144e-13 1.0662935088e-08 7.9645390001e-12 -2.9918290068e-09 -2.3299834284e-09 -5.3757727436e-08 1.0658730244e-08 2.2209140153e-13 -1.4150323539e-13 -9.7666078187e-14 1.0661900157e-08 -8.1048051151e-12 2.9916485955e-09 2.3297336282e-09 -2.3463474219e-08" charge=0 multiplicity=1 method=b3lyp basis=def2-svpd config_type=h2_q0_m1 sample_index=16 bond_length=1.200000 units=atomic
H         0.0000000000       0.0000000000       0.0000000000  -3.494922709946e-17  -1.123776378416e-16   9.440164452536e-02
H         0.0000000000       0.0000000000       1.2000000000  -4.828735439077e-17   8.536099259334e-17  -9.440164452536e-02
2
Properties=species:S:1:pos:R:3:forces:R:3 energy=-1.106700806232e+00 dipole="1.2226350390e-15 1.8295470987e-16 2.1865886879e-10" quadrupole="-1.9387758105e+00 -1.5617239617e-31 8.6267098418e-16 -1.5617239617e-31 -1.9387758105e+00 1.0116946738e-15 8.6267098418e-16 1.0116946738e-15 -1.0628065824e+00" polarizability="7.4182493674e+00 -1.6825872026e-15 -4.6580337806e-16 -1.1109998869e-15 7.4182493674e+00 -4.1016728642e-15 -3.0330920153e-15 6.0102541791e-15 1.5234470628e+01" dipole_derivatives="1.1027864683e-08 -2.9064730418e-13 1.2361458162e-13 -1.1041542748e-13 1.1024544024e-08 8.1485068102e-12 -2.8519547834e-09 -2.1103674364e-09 -2.7673877079e-08 1.1016860738e-08 -3.6144446887e-14 1.6472406918e-13 1.6781888671e-13 1.1020133896e-08 -8.1407309857e-12 2.8520796835e-09 2.1103396808e-09 4.1816550223e-09" charge=0 multiplicity=1 method=b3lyp basis=def2-svpd config_type=h2_q0_m1 sample_index=17 bond_length=1.250000 units=atomic
H         0.0000000000       0.0000000000       0.0000000000   2.648143558815e-17  -1.987415783484e-16   9.387925347887e-02
H         0.0000000000       0.0000000000       1.2500000000   7.147411311355e-17  -1.071148191251e-16  -9.387925347887e-02
2
Properties=species:S:1:pos:R:3:forces:R:3 energy=-1.097883351469e+00 dipole="-6.1613707427e-16 8.4662845318e-17 3.1073321693e-10" quadrupole="-1.9721295932e+00 5.1075937829e-31 2.2468546156e-15 5.1075937829e-31 -1.9721295932e+00 -1.0272774406e-15 2.2468546156e-15 -1.0272774406e-15 -1.0489672086e+00" polarizability="7.6763611891e+00 9.4288458341e-16 -1.6513860754e-14 1.4973495283e-16 7.6763611891e+00 4.6250585049e-15 8.5460462875e-15 -1.6270218827e-14 1.6284571187e+01" dipole_derivatives="7.9015409052e-09 2.3261307909e-13 -2.1013332947e-14 -1.0445859500e-13 7.9013407171e-09 7.9549080920e-12 -2.5909135948e-09 -1.8423595982e-09 5.4741766675e-09 7.9001866596e-09 -1.3529969596e-16 2.5688160722e-14 -6.5624323790e-14 7.9002024839e-09 -7.9970307228e-12 2.5907401224e-09 1.8426996040e-09 3.7624625637e-08" charge=0 multiplicity=1 method=b3lyp basis=def2-svpd config_type=h2_q0_m1 sample_index=18 bond_length=1.300000 units=atomic
H         0.0000000000       0.0000000000       0.0000000000   1.588001664347e-16  -2.477968566577e-16   9.266076006097e-02
H         0.0000000000       0.0000000000       1.3000000000   4.468789193130e-18   5.330366593825e-17  -9.266076006097e-02
2
Properties=species:S:1:pos:R:3:forces:R:3 energy=-1.089206809926e+00 dipole="6.7635256395e-16 5.4286723516e-16 4.8120618601e-10" quadrupole="-2.0036158825e+00 -3.3741795685e-32 2.1562211024e-16 -3.3741795685e-32 -2.0036158825e+00 8.8749537403e-16 2.1562211024e-16 8.8749537403e-16 -1.0345712101e+00" polarizability="7.9263942171e+00 -1.7166485696e-15 5.8541291553e-16 -1.0954773873e-15 7.9263942171e+00 -8.2004940271e-17 -4.6332840475e-15 5.4521558362e-15 1.7367905636e+01" dipole_derivatives="3.0859599640e-09 1.6886576712e-13 -1.7646374490e-13 9.0882482491e-15 3.0106416590e-09 8.0645082776e-12 -2.5312807406e-09 -1.8110582478e-09 3.8909306332e-08 3.1986570298e-09 4.6161811731e-14 8.2827058381e-14 -3.7114331777e-14 3.2738723022e-09 -8.1457813404e-12 2.5314611518e-09 1.8108708977e-09 6.9057287666e-08" charge=0 multiplicity=1 method=b3lyp basis=def2-svpd config_type=h2_q0_m1 sample_index=19 bond_length=1.350000 units=atomic
H         0.0000000000       0.0000000000       0.0000000000  -1.799127977454e-16   5.073776638968e-17   9.092190347952e-02
H         0.0000000000       0.0000000000       1.3500000000  -1.176612056907e-16  -3.851629857066e-17  -9.092190347952e-02
2
Properties=species:S:1:pos:R:3:forces:R:3 energy=-1.080713783678e+00 dipole="-1.4356046992e-15 -9.0745989173e-17 8.1922646444e-10" quadrupole="-2.0332800043e+00 -3.4696584904e-31 -3.1884954040e-15 -3.4696584904e-31 -2.0332800043e+00 -1.0843161246e-15 -3.1884954040e-15 -1.0843161246e-15 -1.0198076386e+00" polarizability="8.1681667415e+00 -1.6484252820e-15 7.7220860347e-15 -2.6261960392e-15 8.1681667415e+00 3.1267424521e-15 -6.5863376819e-15 -2.7933539204e-14 1.8482852735e+01" dipole_derivatives="-4.2456048322e-10 1.4292102460e-13 5.5540611831e-14 -2.2814458770e-15 -1.2144470121e-09 8.0200049073e-12 -6.6436370294e-09 -3.3436801938e-08 6.8168991285e-08 4.4490934861e-10 1.3940522111e-13 2.3919403367e-14 -1.0700613311e-13 1.2350205522e-09 -8.0871199798e-12 6.6438798907e-09 3.3437010105e-08 9.2859733791e-08" charge=0 multiplicity=1 method=b3lyp basis=def2-svpd config_type=h2_q0_m1 sample_index=20 bond_length=1.400000 units=atomic
H         0.0000000000       0.0000000000       0.0000000000   2.723352281494e-17  -6.460555302651e-17   8.879542256615e-02
H         0.0000000000       0.0000000000       1.4000000000  -7.781155416139e-17   7.637505125971e-18  -8.879542256615e-02
2
Properties=species:S:1:pos:R:3:forces:R:3 energy=-1.072435934169e+00 dipole="3.7486709877e-16 -2.6166190513e-16 5.9299054556e-10" quadrupole="-2.0611625598e+00 8.4207141751e-32 8.7787468684e-16 8.4207141751e-32 -2.0611625598e+00 -5.5308983581e-16 8.7787468684e-16 -5.5308983581e-16 -1.0048522131e+00" polarizability="8.4015134590e+00 4.4382040853e-16 -2.0973902442e-15 5.4835247302e-16 8.4015134590e+00 2.9137054845e-15 1.1432176818e-14 6.5142535721e-15 1.9627766808e+01" dipole_derivatives="8.6977062200e-10 3.8332913218e-14 1.6988886280e-13 -6.9549419637e-14 1.7908527157e-10 7.8631483420e-12 -2.0334720019e-08 -4.9803008939e-09 8.7046619912e-08 3.1128805891e-09 3.9987141216e-14 -1.3839325952e-13 1.4999298567e-13 3.8033267030e-09 -7.9121547566e-12 2.0334997575e-08 4.9811127445e-09 1.1127948563e-07" charge=0 multiplicity=1 method=b3lyp basis=def2-svpd config_type=h2_q0_m1 sample_index=21 bond_length=1.450000 units=atomic
H         0.0000000000       0.0000000000       0.0000000000   2.850293438556e-17  -1.056529643626e-16   8.638178681409e-02
H         0.0000000000       0.0000000000       1.4500000000  -4.075551743050e-17  -8.017187646309e-17  -8.638178681409e-02
2
Properties=species:S:1:pos:R:3:forces:R:3 energy=-1.064409308286e+00 dipole="-1.3675147101e-15 8.6782813611e-16 7.6148687356e-10" quadrupole="-2.0834392969e+00 7.3413437158e-31 -3.2463114081e-15 7.3413437158e-31 -2.0834392969e+00 2.5216654398e-15 -3.2463114081e-15 2.5216654398e-15 -1.0021420998e+00" polarizability="8.6059086396e+00 8.8209905739e-16 1.3553244021e-14 -5.2886117268e-16 8.6059086396e+00 -8.0683198959e-15 3.4060254820e-15 1.4457574650e-13 2.0724223192e+01" dipole_derivatives="1.1072428173e-08 -1.2149783454e-13 4.5411356283e-16 1.0231632832e-13 1.1092289675e-08 1.6939092730e-11 4.6391850500e-06 3.8312307007e-06 3.5527163850e-07 1.1072105618e-08 -1.1371149542e-13 5.7185717492e-14 2.4191059912e-14 1.1052441110e-08 -1.6977195766e-11 -4.6391850431e-06 -3.8312308048e-06 -1.4052031067e-07" charge=0 multiplicity=1 method=b3lyp basis=def2-svpd config_type=h2_q0_m1 sample_index=22 bond_length=1.500000 units=atomic
H         0.0000000000       0.0000000000       0.0000000000   2.198627985555e-16  -7.700613792465e-18   8.250916409296e-02
H         0.0000000000       0.0000000000       1.5000000000  -3.945155705391e-17   1.031104049712e-16  -8.250916409296e-02
2
Properties=species:S:1:pos:R:3:forces:R:3 energy=-1.057007302476e+00 dipole="4.9101716542e-17 1.2037494003e-15 9.3356833375e-10" quadrupole="-2.0891536501e+00 2.7300430617e-31 8.7288917378e-16 2.7300430617e-31 -2.0891536501e+00 8.4305931094e-16 8.7288917378e-16 8.4305931094e-16 -1.0464548868e+00" polarizability="8.7203797212e+00 -8.4328587029e-16 2.7417977836e-15 1.4320191620e-16 8.7203797212e+00 3.3183447957e-15 1.0509287932e-13 -7.7460399892e-14 2.1466437610e+01" dipole_derivatives="2.5621256757e-08 3.1714029800e-14 -1.4288314595e-13 -5.1130400884e-14 2.5721218683e-08 -1.5917077033e-10 7.2666525575e-07 -7.3547253149e-06 7.0719793910e-07 2.5621129260e-08 -2.5098510475e-13 7.6946051462e-14 1.9664662141e-14 2.5521152248e-08 1.5907511379e-10 -7.2666510309e-07 7.3547252732e-06 -5.0367574000e-07" charge=0 multiplicity=1 method=b3lyp basis=def2-svpd config_type=h2_q0_m1 sample_index=23 bond_length=1.550000 units=atomic
H         0.0000000000       0.0000000000       0.0000000000  -2.296959164461e-17  -7.573267452463e-17   7.423761755225e-02
H         0.0000000000       0.0000000000       1.5500000000  -1.815037716857e-17  -3.359259742806e-17  -7.423761755225e-02
2
Properties=species:S:1:pos:R:3:forces:R:3 energy=-1.050366545965e+00 dipole="8.7712196296e-16 1.3875152708e-16 9.1071150621e-11" quadrupole="-2.0922201735e+00 -1.3990076015e-31 1.8048086977e-15 -1.3990076015e-31 -2.0922201735e+00 7.0793544547e-16 1.8048086977e-15 7.0793544547e-16 -1.0937584758e+00" polarizability="8.8161494490e+00 1.3817604214e-16 -3.8641276329e-15 4.3456660503e-17 8.8161494490e+00 -5.3947305936e-15 5.6485257537e-14 1.8830993974e-14 2.2073845963e+01" dipole_derivatives="4.2433068804e-08 -1.5600959878e-14 9.1013238525e-14 -4.7983401986e-14 4.3000863535e-08 7.8889563201e-11 -7.5346950901e-09 -7.0192023305e-06 -2.1770249492e-07 4.3568282091e-08 1.0657654019e-13 -1.3655685676e-13 -2.1906451162e-14 4.3000382071e-08 -7.8964222432e-11 7.5344175343e-09 7.0192023235e-06 3.9903208515e-07" charge=0 multiplicity=1 method=b3lyp basis=def2-svpd config_type=h2_q0_m1 sample_index=24 bond_length=1.600000 units=atomic
H         0.0000000000       0.0000000000       0.0000000000  -2.419659198347e-16   1.046877085358e-16   6.640658971684e-02
H         0.0000000000       0.0000000000       1.6000000000  -3.609764580832e-17  -2.669471469766e-17  -6.640658971684e-02
2
Properties=species:S:1:pos:R:3:forces:R:3 energy=-1.044442571325e+00 dipole="1.7016342478e-15 4.4495097557e-16 -1.4879031340e-10" quadrupole="-2.0930281890e+00 -4.0306243949e-31 1.8843087830e-15 -4.0306243949e-31 -2.0930281890e+00 3.1110209624e-16 1.8843087830e-15 3.1110209624e-16 -1.1433178652e+00" polarizability="8.8949443151e+00 8.1831573176e-16 7.5777575356e-15 2.5086015932e-16 8.8949443151e+00 2.8814455884e-15 -8.2697049625e-14 3.6527979379e-15 2.2551170651e+01" dipole_derivatives="5.9845356213e-08 -1.0357627551e-14 -3.8163605419e-14 9.0568821310e-14 6.0447540345e-08 4.5557432902e-11 -4.1880103552e-08 -5.5981909663e-06 -6.8124485220e-08 6.1319243835e-08 -3.7550403744e-14 -2.4501215508e-14 1.1660115477e-15 6.0717208861e-08 -4.5608985498e-11 4.1879999468e-08 5.5981909317e-06 2.1455920374e-07" charge=0 multiplicity=1 method=b3lyp basis=def2-svpd config_type=h2_q0_m1 sample_index=25 bond_length=1.650000 units=atomic
H         0.0000000000       0.0000000000       0.0000000000   1.032999235505e-16  -8.501903044818e-17   5.907376828250e-02
H         0.0000000000       0.0000000000       1.6500000000  -1.262410035986e-16   3.759665807168e-18  -5.907376828250e-02
2
Properties=species:S:1:pos:R:3:forces:R:3 energy=-1.039186184248e+00 dipole="-3.5085262324e-16 -9.3421852366e-16 -1.5183809765e-10" quadrupole="-2.0919724351e+00 5.3241786770e-32 -3.2200369863e-15 5.3241786770e-32 -2.0919724351e+00 -1.0127554684e-15 -3.2200369863e-15 -1.0127554684e-15 -1.1943160961e+00" polarizability="8.9586666642e+00 1.3723928844e-16 1.5246640629e-14 1.3029612006e-15 8.9586666642e+00 -8.1985806613e-16 -1.1123665743e-15 1.4456092512e-14 2.2902265609e+01" dipole_derivatives="7.7416837158e-08 7.9041344962e-14 -2.7969923059e-15 6.2520959582e-14 7.9652613002e-08 2.6232289854e-11 2.1463751956e-07 -4.5987487741e-06 -1.5438275658e-08 7.3559586064e-08 5.3112119477e-15 -4.0066256340e-14 -2.8055665414e-14 7.1324077756e-08 -2.6314804575e-11 -2.1463752997e-07 4.5987489511e-06 1.1521801221e-07" charge=0 multiplicity=1 method=b3lyp basis=def2-svpd config_type=h2_q0_m1 sample_index=26 bond_length=1.700000 units=atomic
H         0.0000000000       0.0000000000       0.0000000000   1.522059570165e-16   1.468893033074e-17   5.228141544788e-02
H         0.0000000000       0.0000000000       1.7000000000   1.614935420321e-16   6.505528075459e-18  -5.228141544788e-02
2
Properties=species:S:1:pos:R:3:forces:R:3 energy=-1.034544955524e+00 dipole="-1.1811815814e-15 -8.6598652160e-16 -1.1185186111e-10" quadrupole="-2.0894385189e+00 -8.0602838598e-31 -1.4757836854e-15 -8.0602838598e-31 -2.0894385189e+00 -6.8340195212e-16 -1.4757836854e-15 -6.8340195212e-16 -1.2459065267e+00" polarizability="9.0093088931e+00 9.6671565060e-16 4.3294528546e-15 -6.9197337068e-17 9.0093088931e+00 8.2624167713e-16 3.2254481229e-14 -2.4628358584e-15 2.3129701464e+01" dipole_derivatives="8.5268308970e-08 2.6334580124e-14 -5.3533922339e-14 -6.6200485961e-15 8.2602553348e-08 1.6049255774e-11 -1.2428089807e-08 -2.5901397138e-06 -5.8512431012e-09 8.4687728450e-08 -5.3515490203e-14 -7.6452554457e-14 -1.0787148906e-13 8.7353425720e-08 -1.5949695044e-11 1.2428010010e-08 2.5901396028e-06 4.4326715909e-08" charge=0 multiplicity=1 method=b3lyp basis=def2-svpd config_type=h2_q0_m1 sample_index=27 bond_length=1.750000 units=atomic
H         0.0000000000       0.0000000000       0.0000000000   2.597630046094e-16   4.297709508827e-17   4.605562728609e-02
H         0.0000000000       0.0000000000       1.7500000000   2.268269304021e-16   1.181353477431e-16  -4.605562728609e-02
2
Properties=species:S:1:pos:R:3:forces:R:3 energy=-1.030464768462e+00 dipole="-5.2618795395e-16 -7.8968446272e-16 4.2155035018e-10" quadrupole="-2.0857877607e+00 3.7190382759e-32 -6.4620236439e-16 3.7190382759e-32 -2.0857877607e+00 -1.8837021034e-15 -6.4620236439e-16 -1.8837021034e-15 -1.2972690227e+00" polarizability="9.0488581473e+00 9.4282967264e-17 4.8213074311e-15 -6.7919665901e-17 9.0488581473e+00 3.7130923759e-15 3.5758620695e-15 4.0204191687e-15 2.3235017341e+01" dipole_derivatives="8.6880874408e-08 1.7617636274e-14 -1.3135538233e-13 -1.0820467900e-13 8.7061696851e-08 1.0029177037e-10 -8.9514402835e-09 -2.1335280972e-06 4.8430318783e-08 8.7006773973e-08 -9.9500628925e-14 4.1325944432e-14 -8.0293080171e-14 8.6825871703e-08 -1.0025166759e-10 8.9515200807e-09 2.1335280313e-06 -5.3536574479e-08" charge=0 multiplicity=1 method=b3lyp basis=def2-svpd config_type=h2_q0_m1 sample_index=28 bond_length=1.800000 units=atomic
H         0.0000000000       0.0000000000       0.0000000000   1.256675702640e-16   1.199647921749e-16   4.040606739605e-02
H         0.0000000000       0.0000000000       1.8000000000  -2.366143059924e-17   5.608613547245e-17  -4.040606739605e-02
2
Properties=species:S:1:pos:R:3:forces:R:3 energy=-1.026891342034e+00 dipole="-5.7204401339e-16 4.3956760190e-17 4.9987658457e-10" quadrupole="-2.0813442750e+00 5.0749703122e-31 -1.5560900154e-16 5.0749703122e-31 -2.0813442750e+00 -1.2969143915e-15 -1.5560900154e-16 -1.2969143915e-15 -1.3476611488e+00" polarizability="9.0792065646e+00 8.2931182796e-16 6.5625663258e-15 1.2861005228e-15 9.0792065646e+00 8.1046227733e-15 1.8792976187e-15 7.3277526136e-15 2.3219546361e+01" dipole_derivatives="8.0045369341e-08 -1.9097834301e-14 -2.5415405978e-14 4.4097506726e-15 8.0044083728e-08 7.2316473380e-11 -5.1584778116e-09 -1.5053750364e-06 -1.5253656671e-07 8.0043159162e-08 4.9990005999e-14 1.9355706422e-13 -1.3610116667e-14 8.0044636404e-08 -7.2275023664e-11 5.1585055671e-09 1.5053751926e-06 1.4654194871e-07" charge=0 multiplicity=1 method=b3lyp basis=def2-svpd config_type=h2_q0_m1 sample_index=29 bond_length=1.850000 units=atomic
H         0.0000000000       0.0000000000       0.0000000000   2.250159020135e-17   1.045520251007e-17   3.532677917911e-02
H         0.0000000000       0.0000000000       1.8500000000   5.274198762958e-17   3.020244647796e-18  -3.532677917911e-02
2
Properties=species:S:1:pos:R:3:forces:R:3 energy=-1.023771621530e+00 dipole="1.0856203936e-15 -7.5210254687e-16 5.9677729425e-10" quadrupole="-2.0763864620e+00 2.6679045191e-31 1.8564493340e-15 2.6679045191e-31 -2.0763864620e+00 -1.4736053390e-15 1.8564493340e-15 -1.4736053390e-15 -1.3964563836e+00" polarizability="9.1020814309e+00 -9.4429821883e-16 -3.6606307431e-15 -3.3264560985e-16 9.1020814309e+00 -3.3561355752e-15 1.7140357197e-16 -4.0702361416e-15 2.3085584095e+01" dipole_derivatives="6.5376316553e-08 -2.7932600988e-13 -3.2948745644e-14 -2.1703223162e-14 6.5368241925e-08 2.0580458826e-11 1.9096531335e-06 8.4728878254e-07 -1.5977490060e-06 6.5359239143e-08 1.2492223343e-13 4.7148280240e-14 3.6514441277e-14 6.5367593874e-08 -2.0538296649e-11 -1.9096529271e-06 -8.4728881550e-07 1.5543049955e-06" charge=0 multiplicity=1 method=b3lyp basis=def2-svpd config_type=h2_q0_m1 sample_index=30 bond_length=1.900000 units=atomic
H         0.0000000000       0.0000000000       0.0000000000  -9.184120401003e-17   6.278938004605e-17   3.079818500566e-02
H         0.0000000000       0.0000000000       1.9000000000  -2.390575558804e-17   5.912163683254e-17  -3.079818500566e-02
2
Properties=species:S:1:pos:R:3:forces:R:3 energy=-1.021054933431e+00 dipole="-1.8152634060e-16 -4.2739813722e-16 6.6535621457e-10" quadrupole="-2.0711436858e+00 2.2632115803e-32 -9.6627131428e-16 2.2632115803e-32 -2.0711436858e+00 -1.7144019635e-15 -9.6627131428e-16 -1.7144019635e-15 -1.4431650890e+00" polarizability="9.1190015499e+00 2.5520385668e-16 6.2086835202e-16 8.2355283340e-16 9.1190015499e+00 4.7709881089e-15 4.4526055688e-15 4.0374604617e-15 2.2837559645e+01" dipole_derivatives="4.2653889986e-08 7.2327611617e-15 3.7385148660e-14 -8.8168793799e-14 4.2656109944e-08 5.8680841243e-11 2.1160680257e-06 5.8303701103e-07 1.0457671465e-06 4.2658164046e-08 -1.4399533396e-14 -6.5987435753e-15 -5.4617561823e-14 4.2656143633e-08 -5.8886080131e-11 -2.1160680309e-06 -5.8303707001e-07 -1.0852459174e-06" charge=0 multiplicity=1 method=b3lyp basis=def2-svpd config_type=h2_q0_m1 sample_index=31 bond_length=1.950000 units=atomic
H         0.0000000000       0.0000000000       0.0000000000   1.165252540117e-16  -8.940781420479e-19   2.678998544865e-02
H         0.0000000000       0.0000000000       1.9500000000   1.656925714863e-16  -6.106807601550e-17  -2.678998544865e-02
2
Properties=species:S:1:pos:R:3:forces:R:3 energy=-1.018693844025e+00 dipole="-8.2622498861e-16 1.0022536223e-15 3.3868721161e-09" quadrupole="-2.0657976445e+00 6.0208740098e-32 -7.3771116116e-16 6.0208740098e-32 -2.0657976445e+00 2.3166191795e-15 -7.3771116116e-16 2.3166191795e-15 -1.4874381036e+00" polarizability="9.1312612055e+00 1.0914109323e-16 4.0993223404e-15 8.5749960060e-16 9.1312612055e+00 -5.9382899491e-15 4.7497480085e-15 -6.4770324269e-15 2.2482906039e+01" dipole_derivatives="1.1953059135e-08 1.3866800675e-13 1.2770821228e-13 1.2469384741e-13 1.1956601495e-08 7.2086008253e-13 1.4391472493e-06 3.9747244905e-07 4.8594697710e-08 1.1960260929e-08 1.7254310802e-13 -2.7884863290e-14 7.5606415910e-14 1.1956735975e-08 -6.5444655847e-13 -1.4391473013e-06 -3.9747238487e-07 -1.4597625192e-08" charge=0 multiplicity=1 method=b3lyp basis=def2-svpd config_type=h2_q0_m1 sample_index=32 bond_length=2.000000 units=atomic
H         0.0000000000       0.0000000000       0.0000000000   1.260806880535e-16  -1.401885191922e-16   2.326445089017e-02
H         0.0000000000       0.0000000000       2.0000000000  -2.156359862586e-17  -9.530019267163e-17  -2.326445089017e-02
2
Properties=species:S:1:pos:R:3:forces:R:3 energy=-1.016644708993e+00 dipole="1.2149936817e-15 8.8537849800e-16 4.4648467146e-09" quadrupole="-2.0604870363e+00 -3.3505319699e-31 4.1988067787e-15 -3.3505319699e-31 -2.0604870363e+00 2.1152415522e-16 4.1988067787e-15 2.1152415522e-16 -1.5290565925e+00" polarizability="9.1399358653e+00 -1.5607674644e-15 -1.4231330779e-14 -1.6227488657e-15 9.1399358653e+00 2.6001745009e-15 -1.2374572335e-14 1.6783499518e-15 2.2032414951e+01" dipole_derivatives="-2.2133917798e-08 1.4514752577e-13 -1.7139142091e-13 -1.3258924362e-13 -2.2132882006e-08 -2.0272962202e-12 9.7015442034e-07 2.6853716820e-07 1.4474255128e-08 -2.2131830359e-08 8.3526131052e-14 6.5276668523e-14 1.7970809841e-14 -2.2132867085e-08 2.0500238083e-12 -9.7015437697e-07 -2.6853722371e-07 -2.4871601306e-08" charge=0 multiplicity=1 method=b3lyp basis=def2-svpd config_type=h2_q0_m1 sample_index=33 bond_length=2.050000 units=atomic
H         0.0000000000       0.0000000000       0.0000000000   5.446033734088e-17  -1.359138139626e-16   2.017960655374e-02
H         0.0000000000       0.0000000000       2.0500000000  -2.892547995566e-18  -1.253548630729e-17  -2.017960655374e-02
2
Properties=species:S:1:pos:R:3:forces:R:3 energy=-1.014867941365e+00 dipole="1.0419216721e-16 -1.1811133408e-15 3.2935840721e-09" quadrupole="-2.0553138854e+00 3.8882418424e-32 6.9256905072e-17 3.8882418424e-32 -2.0553138854e+00 -3.6506998694e-15 6.9256905072e-17 -3.6506998694e-15 -1.5679133524e+00" polarizability="9.1459017958e+00 2.1722421859e-16 -4.6736009298e-15 2.5659677878e-16 9.1459017958e+00 8.5806653554e-15 -5.5473929864e-15 8.8739955229e-15 2.1499995831e+01" dipole_derivatives="-6.0797844223e-08 -5.1564028035e-16 1.3022179978e-13 -9.4216834072e-14 -6.0797601494e-08 -1.6155347985e-12 6.4835147147e-07 1.7972305935e-07 4.2419236526e-08 -6.0797403459e-08 -1.7541220289e-13 -7.4068054945e-14 -1.0121568972e-13 -6.0797548173e-08 1.8014533424e-12 -6.4835151137e-07 -1.7972314435e-07 2.2605920608e-08" charge=0 multiplicity=1 method=b3lyp basis=def2-svpd config_type=h2_q0_m1 sample_index=34 bond_length=2.100000 units=atomic
H         0.0000000000       0.0000000000       0.0000000000  -8.867078569349e-18  -1.080920880675e-16   1.749192810077e-02
H         0.0000000000       0.0000000000       2.1000000000  -9.817141618399e-17  -1.512700356565e-16  -1.749192810077e-02
2
Properties=species:S:1:pos:R:3:forces:R:3 energy=-1.013328056714e+00 dipole="8.6276229855e-16 -2.9665981769e-16 1.9704851084e-09" quadrupole="-2.0503502606e+00 -2.9949751073e-31 4.4954957260e-15 -2.9949751073e-31 -2.0503502606e+00 8.9859647142e-16 4.4954957260e-15 8.9859647142e-16 -1.6039904191e+00" polarizability="9.1498624438e+00 -7.5952976028e-16 -1.7979640380e-14 -1.7834486938e-15 9.1498624438e+00 -6.0216468937e-15 -1.7580626030e-14 -6.3637314149e-15 2.0901961278e+01" dipole_derivatives="-9.8379685489e-08 4.2812934204e-14 -6.6241544284e-14 7.8789781678e-15 -9.8379775834e-08 -7.8379266224e-13 4.2950607741e-07 1.1903294062e-07 -2.8885652550e-09 -9.8379738058e-08 6.6373146412e-14 4.3700094167e-15 -9.6063631246e-14 -9.8379767747e-08 8.0140221252e-13 -4.2950608695e-07 -1.1903297358e-07 -1.2642637805e-08" charge=0 multiplicity=1 method=b3lyp basis=def2-svpd config_type=h2_q0_m1 sample_index=35 bond_length=2.150000 units=atomic
H         0.0000000000       0.0000000000       0.0000000000   7.354917777138e-17  -3.062366758427e-17   1.515840791538e-02
H         0.0000000000       0.0000000000       2.1500000000   1.435073988765e-17   4.580355679025e-17  -1.515840791538e-02
2
Properties=species:S:1:pos:R:3:forces:R:3 energy=-1.011993551780e+00 dipole="-2.5502000651e-16 -9.9170615415e-16 1.1150236290e-09" quadrupole="-2.0456444721e+00 -9.2557804149e-32 -1.3248399234e-15 -9.2557804149e-32 -2.0456444721e+00 -2.7945825664e-15 -1.3248399234e-15 -2.7945825664e-15 -1.6373370873e+00" polarizability="9.1523757093e+00 8.6507532889e-16 8.2654176238e-15 1.4436593082e-15 9.1523757093e+00 3.3477444375e-15 8.1538376157e-15 3.5700054775e-15 2.0255875866e+01" dipole_derivatives="-1.3225001283e-07 -4.7704473778e-14 -8.6199774228e-14 -4.4741022864e-14 -1.3225014443e-07 -1.7105000175e-13 2.8183846229e-07 7.7863914968e-08 1.6923986518e-07 -1.3224994503e-07 5.0524511158e-14 1.0645191694e-15 -2.6079518490e-15 -1.3225012224e-07 1.3523744874e-13 -2.8183850219e-07 -7.7863891550e-08 -1.6844864045e-07" charge=0 multiplicity=1 method=b3lyp basis=def2-svpd config_type=h2_q0_m1 sample_index=36 bond_length=2.200000 units=atomic
H         0.0000000000       0.0000000000       0.0000000000  -9.098059515323e-17   1.947557547482e-16   1.313796012262e-02
H         0.0000000000       0.0000000000       2.2000000000   3.264873156339e-17   1.008447677999e-16  -1.313796012262e-02
2
Properties=species:S:1:pos:R:3:forces:R:3 energy=-1.010836678623e+00 dipole="5.5307283167e-16 -1.1508468593e-15 6.3063776423e-10" quadrupole="-2.0412264017e+00 -1.3280299635e-31 2.8710144882e-16 -1.3280299635e-31 -2.0412264017e+00 -3.2485113341e-15 2.8710144882e-16 -3.2485113341e-15 -1.6680500469e+00" polarizability="9.1538795731e+00 1.0275569123e-15 5.6098852303e-15 9.6805830940e-16 9.1538795731e+00 7.9524891466e-16 5.7892811193e-15 7.7070044383e-16 1.9579515871e+01" dipole_derivatives="-1.5866594114e-07 4.9311144044e-14 -3.9970425188e-14 1.0642996597e-13 -1.5866571548e-07 3.6210933367e-13 4.7362139037e-07 5.0124956269e-08 -8.3252067566e-08 -1.5866579809e-07 6.0394679732e-15 5.6866872385e-15 -7.6717744244e-14 -1.5866589291e-07 -2.9969179342e-13 -4.7362141379e-07 -5.0124834838e-08 -5.3189935095e-08" charge=0 multiplicity=1 method=b3lyp basis=def2-svpd config_type=h2_q0_m1 sample_index=37 bond_length=2.250000 units=atomic
H         0.0000000000       0.0000000000       0.0000000000   7.953097816230e-17   2.680042952880e-17   1.139229152923e-02
H         0.0000000000       0.0000000000       2.2500000000   1.621635564590e-17   2.004957796692e-16  -1.139229152923e-02
2
Properties=species:S:1:pos:R:3:forces:R:3 energy=-1.009833157012e+00 dipole="-6.5106521308e-16 4.7642046058e-16 3.6316993857e-10" quadrupole="-2.0371118065e+00 4.2188246915e-31 5.5049341108e-16 4.2188246915e-31 -2.0371118065e+00 3.5332902687e-16 5.5049341108e-16 3.5332902687e-16 -1.6962573003e+00" polarizability="9.1547144742e+00 -1.8725669401e-16 6.7933265607e-15 -9.9022881682e-16 9.1547144742e+00 2.6814960492e-15 6.7834779199e-15 2.5891021097e-15 1.8889589478e+01" dipole_derivatives="-1.7526436715e-07 -6.3429374226e-14 8.7554040571e-14 -7.1003718606e-14 -1.7526439426e-07 7.6104022953e-13 3.1441436087e-07 -8.9375264134e-08 -1.1545036802e-07 -1.7526441057e-07 -5.2326479211e-14 9.1107093287e-15 -1.9145150937e-14 -1.7526433534e-07 -7.0813238113e-13 -3.1441435566e-07 8.9375373422e-08 -3.8796174606e-08" charge=0 multiplicity=1 method=b3lyp basis=def2-svpd config_type=h2_q0_m1 sample_index=38 bond_length=2.300000 units=atomic
H         0.0000000000       0.0000000000       0.0000000000   7.539373091310e-17  -9.392832582966e-17   9.886361400069e-03
H         0.0000000000       0.0000000000       2.3000000000  -5.012115297301e-17   1.183349449301e-16  -9.886361400069e-03
2
Properties=species:S:1:pos:R:3:forces:R:3 energy=-1.008961855944e+00 dipole="-1.5342288872e-16 2.7340300798e-16 2.0730528405e-10" quadrupole="-2.0333057560e+00 -5.7008324953e-31 -3.0314546607e-15 -5.7008324953e-31 -2.0333057560e+00 -1.1043305302e-15 -3.0314546607e-15 -1.1043305302e-15 -1.7221054955e+00" polarizability="9.1551398899e+00 -2.2939124940e-15 1.0021982217e-15 -2.0586299745e-15 9.1551398899e+00 2.7847111849e-15 1.0313530222e-15 2.8364050722e-15 1.8201037902e+01" dipole_derivatives="-1.7496237414e-07 5.2708249048e-14 -9.4681038828e-14 -4.0368016722e-14 -1.7496263000e-07 9.4583134385e-13 2.0817805292e-07 -7.0446089066e-08 -9.5892131041e-08 -1.7496246698e-07 1.5005865362e-13 -2.1900486451e-14 -9.7849629033e-15 -1.7496252701e-07 -9.3370453196e-13 -2.0817810583e-07 7.0446105546e-08 -7.2256097806e-08" charge=0 multiplicity=1 method=b3lyp basis=def2-svpd config_type=h2_q0_m1 sample_index=39 bond_length=2.350000 units=atomic
H         0.0000000000       0.0000000000       0.0000000000   5.292564521295e-17  -4.835032226762e-17   8.588544433750e-03
H         0.0000000000       0.0000000000       2.3500000000   2.256976900942e-16   1.771707986552e-16  -8.588544433751e-03
2
Properties=species:S:1:pos:R:3:forces:R:3 energy=-1.008204471507e+00 dipole="1.6666149535e-15 -1.5044731462e-15 1.2342038502e-10" quadrupole="-2.0298053655e+00 1.2236968593e-30 3.8858589955e-15 1.2236968593e-30 -2.0298053655e+00 -3.1650268753e-15 3.8858589955e-15 -3.1650268753e-15 -1.7457501590e+00" polarizability="9.1553537585e+00 5.0927032662e-15 -1.8352359487e-14 2.4152119237e-15 9.1553537585e+00 -2.5826221900e-16 -1.8363850396e-14 -3.5293217424e-16 1.7526474663e+01" dipole_derivatives="-1.6487272688e-07 3.6696658503e-14 -7.1411883350e-15 -4.4510777002e-14 -1.6487257096e-07 1.2405524293e-11 2.7696805656e-07 8.3847288054e-08 3.1393926521e-08 -1.6487270072e-07 -5.0969666588e-14 5.5083531082e-14 -3.2384726834e-14 -1.6487268025e-07 -1.2372343207e-11 -2.7696803965e-07 -8.3847326218e-08 -1.8701826676e-07" charge=0 multiplicity=1 method=b3lyp basis=def2-svpd config_type=h2_q0_m1 sample_index=40 bond_length=2.400000 units=atomic
H         0.0000000000       0.0000000000       0.0000000000  -1.148354961697e-16   1.104343724626e-16   7.470626529507e-03
H         0.0000000000       0.0000000000       2.4000000000  -1.027291514973e-16  -3.509735630967e-17  -7.470626529507e-03
2
Properties=species:S:1:pos:R:3:forces:R:3 energy=-1.007545209678e+00 dipole="3.2886406219e-16 -4.5899703981e-16 7.9048767532e-11" quadrupole="-2.0266018098e+00 -1.6249700447e-31 -4.4236379806e-16 -1.6249700447e-31 -2.0266018098e+00 -3.0941461345e-15 -4.4236379806e-16 -3.0941461345e-15 -1.7673497483e+00" polarizability="9.1555001547e+00 -4.7652612754e-16 7.3405512079e-15 -1.4117559061e-16 9.1555001547e+00 -2.6135870148e-15 7.5212761623e-15 -2.6631606948e-15 1.6875786404e+01" dipole_derivatives="-1.4575128618e-07 1.5055088182e-13 -1.4362035616e-14 8.7392750613e-14 -1.4575128297e-07 1.0135644520e-11 1.9327967742e-07 5.9635999264e-08 -1.3520842432e-08 -1.4575122840e-07 1.8122152100e-13 -2.6598783647e-14 -3.6353033371e-14 -1.4575138525e-07 -1.0239504100e-11 -1.9327971168e-07 -5.9635911227e-08 -1.7015869703e-07" charge=0 multiplicity=1 method=b3lyp basis=def2-svpd config_type=h2_q0_m1 sample_index=41 bond_length=2.450000 units=atomic
H         0.0000000000       0.0000000000       0.0000000000  -3.102355834300e-17  -8.244950175241e-17   6.507673686148e-03
H         0.0000000000       0.0000000000       2.4500000000  -2.107820076041e-16  -5.633335264430e-17  -6.507673686148e-03
2
Properties=species:S:1:pos:R:3:forces:R:3 energy=-1.006970484625e+00 dipole="-1.1768350765e-15 1.4560494578e-16 1.1131984223e-10" quadrupole="-2.0236822142e+00 -1.5344977859e-31 -1.2259067430e-15 -1.5344977859e-31 -2.0236822142e+00 2.4984544422e-16 -1.2259067430e-15 2.4984544422e-16 -1.7870594509e+00" polarizability="9.1556804351e+00 -1.1143878935e-15 2.2423631361e-15 -8.6840331319e-16 9.1556804351e+00 2.3755768418e-15 2.2979328291e-15 2.2412649467e-15 1.6256224985e+01" dipole_derivatives="-9.9640052482e-08 -9.7555029854e-14 -4.9888412766e-14 7.0876968561e-14 -9.9640107979e-08 8.6867256168e-12 1.4072890422e-07 4.3170557407e-08 1.7489124732e-08 -9.9640115928e-08 4.8480931974e-14 4.9152249012e-15 -2.1659589765e-14 -9.9639974625e-08 -8.8291712535e-12 -1.4072894195e-07 -4.3170588632e-08 -9.2920162016e-08" charge=0 multiplicity=1 method=b3lyp basis=def2-svpd config_type=h2_q0_m1 sample_index=42 bond_length=2.500000 units=atomic
H         0.0000000000       0.0000000000       0.0000000000   7.587323394593e-17  -2.293414617623e-17   5.677829090947e-03
H         0.0000000000       0.0000000000       2.5000000000  -7.514419319613e-18  -1.703320908494e-16  -5.677829090947e-03
2
Properties=species:S:1:pos:R:3:forces:R:3 energy=-1.005645098344e+00 dipole="7.3963410493e-16 -6.4998951114e-17 8.1900264348e-10" quadrupole="-2.0164606209e+00 -7.2276555534e-33 -1.8756131577e-15 -7.2276555534e-33 -2.0164606209e+00 6.3754502764e-16 -1.8756131577e-15 6.3754502764e-16 -1.8363214367e+00" polarizability="9.1570121514e+00 -5.7762418991e-16 6.4923258233e-14 -1.1217034683e-15 9.1570121514e+00 8.0463574604e-15 6.4720683498e-14 8.0148649146e-15 1.4624431448e+01" dipole_derivatives="5.7245276229e-08 -1.0163875470e-13 5.0433423443e-14 1.2628354066e-13 5.7245296011e-08 4.0614664909e-12 4.6477508907e-08 1.5338980953e-08 -4.8895802554e-07 5.7245347206e-08 -4.7150992076e-15 2.6283773340e-14 1.9003891492e-14 5.7245239685e-08 -3.9793231415e-12 -4.6477520183e-08 -1.5338995699e-08 -5.2602271757e-07" charge=0 multiplicity=1 method=b3lyp basis=def2-svpd config_type=h2_q0_m1 sample_index=43 bond_length=2.650000 units=atomic
H         0.0000000000       0.0000000000       0.0000000000   1.661846717088e-17   2.223368345959e-16   3.809417225964e-03
H         0.0000000000       0.0000000000       2.6500000000  -2.997448268319e-17  -1.527852652309e-16  -3.809417225964e-03
2
Properties=species:S:1:pos:R:3:forces:R:3 energy=-1.004749501735e+00 dipole="2.5164155358e-15 2.1377550034e-16 1.2092638002e-10" quadrupole="-2.0111601277e+00 -1.7823922318e-31 2.9907716024e-15 -1.7823922318e-31 -2.0111601277e+00 1.9708207719e-15 2.9907716024e-15 1.9708207719e-15 -1.8735196177e+00" polarizability="9.1599150522e+00 -1.7972430347e-15 3.8121509715e-15 -2.5362179943e-15 9.1599150522e+00 1.3727539518e-15 3.7671600858e-15 1.3680972173e-15 1.3346838589e+01" dipole_derivatives="2.7635444823e-07 -6.0175165667e-14 -1.6381425689e-14 -7.7815730657e-14 2.7635433352e-07 1.6631079872e-12 1.6072818207e-08 5.3948341020e-09 -3.0795624644e-07 2.7635432822e-07 1.6194764666e-13 2.0904449278e-14 1.7806781536e-14 2.7635444593e-07 -1.5722786326e-12 -1.6072768550e-08 -5.3948382220e-09 -3.1888758236e-07" charge=0 multiplicity=1 method=b3lyp basis=def2-svpd config_type=h2_q0_m1 sample_index=44 bond_length=2.800000 units=atomic
H         0.0000000000       0.0000000000       0.0000000000   9.144508990230e-17   8.866062150131e-18   2.594769726953e-03
H         0.0000000000       0.0000000000       2.8000000000  -6.738437788171e-17  -4.699779136962e-17  -2.594769726953e-03
2
Properties=species:S:1:pos:R:3:forces:R:3 energy=-1.004135499160e+00 dipole="-1.5747645837e-16 -1.7198540692e-15 -6.0677507463e-10" quadrupole="-2.0073068042e+00 2.4424672864e-30 -1.8651752382e-15 2.4424672864e-30 -2.0073068042e+00 -3.1858903642e-15 -1.8651752382e-15 -3.1858903642e-15 -1.9015816790e+00" polarizability="9.1642237242e+00 -3.9407600920e-14 2.8234876449e-13 -3.9730448413e-14 9.1642237242e+00 1.3520274747e-13 2.8081775453e-13 1.3411459730e-13 1.2381634769e+01" dipole_derivatives="3.5990944591e-07 3.0579511256e-14 6.9850780820e-14 1.5111563973e-13 3.5990961214e-07 -1.2159820494e-11 5.0453322076e-09 2.2748903455e-09 -5.6290868277e-07 3.5990937749e-07 8.9600501151e-14 3.4441646354e-14 1.2708603199e-13 3.5990950592e-07 1.2126667730e-11 -5.0454601434e-09 -2.2750028857e-09 -5.0820737679e-07" charge=0 multiplicity=1 method=b3lyp basis=def2-svpd config_type=h2_q0_m1 sample_index=45 bond_length=2.950000 units=atomic
H         0.0000000000       0.0000000000       0.0000000000   1.105747971877e-16   7.416359243083e-17   1.791589263206e-03
H         0.0000000000       0.0000000000       2.9500000000   7.541829724563e-18   2.454240561506e-16  -1.791589263206e-03
2
Properties=species:S:1:pos:R:3:forces:R:3 energy=-1.003709210317e+00 dipole="3.6115669537e-16 -3.1662312296e-16 -4.0787373479e-10" quadrupole="-2.0045064335e+00 5.7162320055e-30 -5.4005777659e-16 5.7162320055e-30 -2.0045064335e+00 -2.0320727053e-15 -5.4005777659e-16 -2.0320727053e-15 -1.9227635575e+00" polarizability="9.1694605364e+00 8.9589731686e-13 -3.7622747290e-12 8.9272673635e-13 9.1694605364e+00 7.1563069795e-13 -3.7450773847e-12 7.1189785699e-13 1.1662536738e+01" dipole_derivatives="2.5787702671e-07 -8.3692481416e-14 -2.0492448578e-13 -3.1450639197e-14 2.5787708287e-07 -9.6722464112e-12 2.2416080494e-09 8.2367565459e-10 7.6427994218e-07 2.5787708226e-07 -6.3548347684e-14 -6.0112044003e-14 7.8272714697e-14 2.5787700576e-07 9.6432132980e-12 -2.2416642110e-09 -8.2370742172e-10 7.8129511595e-07" charge=0 multiplicity=1 method=b3lyp basis=def2-svpd config_type=h2_q0_m1 sample_index=46 bond_length=3.100000 units=atomic
H         0.0000000000       0.0000000000       0.0000000000   8.009855715529e-17  -5.356008888697e-17   1.251368722420e-03
H         0.0000000000       0.0000000000       3.1000000000  -1.003222998643e-17   1.675407210905e-17  -1.251368722420e-03
2
Properties=species:S:1:pos:R:3:forces:R:3 energy=-1.003410075896e+00 dipole="-1.2257561231e-15 2.8880032334e-16 -2.2571082781e-09" quadrupole="-2.0024587279e+00 2.1974594000e-31 -4.2415120142e-15 2.1974594000e-31 -2.0024587279e+00 -1.5029009264e-15 -4.2415120142e-15 -1.5029009264e-15 -1.9387560662e+00" polarizability="9.1750954482e+00 -3.1079284277e-15 -9.3488643876e-14 -3.8772953722e-15 9.1750954482e+00 1.2359661925e-13 -9.3253787131e-14 1.2291078160e-13 1.1127506890e+01" dipole_derivatives="3.7429141018e-08 3.7612629967e-14 -6.7717529521e-14 4.5368827884e-14 3.7428943243e-08 -3.1855342807e-12 1.5278271270e-09 9.6328023683e-10 1.5700725388e-06 3.7428994483e-08 3.4994875452e-14 6.4199388855e-15 2.0460455194e-14 3.7429079916e-08 3.2863520596e-12 -1.5277462455e-09 -9.6353849378e-10 1.5814938278e-06" charge=0 multiplicity=1 method=b3lyp basis=def2-svpd config_type=h2_q0_m1 sample_index=47 bond_length=3.250000 units=atomic
H         0.0000000000       0.0000000000       0.0000000000  -9.212569752061e-17   1.283740417961e-16   8.826022661953e-04
H         0.0000000000       0.0000000000       3.2500000000   5.535239739028e-17   3.498939109254e-17  -8.826022661956e-04
2
Properties=species:S:1:pos:R:3:forces:R:3 energy=-1.003198239064e+00 dipole="1.2171233091e-15 -5.8574542190e-16 -5.1893778164e-10" quadrupole="-2.0009441915e+00 -1.2525049718e-30 7.1991732359e-16 -1.2525049718e-30 -2.0009441915e+00 -1.7157365109e-15 7.1991732359e-16 -1.7157365109e-15 -1.9508331471e+00" polarizability="9.1808983117e+00 4.3881937417e-13 1.5602423752e-13 4.3863820538e-13 9.1808983117e+00 2.0562970185e-13 1.5795121905e-13 2.0558867131e-13 1.0728251210e+01" dipole_derivatives="-2.8685999501e-07 8.9933305176e-14 7.1291597705e-14 -1.1797643632e-13 -2.8686002695e-07 -3.5095073506e-12 5.8827080577e-10 2.0848681939e-10 -1.6598136722e-06 -2.8685995542e-07 1.0560485950e-13 2.1834539708e-14 -1.3565027535e-14 -2.8685979612e-07 3.4733615431e-12 -5.8834312205e-10 -2.0852986221e-10 -1.6568680056e-06" charge=0 multiplicity=1 method=b3lyp basis=def2-svpd config_type=h2_q0_m1 sample_index=48 bond_length=3.400000 units=atomic
H         0.0000000000       0.0000000000       0.0000000000  -1.413677784854e-16   2.334429827836e-16   6.278904614800e-04
H         0.0000000000       0.0000000000       3.4000000000  -1.740214179079e-17   4.194405139041e-17  -6.278904614802e-04
2
Properties=species:S:1:pos:R:3:forces:R:3 energy=-1.003046941616e+00 dipole="9.1886393387e-16 -6.4054229113e-16 -1.7065993063e-10" quadrupole="-1.9998068041e+00 -3.5580227847e-30 6.1923604015e-15 -3.5580227847e-30 -1.9998068041e+00 -2.4105393105e-15 6.1923604015e-15 -2.4105393105e-15 -1.9599606770e+00" polarizability="9.1865828575e+00 -1.4279787679e-15 9.6655846671e-12 -1.4929736154e-15 9.1865828575e+00 -5.5165457919e-13 9.6107061172e-12 -5.5024202710e-13 1.0427725222e+01" dipole_derivatives="-2.9116688398e-07 2.9015683764e-14 -7.1162112806e-14 7.1539708684e-14 -2.9116688853e-07 5.8010680545e-13 3.0968684648e-10 8.0799136912e-11 2.0431493617e-07 -2.9116694814e-07 4.3773549928e-14 -5.9729994413e-14 -8.9202574611e-16 -2.9116681207e-07 -5.7847618764e-13 -3.0979450776e-10 -8.0790409085e-11 2.0456285526e-07" charge=0 multiplicity=1 method=b3lyp basis=def2-svpd config_type=h2_q0_m1 sample_index=49 bond_length=3.550000 units=atomic
H         0.0000000000       0.0000000000       0.0000000000  -1.418249857011e-16   2.320972859629e-16   4.504260473309e-04
H         0.0000000000       0.0000000000       3.5500000000   2.649247667715e-17   2.135868877808e-17  -4.504260473336e-04
2
Properties=species:S:1:pos:R:3:forces:R:3 energy=-1.002937949760e+00 dipole="-5.4612014552e-16 -7.5908812805e-17 -2.4289992240e-10" quadrupole="-1.9989366109e+00 -1.0599425291e-29 -1.6995290276e-17 -1.0599425291e-29 -1.9989366109e+00 -1.8394595394e-15 -1.6995290276e-17 -1.8394595394e-15 -1.9669023362e+00" polarizability="9.1920867234e+00 -2.4855753273e-14 5.8950132585e-13 -2.4916434713e-14 9.1920867234e+00 -2.0020838575e-14 5.8732907673e-13 -1.9906634763e-14 1.0197402388e+01" dipole_derivatives="-1.2108541184e-07 9.2942192726e-14 -7.1067869363e-14 1.2588001378e-13 -1.2108545776e-07 -2.5395115197e-12 1.8763766582e-10 1.2306309942e-10 -1.6905958588e-06 -1.2108536854e-07 1.3146939862e-13 -6.8584570233e-14 1.9194030056e-13 -1.2108548141e-07 2.5835497155e-12 -1.8766168090e-10 -1.2325001588e-10 -1.6895068664e-06" charge=0 multiplicity=1 method=b3lyp basis=def2-svpd config_type=h2_q0_m1 sample_index=50 bond_length=3.700000 units=atomic
H         0.0000000000       0.0000000000       0.0000000000   8.433060551686e-17  -1.053660354538e-16   3.260444310829e-04
H         0.0000000000       0.0000000000       3.7000000000   1.092191939858e-16   1.752897359517e-17  -3.260444310827e-04
2
Properties=species:S:1:pos:R:3:forces:R:3 energy=-1.002858676519e+00 dipole="-4.0905513349e-16 -3.1293461590e-16 7.6124884174e-11" quadrupole="-1.9982576856e+00 -1.3399814489e-30 -3.1659187595e-15 -1.3399814489e-30 -1.9982576856e+00 -3.1373034850e-15 -3.1659187595e-15 -3.1373034850e-15 -1.9722684211e+00" polarizability="9.1973470810e+00 -4.1735622393e-14 -8.1060087124e-14 -4.0953348926e-14 9.1973470810e+00 -6.1682825714e-13 -8.0080280645e-14 -6.1369477753e-13 1.0019404564e+01" dipole_derivatives="1.2378476112e-07 5.5909673876e-14 -4.9093364931e-14 5.0522144316e-14 1.2378493500e-07 -4.5988792668e-13 1.4452452906e-10 1.1923470024e-10 1.5500362835e-06 1.2378466184e-07 -4.1708751478e-14 -5.3903486472e-14 1.4964623911e-13 1.2378477188e-07 4.8521240772e-13 -1.4455949458e-10 -1.1907022677e-10 1.5502933713e-06" charge=0 multiplicity=1 method=b3lyp basis=def2-svpd config_type=h2_q0_m1 sample_index=51 bond_length=3.850000 units=atomic
H         0.0000000000       0.0000000000       0.0000000000  -2.104959636846e-17  -7.932364154609e-17   2.383116429350e-04
H         0.0000000000       0.0000000000       3.8500000000  -1.000826688409e-16  -1.230305729909e-17  -2.383116429349e-04
2
Properties=species:S:1:pos:R:3:forces:R:3 energy=-1.002800449539e+00 dipole="-2.7065194036e-16 3.0945350837e-17 6.1053384570e-11" quadrupole="-1.9977189325e+00 1.7459088205e-29 -1.6989056068e-15 1.7459088205e-29 -1.9977189325e+00 -3.7371848965e-16 -1.6989056068e-15 -3.7371848965e-16 -1.9765264853e+00" polarizability="9.2023939939e+00 5.3241182081e-13 -6.0189545106e-13 5.3274799073e-13 9.2023939939e+00 3.2962283079e-13 -5.9967702779e-13 3.2911743519e-13 9.8795544905e+00" dipole_derivatives="2.7403554976e-07 -8.5671189290e-14 1.2369161480e-13 5.0251799089e-15 2.7403539549e-07 -5.7724821758e-12 5.8699369692e-11 1.2662397172e-11 1.5441825334e-07 2.7403538087e-07 9.5201196684e-14 -2.9215558331e-14 3.6997818670e-14 2.7403551021e-07 5.7684062003e-12 -5.8704750045e-11 -1.2669241199e-11 1.5463864230e-07" charge=0 multiplicity=1 method=b3lyp basis=def2-svpd config_type=h2_q0_m1 sample_index=52 bond_length=4.000000 units=atomic
H         0.0000000000       0.0000000000       0.0000000000  -1.417834940314e-16  -5.030205787461e-18   1.760360588035e-04
H         0.0000000000       0.0000000000       4.0000000000   4.859631730626e-17  -2.727901895261e-17  -1.760360588036e-04
2
Properties=species:S:1:pos:R:3:forces:R:3 energy=-1.002757197160e+00 dipole="-1.6683999347e-15 5.6666677006e-16 1.8506352006e-10" quadrupole="-1.9972868185e+00 6.4300393223e-31 -1.3075404832e-14 6.4300393223e-31 -1.9972868185e+00 2.0438346662e-15 -1.3075404832e-14 2.0438346662e-15 -1.9800281647e+00" polarizability="9.2072263941e+00 8.2805672029e-15 -1.7981914962e-13 8.6380207525e-15 9.2072263941e+00 -1.2503291611e-13 -1.7879679878e-13 -1.2428499507e-13 9.7679373022e+00" dipole_derivatives="1.7856642277e-07 6.8951260169e-14 1.7625175519e-13 -5.2498231556e-14 1.7856622028e-07 -9.7131925227e-14 6.8406204637e-11 3.8780922375e-11 -7.8415690183e-07 1.7856643937e-07 -1.1344142804e-15 -1.0999344992e-13 -2.5156617465e-14 1.7856623542e-07 2.3589136616e-14 -6.8361820111e-11 -3.8763886849e-11 -7.8384122829e-07" charge=0 multiplicity=1 method=b3lyp basis=def2-svpd config_type=h2_q0_m1 sample_index=53 bond_length=4.150000 units=atomic
H         0.0000000000       0.0000000000       0.0000000000   2.684047373193e-16  -1.104330543808e-17   1.311324794459e-04
H         0.0000000000       0.0000000000       4.1500000000   7.115482308936e-17  -1.748805971300e-17  -1.311324794461e-04
2
Properties=species:S:1:pos:R:3:forces:R:3 energy=-1.002724892785e+00 dipole="-1.0807342349e-14 8.3096711401e-16 5.8836846506e-10" quadrupole="-1.9969388494e+00 2.8265725710e-25 -4.3247669971e-14 2.8265725710e-25 -1.9969388494e+00 -6.6444446070e-14 -4.3247669971e-14 -6.6444446070e-14 -1.9830026990e+00" polarizability="9.2118908088e+00 -1.0690649784e-10 -4.6777382636e-10 -1.0690274261e-10 9.2118908086e+00 9.9161162150e-09 -4.6691024082e-10 9.9011605518e-09 9.6780720485e+00" dipole_derivatives="-1.6743716498e-08 -8.4622914072e-15 -6.6117134891e-14 -1.5372948577e-14 -1.6743685237e-08 -2.7322806335e-13 4.8919080050e-11 2.8624380698e-11 8.8890113738e-07 -1.6743742606e-08 1.2613888781e-13 2.6878796831e-14 -3.2971549532e-14 -1.6743843416e-08 3.0878707392e-13 -4.8802765485e-11 -2.8547483659e-11 8.9398878274e-07" charge=0 multiplicity=1 method=b3lyp basis=def2-svpd config_type=h2_q0_m1 sample_index=54 bond_length=4.300000 units=atomic
H         0.0000000000       0.0000000000       0.0000000000   1.569091783052e-16  -1.280606339655e-16   9.842772619784e-05
H         0.0000000000       0.0000000000       4.3000000000  -7.584124311032e-17   2.139809032779e-16  -9.842772620438e-05
2
Properties=species:S:1:pos:R:3:forces:R:3 energy=-1.002700604596e+00 dipole="3.3194348108e-15 3.4510055016e-16 7.5004891187e-11" quadrupole="-1.9966608747e+00 -1.2056889472e-27 7.7818329215e-15 -1.2056889472e-27 -1.9966608747e+00 2.5663999480e-15 7.7818329215e-15 2.5663999480e-15 -1.9855817412e+00" polarizability="9.2163816156e+00 4.5694775356e-12 2.5645363951e-10 4.5673466143e-12 9.2163816156e+00 1.0156668054e-11 2.5607537712e-10 1.0154665697e-11 9.6047426748e+00" dipole_derivatives="5.7431557548e-08 3.0317970989e-14 -5.7005009986e-14 -9.6874953396e-15 5.7431466996e-08 -6.7134117157e-13 3.5134459090e-11 1.8084898813e-11 2.0975973318e-08 5.7431126362e-08 4.9679896896e-14 -6.3449851377e-14 6.6625966570e-14 5.7431601672e-08 6.6982328853e-13 -3.5103213739e-11 -1.8302816673e-11 2.2177434836e-08" charge=0 multiplicity=1 method=b3lyp basis=def2-svpd config_type=h2_q0_m1 sample_index=55 bond_length=4.450000 units=atomic
H         0.0000000000       0.0000000000       0.0000000000   5.259851932950e-17  -2.323157188950e-17   7.403541673100e-05
H         0.0000000000       0.0000000000       4.4500000000   2.053365342037e-16   1.378474577767e-17  -7.403541673109e-05
2
Properties=species:S:1:pos:R:3:forces:R:3 energy=-1.002682253969e+00 dipole="-2.2948003792e-15 -1.0767243991e-15 7.5905504104e-11" quadrupole="-1.9964419042e+00 1.7400532756e-27 -3.6610199701e-14 1.7400532756e-27 -1.9964419042e+00 -7.5423319186e-15 -3.6610199701e-14 -7.5423319186e-15 -1.9878374927e+00" polarizability="9.2207155352e+00 1.3466539277e-11 -1.3564704619e-11 1.3468651690e-11 9.2207155352e+00 2.2060136420e-12 -1.3549882281e-11 2.2019271245e-12 9.5452665928e+00" dipole_derivatives="-1.6369460785e-07 2.3057715522e-14 5.2348333654e-14 -3.2268628272e-14 -1.6369454347e-07 -6.8113497534e-13 3.0529903285e-11 1.7131105833e-11 -8.7722146508e-07 -1.6369470251e-07 9.9321117714e-15 -5.4876554948e-14 7.8117024723e-16 -1.6369462914e-07 7.1827421852e-13 -3.0371084608e-11 -1.6960150867e-11 -8.7665447267e-07" charge=0 multiplicity=1 method=b3lyp basis=def2-svpd config_type=h2_q0_m1 sample_index=56 bond_length=4.600000 units=atomic
H         0.0000000000       0.0000000000       0.0000000000  -5.337213217647e-17   1.782634096583e-16   5.536180880107e-05
H         0.0000000000       0.0000000000       4.6000000000   2.221824104325e-16   1.828889168614e-17  -5.536180880114e-05
2
Properties=species:S:1:pos:R:3:forces:R:3 energy=-1.002668593958e+00 dipole="-1.9970825703e-16 -4.6185443308e-16 4.0770764542e-10" quadrupole="-1.9962717616e+00 -4.8015850604e-29 -2.0054340131e-15 -4.8015850604e-29 -1.9962717616e+00 -1.4318805776e-15 -2.0054340131e-15 -1.4318805776e-15 -1.9897945737e+00" polarizability="9.2248600041e+00 -1.9304827918e-14 -4.1049605131e-13 -1.9117085752e-14 9.2248600041e+00 4.3862643332e-13 -4.1206921221e-13 4.4197652248e-13 9.4971076522e+00" dipole_derivatives="-4.6709760536e-07 2.6856527168e-13 -5.8604900727e-14 2.4042002704e-13 -4.6709720184e-07 -2.0577141203e-12 1.4077087884e-11 9.4680936268e-12 6.4099126750e-08 -4.6709743993e-07 8.9414474458e-14 6.9896510673e-15 -9.0391361875e-14 -4.6709731791e-07 2.2098255824e-12 -1.4131633418e-11 -9.2203263254e-12 6.5862122092e-08" charge=0 multiplicity=1 method=b3lyp basis=def2-svpd config_type=h2_q0_m1 sample_index=57 bond_length=4.750000 units=atomic
H         0.0000000000       0.0000000000       0.0000000000  -1.269906232486e-16   6.298307410991e-17   4.121448236763e-05
H         0.0000000000       0.0000000000       4.7500000000  -1.510762398276e-17  -1.363700086600e-16  -4.121448236747e-05
2
Properties=species:S:1:pos:R:3:forces:R:3 energy=-1.002658658626e+00 dipole="1.0902208058e-15 1.7289524659e-16 1.9944934593e-10" quadrupole="-1.9961428796e+00 -2.1120343016e-29 9.1990717559e-15 -2.1120343016e-29 -1.9961428796e+00 -2.9407305343e-16 9.1990717559e-15 -2.9407305343e-16 -1.9914465247e+00" polarizability="9.2288033194e+00 -7.2086031643e-14 -1.2438335901e-13 -7.0119304217e-14 9.2288033194e+00 1.3026251558e-13 -1.2614077030e-13 1.3215643619e-13 9.4584242920e+00" dipole_derivatives="-1.7601978678e-07 -2.8926766064e-13 -8.2829986685e-14 7.0076586045e-15 -1.7601965964e-07 2.8487184468e-12 1.0324965709e-11 3.4209051878e-12 5.2267507187e-07 -1.7601977400e-07 -1.6428898783e-13 -4.1185988236e-15 -2.9342223358e-14 -1.7601958891e-07 -2.9258026182e-12 -9.6792453881e-12 -3.2821476385e-12 5.2321177672e-07" charge=0 multiplicity=1 method=b3lyp basis=def2-svpd config_type=h2_q0_m1 sample_index=58 bond_length=4.900000 units=atomic
H         0.0000000000       0.0000000000       0.0000000000  -2.263932193490e-16  -5.722958889317e-17   3.050902260002e-05
H         0.0000000000       0.0000000000       4.9000000000   8.107359332267e-17  -1.364556954071e-17  -3.050902260011e-05
2
Properties=species:S:1:pos:R:3:forces:R:3 energy=-1.002651320716e+00 dipole="9.3466065196e-17 -1.0918636861e-16 7.1054273576e-11" quadrupole="-1.9960492759e+00 -2.5421811727e-29 -4.4225936817e-16 -2.5421811727e-29 -1.9960492759e+00 -2.0706839557e-15 -4.4225936817e-16 -2.0706839557e-15 -1.9928051989e+00" polarizability="9.2325390239e+00 2.9022221526e-14 3.9641779959e-13 2.9483614917e-14 9.2325390239e+00 -7.9034046671e-15 4.0294523250e-13 -7.7173158473e-15 9.4276768841e+00" dipole_derivatives="4.4524027166e-07 1.1801417294e-13 5.0583653732e-14 8.9003473512e-14 4.4524036998e-07 -7.0415007307e-14 1.2004288148e-11 9.9016559112e-12 -1.6849707999e-06 4.4524021526e-07 9.2915578988e-15 -1.0593179662e-13 1.7896243496e-14 4.4524026488e-07 2.1738891665e-14 -1.1711479022e-11 -1.0039723976e-11 -1.6848855259e-06" charge=0 multiplicity=1 method=b3lyp basis=def2-svpd config_type=h2_q0_m1 sample_index=59 bond_length=5.050000 units=atomic
H         0.0000000000       0.0000000000       0.0000000000   4.939494686383e-17  -1.767542306168e-17   2.223192157167e-05
H         0.0000000000       0.0000000000       5.0500000000   1.259144864875e-17   1.761996425718e-16  -2.223192157154e-05
2
Properties=species:S:1:pos:R:3:forces:R:3 energy=-1.002645614832e+00 dipole="1.7090055128e-16 -3.2744217000e-16 -1.5958789845e-11" quadrupole="-1.9959831374e+00 -5.4686095103e-30 4.4018048092e-15 -5.4686095103e-30 -1.9959831374e+00 -4.6016419593e-15 4.4018048092e-15 -4.6016419593e-15 -1.9939154455e+00" polarizability="9.2360491746e+00 3.1612148014e-14 -3.0081055334e-13 3.1235025465e-14 9.2360491746e+00 8.9257816666e-14 -3.0841480798e-13 9.1854198424e-14 9.4034726765e+00" dipole_derivatives="2.8636840099e-07 1.2527467773e-14 8.1320310068e-15 4.8341711379e-14 2.8636859074e-07 5.4391872820e-15 -9.9853156613e-13 -2.7344459704e-12 -2.1201868767e-06 2.8636844312e-07 4.9940377048e-14 3.3445370960e-14 4.7526839130e-14 2.8636862659e-07 3.7984853423e-14 1.5263398184e-12 2.7246525755e-12 -2.1202610573e-06" charge=0 multiplicity=1 method=b3lyp basis=def2-svpd config_type=h2_q0_m1 sample_index=60 bond_length=5.200000 units=atomic
H         0.0000000000       0.0000000000       0.0000000000   1.360139194336e-16  -4.873148298298e-17   1.551493185271e-05
H         0.0000000000       0.0000000000       5.2000000000  -1.568306011453e-16   6.281255869814e-17  -1.551493185288e-05
2
Properties=species:S:1:pos:R:3:forces:R:3 energy=-1.002641508733e+00 dipole="7.4366730145e-16 -2.9471740777e-16 -2.2950530365e-12" quadrupole="-1.9959349603e+00 2.5031278686e-30 6.1817328190e-15 2.5031278686e-30 -1.9959349603e+00 -2.9929966073e-15 6.1817328190e-15 -2.9929966073e-15 -1.9948049770e+00" polarizability="9.2393028404e+00 1.2093893835e-14 -6.8405508798e-14 1.2628139581e-14 9.2393028404e+00 3.3740930367e-14 -6.9793022811e-14 3.4674934047e-14 9.3845339660e+00" dipole_derivatives="-7.5619532208e-07 -1.1478536150e-13 5.8246889247e-14 2.1988955617e-14 -7.5619540729e-07 3.1667581727e-13 4.6839219447e-12 3.5470707453e-12 2.0407847549e-06 -7.5619535950e-07 -1.0399936305e-13 -7.6918380765e-14 1.3452071307e-13 -7.5619542233e-07 -3.3158931172e-13 -4.7848078039e-12 -3.5201300154e-12 2.0407558490e-06" charge=0 multiplicity=1 method=b3lyp basis=def2-svpd config_type=h2_q0_m1 sample_index=61 bond_length=5.350000 units=atomic
H         0.0000000000       0.0000000000       0.0000000000   9.238904784392e-17   5.155129789466e-17   1.021029863608e-05
H         0.0000000000       0.0000000000       5.3500000000   4.583133366243e-17   7.417167164904e-17  -1.021029863618e-05
2
Properties=species:S:1:pos:R:3:forces:R:3 energy=-1.002639360936e+00 dipole="-2.0161415484e-16 -1.2855024802e-16 -3.0565772136e-11" quadrupole="-1.9958995172e+00 -6.4890035130e-28 5.0163841498e-15 -6.4890035130e-28 -1.9958995172e+00 -1.6349498521e-15 5.0163841498e-15 -1.6349498521e-15 -1.9954590591e+00" polarizability="9.2422896174e+00 -3.5547521474e-15 6.9667617788e-12 -3.4175532976e-15 9.2422896174e+00 1.2098964897e-13 7.2225938940e-12 1.1229124087e-13 9.3697623234e+00" dipole_derivatives="-1.1482792390e-06 2.2722718361e-13 -1.9193335842e-14 9.0707356958e-14 -1.1482793217e-06 -2.5648947598e-13 2.0527517369e-12 1.5993150950e-12 5.8308521269e-06 -1.1482793086e-06 -7.5513885980e-14 1.0044784431e-13 -2.3391624942e-14 -1.1482793840e-06 2.0199400493e-13 -2.0819819969e-12 -1.5864723814e-12 5.8307543520e-06" charge=0 multiplicity=1 method=b3lyp basis=def2-svpd config_type=h2_q0_m1 sample_index=62 bond_length=5.500000 units=atomic
H         0.0000000000       0.0000000000       0.0000000000   3.259630808808e-18  -7.852191479908e-17   7.009066397383e-06
H         0.0000000000       0.0000000000       5.5000000000  -1.409799145363e-16  -1.113918262055e-16  -7.009066397574e-06
2
Properties=species:S:1:pos:R:3:forces:R:3 energy=-1.002638641558e+00 dipole="1.7622616685e-15 3.4705527656e-16 -1.7640999772e-11" quadrupole="-1.9958771681e+00 -2.0220768154e-26 1.2961872146e-15 -2.0220768154e-26 -1.9958771681e+00 1.5157388250e-15 1.2961872146e-15 1.5157388250e-15 -1.9958750554e+00" polarizability="9.2450391507e+00 4.4276588877e-12 1.0763543397e-12 4.4265602045e-12 9.2450391507e+00 -2.4683344947e-12 1.0442233456e-12 -2.6271805889e-12 9.3582674209e+00" dipole_derivatives="5.4293789758e-07 -1.1015212166e-13 -8.6319071648e-15 2.1578528675e-13 5.4293825731e-07 3.7652081036e-14 3.0717116201e-12 2.5989732149e-12 2.5735166006e-06 5.4293814675e-07 9.7848933415e-16 1.3565498646e-14 3.5593834756e-14 5.4293800722e-07 -4.2776394207e-14 -2.9832868862e-12 -2.7034708226e-12 2.5735191484e-06" charge=0 multiplicity=1 method=b3lyp basis=def2-svpd config_type=h2_q0_m1 sample_index=63 bond_length=5.650000 units=atomic
H         0.0000000000       0.0000000000       0.0000000000   1.673918519241e-17  -1.089190751080e-16   5.957671653087e-06
H         0.0000000000       0.0000000000       5.6500000000  -5.731911518401e-17   1.123837111775e-16  -5.957671653557e-06
2
Properties=species:S:1:pos:R:3:forces:R:3 energy=-1.002637939475e+00 dipole="-5.1783819368e-16 -6.1500287852e-16 -3.2907010450e-11" quadrupole="-1.9958675242e+00 -3.6980530264e-28 -4.8982026704e-15 -3.6980530264e-28 -1.9958675242e+00 -2.6079001553e-15 -4.8982026704e-15 -2.6079001553e-15 -1.9961178020e+00" polarizability="9.2475885548e+00 2.8033990850e-14 -3.5134916686e-13 2.7982809225e-14 9.2475885548e+00 5.7151729910e-14 -3.7475023864e-13 5.9094739106e-14 9.3493153462e+00" dipole_derivatives="3.8104984208e-06 2.9605499798e-14 -3.0759605126e-14 1.0033764730e-13 3.8104985091e-06 4.2859533600e-14 2.4093771717e-12 1.9229515610e-12 -8.0092771238e-06 3.8104985020e-06 9.0320300697e-14 1.4545168909e-14 -2.0691677353e-14 3.8104984281e-06 -4.8742266961e-14 -2.2243127547e-12 -1.9669413701e-12 -8.0092883282e-06" charge=0 multiplicity=1 method=b3lyp basis=def2-svpd config_type=h2_q0_m1 sample_index=64 bond_length=5.800000 units=atomic
H         0.0000000000       0.0000000000       0.0000000000   1.053319575014e-16   1.983023717020e-17   5.604200586431e-06
H         0.0000000000       0.0000000000       5.8000000000  -1.739924482058e-16   3.909615090439e-17  -5.604200586953e-06
2
Properties=species:S:1:pos:R:3:forces:R:3 energy=-1.002636207387e+00 dipole="-7.1297136507e-16 6.4307650058e-17 -2.1316282073e-14" quadrupole="-1.9958650041e+00 -6.4008595581e-28 -1.0510527241e-14 -6.4008595581e-28 -1.9958650041e+00 -4.4740333904e-15 -1.0510527241e-14 -4.4740333904e-15 -1.9963045633e+00" polarizability="9.2499478175e+00 1.0586076610e-14 -2.5818529774e-14 1.2919100956e-14 9.2499478175e+00 -9.1369646917e-14 -2.7619857494e-14 -9.6376222034e-14 9.3422584471e+00" dipole_derivatives="6.2875219129e-06 -1.9729341687e-14 -1.3868713070e-12 -2.6702645790e-14 6.2875226479e-06 -8.4455701872e-13 -3.5092098972e-11 1.5378306674e-14 -1.7385532339e-05 6.2875236167e-06 -1.4209217531e-13 -2.5184730406e-13 -3.0857150136e-15 6.2875226200e-06 -9.7887583363e-13 3.6751065515e-11 -6.4965732989e-14 -1.7385360924e-05" charge=0 multiplicity=1 method=b3lyp basis=def2-svpd config_type=h2_q0_m1 sample_index=65 bond_length=5.950000 units=atomic
H         0.0000000000       0.0000000000       0.0000000000  -4.215539956340e-16  -3.096401787151e-16   4.053425698296e-06
H         0.0000000000       0.0000000000       5.9500000000  -3.429854642224e-16  -1.507622537469e-16  -4.053425698059e-06
