2
Properties=species:S:1:pos:R:3:forces:R:3 energy=-1.493256636086e+02 dipole="5.0364617423e-10 -4.9770458177e-09 -7.5589045006e-01" quadrupole="-1.1365557467e+01 4.5856070004e-01 3.8072208684e-10 4.5856070004e-01 -1.6039541649e+01 -3.7632536447e-09 3.8072208684e-10 -3.7632536447e-09 -1.9083133649e+01" polarizability="7.0165264139e+01 -9.3806075339e+01 -2.6851929575e-07 -9.3806074709e+01 1.0217623958e+03 2.7660794369e-06 2.3939448740e-11 1.2957757403e-10 1.8049990843e+02" dipole_derivatives="-4.9904236318e-01 7.0187333664e-11 -1.3708271412e-08 3.5222625499e-11 -4.9904293504e-01 1.0198090938e-07 -6.9670005320e-06 -6.5294532003e-06 -4.9187749514e-01 -4.9904590465e-01 8.1047592160e-11 1.3434153868e-08 3.1445888952e-11 -4.9904533261e-01 -1.0346316337e-07 6.9670038627e-06 6.5294130103e-06 -4.9186302738e-01" charge=-1 multiplicity=2 method=b3lyp basis=def2-svpd config_type=o2_q-1_m2 sample_index=0 bond_length=0.800000 units=atomic
O         0.0000000000       0.0000000000       0.0000000000  -7.083263982941e-13   5.459082882075e-12  -3.400544593830e+00
O         0.0000000000       0.0000000000       0.8000000000  -7.214430986652e-13   5.495049583064e-12   3.400544593831e+00
2
Properties=species:S:1:pos:R:3:forces:R:3 energy=-1.497987035540e+02 dipole="4.8721486682e-14 -2.3113012164e-11 -8.5037675645e-01" quadrupole="-1.0421908006e+01 1.3941020601e-07 1.2276412558e-13 1.3941020601e-07 -1.3795232725e+01 -2.0523315817e-11 1.2276412558e-13 -2.0523315817e-11 -1.6730081703e+01" polarizability="2.9148814827e+01 -2.2670515503e-06 -1.6680588004e-12 -3.4823372393e-06 -1.4538037705e+01 1.2419222361e-09 -2.1029770436e-12 1.5047767256e-12 7.6238261276e+01" dipole_derivatives="-4.9993264731e-01 3.5000428685e-07 1.4782006542e-11 3.6507308717e-07 -4.9993266296e-01 -4.9338485397e-10 5.0841086896e-07 -9.7333086035e-07 -5.0699009332e-01 -4.9993251227e-01 3.5000289558e-07 -1.0420044362e-11 3.6504855226e-07 -4.9993249665e-01 2.0038072121e-10 -5.0841664212e-07 9.7327124138e-07 -5.0699742016e-01" charge=-1 multiplicity=2 method=b3lyp basis=def2-svpd config_type=o2_q-1_m2 sample_index=2 bond_length=0.900000 units=atomic
O         0.0000000000       0.0000000000       0.0000000000  -5.802185769525e-14   9.795774651246e-14  -1.775630599682e+00
O         0.0000000000       0.0000000000       0.9000000000  -2.728490395938e-14   6.849731937141e-14   1.775630599682e+00
2
Properties=species:S:1:pos:R:3:forces:R:3 energy=-1.499415329898e+02 dipole="3.6763572526e-14 -2.2367649415e-12 -8.9761990960e-01" quadrupole="-1.0117815290e+01 -5.8826057495e-06 1.0353119417e-13 -5.8826057495e-06 -1.2916743297e+01 -2.0574616818e-12 1.0353119417e-13 -2.0574616818e-12 -1.5870925079e+01" polarizability="2.2986055763e+01 6.2926306232e-04 -2.0086480255e-12 6.2928943899e-04 6.2512705517e+02 -1.3737453377e-11 1.5784566055e-10 -5.9836106971e-12 5.7149788410e+01" dipole_derivatives="-4.9997315875e-01 9.9111340425e-10 5.4418254326e-12 9.9935604581e-10 -4.9997316028e-01 2.1450670666e-11 -1.3076372207e-06 3.1005109591e-07 -5.0415965390e-01 -4.9997306509e-01 9.7228825924e-10 6.6051785868e-12 1.0032531873e-09 -4.9997306351e-01 7.5167177186e-12 1.3076103533e-06 -3.1005653600e-07 -5.0415140506e-01" charge=-1 multiplicity=2 method=b3lyp basis=def2-svpd config_type=o2_q-1_m2 sample_index=3 bond_length=0.950000 units=atomic
O         0.0000000000       0.0000000000       0.0000000000  -1.960275442136e-14   7.839125037100e-15  -1.273451631863e+00
O         0.0000000000       0.0000000000       0.9500000000   1.291713014491e-14   1.647475920197e-14   1.273451631863e+00
2
Properties=species:S:1:pos:R:3:forces:R:3 energy=-1.500435185353e+02 dipole="5.0370910322e-12 2.5971544382e-14 -9.4486306274e-01" quadrupole="-1.2239570733e+01 8.4052134777e-07 4.7233098050e-12 8.4052134777e-07 -9.9027339622e+00 3.3846917023e-14 4.7233098050e-12 3.3846917023e-14 -1.5225069325e+01" polarizability="1.0059431710e+02 -2.3766230118e-05 6.4470162797e-12 -2.5295034647e-05 1.9295667777e+01 -4.9567570583e-13 1.4448579386e-10 -2.7771022111e-12 4.4548926577e+01" dipole_derivatives="-4.9999224293e-01 2.3854207229e-11 -2.9512005251e-11 1.0327842383e-10 -4.9999224718e-01 8.7143880462e-12 -2.4564464907e-06 -7.8277501148e-07 -5.0212476115e-01 -4.9999235041e-01 1.0795875601e-10 -1.0390104144e-11 9.9083791725e-11 -4.9999234628e-01 5.8273651719e-12 2.4564510981e-06 7.8271844561e-07 -5.0212130719e-01" charge=-1 multiplicity=2 method=b3lyp basis=def2-svpd config_type=o2_q-1_m2 sample_index=4 bond_length=1.000000 units=atomic
O         0.0000000000       0.0000000000       0.0000000000  -2.810556138187e-14   2.266458403600e-15  -9.040450516652e-01
O         0.0000000000       0.0000000000       1.0000000000  -5.404400354648e-14  -1.456196156091e-14   9.040450516653e-01
2
Properties=species:S:1:pos:R:3:forces:R:3 energy=-1.501650717455e+02 dipole="-8.4907855215e-12 2.7792827839e-12 -1.0393493690e+00" quadrupole="-9.6958082764e+00 -1.6330393898e-06 -8.8063061194e-12 -1.6330393898e-06 -1.1411374156e+01 3.0311312311e-12 -8.8063061194e-12 3.0311312311e-12 -1.4470759559e+01" polarizability="1.5830528476e+01 9.4992579818e-06 2.9735845167e-13 9.5290612991e-06 3.6689640716e+01 -5.0396892752e-12 6.0930967045e-12 5.6855548966e-11 3.1700218736e+01" dipole_derivatives="-4.9999994211e-01 1.3634824126e-11 -5.3616177781e-11 -1.8544008757e-11 -4.9999994230e-01 9.2742370867e-12 -9.4466490186e-08 -5.9133481445e-07 -5.0035504475e-01 -5.0000005375e-01 -4.9470741692e-11 -3.1014041718e-11 -1.7342215791e-11 -5.0000005354e-01 1.0776781051e-11 9.4440510967e-08 5.9137095221e-07 -5.0034608438e-01" charge=-1 multiplicity=2 method=b3lyp basis=def2-svpd config_type=o2_q-1_m2 sample_index=6 bond_length=1.100000 units=atomic
O         0.0000000000       0.0000000000       0.0000000000  -6.634568364217e-14   3.912663825775e-14  -4.299278969598e-01
O         0.0000000000       0.0000000000       1.1000000000  -8.973085693840e-14   5.060238122367e-15   4.299278969592e-01
2
Properties=species:S:1:pos:R:3:forces:R:3 energy=-1.501983057545e+02 dipole="1.8736917301e-14 6.0054591193e-14 -1.0865925365e+00" quadrupole="-9.6746858124e+00 -1.6728559920e-02 1.2797336211e-14 -1.6728559920e-02 -1.1193932969e+01 6.0673503844e-14 1.2797336211e-14 6.0673503844e-14 -1.4293393943e+01" polarizability="1.5151690182e+01 1.4403724399e-01 1.7264944741e-13 1.4403843181e-01 2.8236012668e+01 2.4528987536e-13 1.2877566219e-11 -3.8151971681e-11 2.9090881457e+01" dipole_derivatives="-5.0000147419e-01 -2.1842442695e-11 1.3919573307e-11 -6.2586668626e-12 -5.0000147341e-01 -1.3834190771e-11 -8.8167467771e-07 -1.4024301165e-07 -5.0010153328e-01 -5.0000140021e-01 1.9410360381e-11 -5.6796367961e-12 2.1661493446e-11 -5.0000140105e-01 6.0170931076e-12 8.8162430134e-07 1.4023607275e-07 -5.0010048691e-01" charge=-1 multiplicity=2 method=b3lyp basis=def2-svpd config_type=o2_q-1_m2 sample_index=7 bond_length=1.150000 units=atomic
O         0.0000000000       0.0000000000       0.0000000000  -8.908256514901e-14   2.958778582523e-14  -2.810912256144e-01
O         0.0000000000       0.0000000000       1.1500000000  -2.637369051810e-14  -9.955052885831e-15   2.810912256143e-01
2
Properties=species:S:1:pos:R:3:forces:R:3 energy=-1.502316149648e+02 dipole="2.9325976528e-15 -1.0695707646e-14 -1.1810788446e+00" quadrupole="-9.7254563093e+00 -2.3953709135e-03 2.5933113150e-14 -2.3953709135e-03 -1.0993167281e+01 -6.4828003613e-14 2.5933113150e-14 -6.4828003613e-14 -1.4186726234e+01" polarizability="1.4763392407e+01 1.2136005650e-02 -6.1525995924e-14 1.2135903485e-02 2.1186265405e+01 4.4935789791e-13 2.8438106903e-11 -5.6291489785e-10 2.7853445835e+01" dipole_derivatives="-5.0000407382e-01 2.0607557524e-11 2.9394310719e-12 -3.6315679305e-12 -5.0000407463e-01 -3.6262973591e-12 1.5901384376e-07 -2.4380940322e-07 -4.9999639169e-01 -5.0000411098e-01 -1.3181206323e-11 -1.6314495710e-12 7.1332936305e-13 -5.0000411024e-01 2.0176426682e-11 -1.5901545358e-07 2.4378894736e-07 -4.9999702696e-01" charge=-1 multiplicity=2 method=b3lyp basis=def2-svpd config_type=o2_q-1_m2 sample_index=9 bond_length=1.250000 units=atomic
O         0.0000000000       0.0000000000       0.0000000000  -2.825439639993e-14   4.581289158601e-14  -9.090015464113e-02
O         0.0000000000       0.0000000000       1.2500000000  -9.142772295197e-15   4.021291294943e-14   9.090015464147e-02
2
Properties=species:S:1:pos:R:3:forces:R:3 energy=-1.502372720087e+02 dipole="1.3607196860e-14 -1.9088257024e-14 -1.2283219793e+00" quadrupole="-9.7770363248e+00 2.2631611629e-02 4.3831289649e-14 2.2631611629e-02 -1.0962800646e+01 -5.3405946612e-14 4.3831289649e-14 -5.3405946612e-14 -1.4216977419e+01" polarizability="1.4834912864e+01 -9.2945814027e-02 -1.1491799974e-13 -9.2943476234e-02 1.9704735462e+01 1.3210439555e-13 -3.1540293726e-11 -2.6415344568e-10 2.8418856537e+01" dipole_derivatives="-5.0000432960e-01 2.7183232242e-11 6.1082791930e-13 -3.5299315736e-12 -5.0000432906e-01 2.9427987554e-11 8.1050000045e-08 2.2215524559e-07 -4.9999535592e-01 -5.0000432822e-01 3.3764542363e-11 3.4708142052e-11 1.5555902071e-11 -5.0000432879e-01 -7.4423190597e-12 -8.1046974687e-08 -2.2215955464e-07 -4.9999525497e-01" charge=-1 multiplicity=2 method=b3lyp basis=def2-svpd config_type=o2_q-1_m2 sample_index=10 bond_length=1.300000 units=atomic
O         0.0000000000       0.0000000000       0.0000000000   2.786918997706e-14   1.568713169367e-14  -3.192117395590e-02
O         0.0000000000       0.0000000000       1.3000000000  -1.809575791340e-14   3.234649399443e-14   3.192117395543e-02
2
Properties=species:S:1:pos:R:3:forces:R:3 energy=-1.502381452265e+02 dipole="1.3041583574e-14 -1.6790702893e-14 -1.2755651661e+00" quadrupole="-9.8351613454e+00 -7.1897029957e-03 -8.0120962450e-15 -7.1897029957e-03 -1.0959481018e+01 -1.9316270038e-14 -8.0120962450e-15 -1.9316270038e-14 -1.4286068892e+01" polarizability="1.4992471169e+01 2.4575495503e-02 1.6888880902e-13 2.4574949645e-02 1.8835560921e+01 -1.6969316172e-13 1.1552582620e-11 -9.0731278605e-10 2.9461844404e+01" dipole_derivatives="-5.0000347117e-01 3.9943290887e-12 1.2637263300e-11 -2.9220621692e-12 -5.0000347305e-01 2.5012246939e-13 2.4171706303e-08 -4.4781393871e-08 -4.9999738950e-01 -5.0000340989e-01 -3.9726163247e-11 -3.8630359864e-11 3.3609472086e-12 -5.0000340804e-01 1.2520044399e-11 -2.4186735947e-08 4.4803404042e-08 -4.9999705417e-01" charge=-1 multiplicity=2 method=b3lyp basis=def2-svpd config_type=o2_q-1_m2 sample_index=11 bond_length=1.350000 units=atomic
O         0.0000000000       0.0000000000       0.0000000000  -5.065258264051e-14   3.645635084090e-14   1.117586535866e-02
O         0.0000000000       0.0000000000       1.3500000000   1.582517017781e-16   5.357423824020e-15  -1.117586535864e-02
2
Properties=species:S:1:pos:R:3:forces:R:3 energy=-1.502355274271e+02 dipole="3.0073510469e-14 2.2203454331e-14 -1.3228082317e+00" quadrupole="-1.0967983489e+01 -6.6806741686e-02 -9.5236825679e-15 -6.6806741686e-02 -9.9004133901e+00 2.5281932697e-14 -9.5236825679e-15 2.5281932697e-14 -1.4386566011e+01" polarizability="1.8316172893e+01 1.9405291834e-01 1.7209503805e-13 1.9405047736e-01 1.5215259623e+01 9.4469948476e-14 -6.1440988446e-09 5.4223373435e-10 3.0853383624e+01" dipole_derivatives="-5.0000159394e-01 -2.0841642196e-11 8.5148418871e-12 -3.3678777442e-11 -5.0000159517e-01 -2.4235816712e-11 3.9196132451e-08 1.4278980776e-08 -5.0000055471e-01 -5.0000166677e-01 2.2853051735e-12 -4.2341949669e-11 2.3236392638e-11 -5.0000166556e-01 -8.2685644188e-12 -3.9155470533e-08 -1.4268211612e-08 -4.9999777673e-01" charge=-1 multiplicity=2 method=b3lyp basis=def2-svpd config_type=o2_q-1_m2 sample_index=12 bond_length=1.400000 units=atomic
O         0.0000000000       0.0000000000       0.0000000000  -1.966987657935e-14  -4.677251755124e-15   4.256711591190e-02
O         0.0000000000       0.0000000000       1.4000000000  -6.458217320194e-14  -5.033993696631e-14  -4.256711591209e-02
2
Properties=species:S:1:pos:R:3:forces:R:3 energy=-1.502303748010e+02 dipole="4.2419188288e-14 4.1256099910e-16 -1.3700515542e+00" quadrupole="-1.0993019811e+01 3.6508722156e-02 4.9384098437e-14 3.6508722156e-02 -9.9580684983e+00 1.8682089534e-14 4.9384098437e-14 1.8682089534e-14 -1.4513571334e+01" polarizability="1.8040704092e+01 -9.1615472569e-02 1.3731851500e-13 -9.1613004097e-02 1.5443659240e+01 -4.2514815904e-14 6.8606977568e-09 3.8556280766e-09 3.2516868194e+01" dipole_derivatives="-4.9999937312e-01 -6.1312699232e-12 -3.9507895299e-11 1.5773727844e-11 -4.9999937581e-01 1.7369675544e-11 3.9150009623e-08 -1.6717356666e-08 -5.0000167048e-01 -4.9999931247e-01 -5.5038549287e-11 3.6739276631e-11 -1.2242915049e-11 -4.9999930980e-01 3.4864799881e-11 -3.9186244527e-08 1.6705470340e-08 -5.0000107531e-01" charge=-1 multiplicity=2 method=b3lyp basis=def2-svpd config_type=o2_q-1_m2 sample_index=13 bond_length=1.450000 units=atomic
O         0.0000000000       0.0000000000       0.0000000000  -2.724638284932e-14   5.212915300687e-15   6.525165126040e-02
O         0.0000000000       0.0000000000       1.4500000000  -9.344873771522e-14   1.137798002358e-14  -6.525165126036e-02
2
Properties=species:S:1:pos:R:3:forces:R:3 energy=-1.502234038410e+02 dipole="-1.1066175958e-14 -5.1647823962e-14 -1.4172945941e+00" quadrupole="-1.0092379032e+01 2.6876589709e-01 9.7869367319e-15 2.6876589709e-01 -1.0943690637e+01 -3.3168805504e-14 9.7869367319e-15 -3.3168805504e-14 -1.4663772360e+01" polarizability="1.5858100652e+01 -5.9046588327e-01 3.1074131906e-14 -5.9046656960e-01 1.7728392943e+01 -9.9225946516e-14 -1.2583287436e-07 -1.5616950080e-07 3.4415147541e+01" dipole_derivatives="-4.9999723410e-01 -1.3643677318e-11 -2.5866610179e-12 7.0234377645e-12 -4.9999723408e-01 1.6055302297e-11 5.0416615327e-09 -3.0885571878e-09 -5.0000548912e-01 -4.9999723200e-01 -3.6628609016e-11 3.5619265447e-11 -1.0472501716e-11 -4.9999723203e-01 -1.7840332754e-11 -5.0344867164e-09 3.0876551316e-09 -5.0000001838e-01" charge=-1 multiplicity=2 method=b3lyp basis=def2-svpd config_type=o2_q-1_m2 sample_index=14 bond_length=1.500000 units=atomic
O         0.0000000000       0.0000000000       0.0000000000  -1.424137101406e-14   2.947108916041e-14   8.135374856946e-02
O         0.0000000000       0.0000000000       1.5000000000  -1.010026880087e-14   2.529716674229e-14  -8.135374856944e-02
2
Properties=species:S:1:pos:R:3:forces:R:3 energy=-1.502151608901e+02 dipole="-9.4085143756e-15 7.7666766594e-15 -1.4645377472e+00" quadrupole="-1.0068725173e+01 1.3471904540e-02 -3.6988917860e-14 1.3471904540e-02 -1.1050383669e+01 4.0079394814e-14 -3.6988917860e-14 4.0079394814e-14 -1.4834825781e+01" polarizability="1.5933115764e+01 -2.6202390778e-02 3.5470445058e-14 -2.6202834337e-02 1.7842462103e+01 -2.2223982443e-14 4.8905247735e-07 4.5865598304e-08 3.6547234601e+01" dipole_derivatives="-4.9999592938e-01 6.6993871473e-12 3.3574620177e-11 -1.7807062064e-12 -4.9999593009e-01 3.1818817394e-11 -5.6415705441e-09 6.8187330782e-09 -5.0000089136e-01 -4.9999593100e-01 1.8821864631e-11 1.2856988381e-11 4.2231968605e-12 -4.9999593028e-01 -1.6997340016e-11 5.6946808380e-09 -6.8011221654e-09 -5.0000093430e-01" charge=-1 multiplicity=2 method=b3lyp basis=def2-svpd config_type=o2_q-1_m2 sample_index=15 bond_length=1.550000 units=atomic
O         0.0000000000       0.0000000000       0.0000000000   4.489033245211e-15   2.609716245950e-14   9.238704967853e-02
O         0.0000000000       0.0000000000       1.5500000000   9.277732260123e-15  -5.447014201486e-15  -9.238704967894e-02
2
Properties=species:S:1:pos:R:3:forces:R:3 energy=-1.502060696111e+02 dipole="-8.7030966005e-15 3.4268372474e-14 -1.5117809004e+00" quadrupole="-1.0117874749e+01 -3.9215263655e-04 5.4689166258e-15 -3.9215263655e-04 -1.1079804345e+01 6.0538107241e-14 5.4689166258e-15 6.0538107241e-14 -1.5024973669e+01" polarizability="1.6170002195e+01 6.8160311621e-04 -3.7321366266e-15 6.8399278376e-04 1.7842618082e+01 -7.7896352050e-14 -3.1246389287e-08 5.5600674548e-08 3.8958237819e+01" dipole_derivatives="-4.9999565535e-01 4.0580336950e-11 1.0816488998e-11 -1.0370028948e-11 -4.9999565569e-01 3.2326807404e-12 2.6812295439e-08 -1.3366030505e-08 -4.9999881969e-01 -4.9999565704e-01 2.2851561672e-11 -1.1347314382e-11 -7.3228494643e-12 -4.9999565674e-01 -7.4899040366e-13 -2.6840002443e-08 1.3396048160e-08 -4.9999897323e-01" charge=-1 multiplicity=2 method=b3lyp basis=def2-svpd config_type=o2_q-1_m2 sample_index=16 bond_length=1.600000 units=atomic
O         0.0000000000       0.0000000000       0.0000000000  -4.107530879927e-14   2.949452057294e-14   9.946937544063e-02
O         0.0000000000       0.0000000000       1.6000000000  -3.872890998956e-14   1.385882117694e-14  -9.946937544134e-02
2
Properties=species:S:1:pos:R:3:forces:R:3 energy=-1.501964606629e+02 dipole="5.3147151747e-13 1.9393378086e-12 -1.5590240482e+00" quadrupole="-1.0231336135e+01 -2.4582295780e-01 4.1538468279e-11 -2.4582295780e-01 -1.1039090956e+01 -8.3238017645e-12 4.1538468279e-11 -8.3238017645e-12 -1.5232826474e+01" polarizability="1.6503172631e+01 3.8552906929e-01 -4.7578753652e-11 3.8552872566e-01 1.7770070335e+01 1.3014719795e-11 -3.7753482258e-11 4.5278106846e-11 4.1779088060e+01" dipole_derivatives="-4.9999640194e-01 2.7372555964e-11 5.6533201121e-11 4.3019362142e-12 -4.9999640193e-01 -7.5565577578e-12 3.8597215701e-08 7.9474565817e-08 -4.9998412635e-01 -4.9999640312e-01 1.8507410529e-11 -8.5333080269e-11 2.3156568006e-11 -4.9999640319e-01 -2.7993130435e-11 -3.8628933385e-08 -7.9498553573e-08 -5.0000987943e-01" charge=-1 multiplicity=2 method=b3lyp basis=def2-svpd config_type=o2_q-1_m2 sample_index=17 bond_length=1.650000 units=atomic
O         0.0000000000       0.0000000000       0.0000000000   1.835589550812e-12  -3.076936950597e-13   1.034715863199e-01
O         0.0000000000       0.0000000000       1.6500000000  -1.826603683206e-12   3.923091694091e-13  -1.034715863199e-01
2
Properties=species:S:1:pos:R:3:forces:R:3 energy=-1.501865916996e+02 dipole="1.5543657957e-14 -3.5163581081e-14 -1.6062672066e+00" quadrupole="-1.0219542987e+01 1.2601597334e-01 -6.7673119423e-16 1.2601597334e-01 -1.1117234498e+01 -3.8684441137e-14 -6.7673119423e-16 -3.8684441137e-14 -1.5457244600e+01" polarizability="1.6630768431e+01 -1.7980551987e-01 1.6861842077e-14 -1.7980473141e-01 1.7911626897e+01 2.1559454497e-14 2.0057643585e-09 -5.8418444675e-09 4.5375673984e+01" dipole_derivatives="-4.9999770239e-01 2.8052036236e-12 -1.4509523597e-11 -1.0396739940e-11 -4.9999770227e-01 1.3486117771e-11 1.3594757264e-08 2.1153148677e-08 -4.9999178206e-01 -4.9999770288e-01 -1.3338444570e-11 8.2367635080e-12 -1.8524569851e-11 -4.9999770302e-01 -6.9358019258e-12 -1.3607032168e-08 -2.1155494023e-08 -4.9999130524e-01" charge=-1 multiplicity=2 method=b3lyp basis=def2-svpd config_type=o2_q-1_m2 sample_index=18 bond_length=1.700000 units=atomic
O         0.0000000000       0.0000000000       0.0000000000  -2.020007276615e-14   2.077081119375e-14   1.050721033307e-01
O         0.0000000000       0.0000000000       1.7000000000  -6.401034365166e-14   2.075152992722e-14  -1.050721033309e-01
2
Properties=species:S:1:pos:R:3:forces:R:3 energy=-1.501766604693e+02 dipole="3.5877601307e-18 -4.3914245253e-15 -1.6535103598e+00" quadrupole="-1.0304915246e+01 2.4009792622e-01 1.8741294508e-14 2.4009792622e-01 -1.1091729651e+01 -8.1484236089e-15 1.8741294508e-14 -8.1484236089e-15 -1.5697273472e+01" polarizability="1.6890459276e+01 -3.1433252698e-01 -9.3188973606e-15 -3.1433129570e-01 1.7920537404e+01 1.2806610229e-13 -5.4927269321e-09 -2.5794082755e-08 5.1182379915e+01" dipole_derivatives="-4.9999922634e-01 -2.7965299163e-11 -7.3872029966e-12 -7.3816091406e-12 -4.9999922631e-01 2.3428431032e-12 -4.1947237350e-08 8.7266721627e-09 -4.9999487389e-01 -4.9999922661e-01 8.8972187148e-12 2.3152369946e-11 -1.6876763948e-11 -4.9999922656e-01 6.2058741864e-12 4.1952268048e-08 -8.7627058387e-09 -4.9999671876e-01" charge=-1 multiplicity=2 method=b3lyp basis=def2-svpd config_type=o2_q-1_m2 sample_index=19 bond_length=1.750000 units=atomic
O         0.0000000000       0.0000000000       0.0000000000   1.216304931947e-14   2.258112905805e-14   1.048602040046e-01
O         0.0000000000       0.0000000000       1.7500000000  -2.715106015191e-14   4.913927833273e-14  -1.048602040047e-01
2
Properties=species:S:1:pos:R:3:forces:R:3 energy=-1.501668162246e+02 dipole="-1.0487361343e-14 -2.7673342164e-15 -1.7007535129e+00" quadrupole="-1.1178014971e+01 -5.8499166630e-02 -5.4558121562e-14 -5.8499166630e-02 -1.0272218578e+01 -1.1925708904e-14 -5.4558121562e-14 -1.1925708904e-14 -1.5952111527e+01" polarizability="1.8085778790e+01 7.0892846488e-02 3.1059303681e-13 7.0891612205e-02 1.6988096371e+01 -1.9143752058e-13 -5.2739530326e-12 9.9430587679e-10 8.1701586818e+01" dipole_derivatives="-5.0000051450e-01 -3.5377775964e-11 5.4139822898e-11 -9.9506055452e-13 -5.0000051458e-01 3.3929868961e-11 -6.5878622002e-08 1.1093903574e-09 -4.9998720678e-01 -5.0000051425e-01 -1.6414128135e-11 -1.1685501589e-11 1.9091695856e-11 -5.0000051412e-01 9.2578066965e-12 6.5894185941e-08 -1.0988709942e-09 -4.9998684181e-01" charge=-1 multiplicity=2 method=b3lyp basis=def2-svpd config_type=o2_q-1_m2 sample_index=20 bond_length=1.800000 units=atomic
O         0.0000000000       0.0000000000       0.0000000000  -3.215267217859e-14   2.097168698908e-14   1.032951264894e-01
O         0.0000000000       0.0000000000       1.8000000000  -5.023975403642e-14  -1.098694848295e-15  -1.032951264890e-01
2
Properties=species:S:1:pos:R:3:forces:R:3 energy=-1.501571685843e+02 dipole="-2.7885394942e-14 2.7478272455e-14 -1.7479966661e+00" quadrupole="-1.0295918515e+01 1.7136033244e-02 -4.9825994396e-14 1.7136033244e-02 -1.1201986701e+01 9.0566882437e-14 -4.9825994396e-14 9.0566882437e-14 -1.6221086786e+01" polarizability="1.7151233200e+01 -1.9432567484e-02 -1.1134321884e-13 -1.9432244439e-02 1.8178758120e+01 1.5768506826e-14 -6.5855591261e-12 1.8088402102e-12 4.0662116594e+01" dipole_derivatives="-5.0000154048e-01 -2.0673020344e-12 7.3378156254e-12 2.2387932165e-11 -5.0000154054e-01 2.4935212116e-11 -5.2419603380e-08 -3.0298472065e-09 -5.0000056143e-01 -5.0000154059e-01 5.2175598668e-12 -2.5122200701e-11 -3.0700515370e-12 -5.0000154063e-01 1.0425391219e-11 5.2391715966e-08 3.0380142846e-09 -5.0000050835e-01" charge=-1 multiplicity=2 method=b3lyp basis=def2-svpd config_type=o2_q-1_m2 sample_index=21 bond_length=1.850000 units=atomic
O         0.0000000000       0.0000000000       0.0000000000  -5.337676351760e-14   3.036097797733e-14   1.007496228598e-01
O         0.0000000000       0.0000000000       1.8500000000  -3.241572071031e-14   2.612645854034e-15  -1.007496228601e-01
2
Properties=species:S:1:pos:R:3:forces:R:3 energy=-1.501477958334e+02 dipole="-2.3077343823e-14 1.9856154869e-14 -1.7952398192e+00" quadrupole="-1.1220044764e+01 -2.7601757224e-02 -2.3113179676e-14 -2.7601757224e-02 -1.0320050079e+01 5.3456793013e-14 -2.3113179676e-14 5.3456793013e-14 -1.6503639772e+01" polarizability="1.8259950564e+01 2.9262066646e-02 -1.0927448146e-13 2.9261900793e-02 1.7305842024e+01 3.9961128651e-14 -2.5119861463e-12 -4.0261852625e-12 5.5243909509e+01" dipole_derivatives="-5.0000224714e-01 2.9701578835e-11 -9.5434668047e-12 -9.7143793208e-12 -5.0000224703e-01 9.3621479208e-12 3.8577779859e-08 1.5940797293e-07 -5.0001634834e-01 -5.0000224814e-01 6.9080254024e-12 -2.7593493369e-11 1.5709583654e-11 -5.0000224826e-01 9.1785765905e-12 -3.8550655723e-08 -1.5937437481e-07 -5.0002284269e-01" charge=-1 multiplicity=2 method=b3lyp basis=def2-svpd config_type=o2_q-1_m2 sample_index=22 bond_length=1.900000 units=atomic
O         0.0000000000       0.0000000000       0.0000000000  -6.528242464846e-14   3.317919992904e-14   9.751724314526e-02
O         0.0000000000       0.0000000000       1.9000000000  -6.243693713009e-15   7.010873562388e-15  -9.751724314563e-02
2
Properties=species:S:1:pos:R:3:forces:R:3 energy=-1.501387519215e+02 dipole="1.9588597932e-14 -4.5107105799e-14 -1.8424829723e+00" quadrupole="-1.1209229743e+01 1.5716340751e-01 -1.9093392215e-14 1.5716340751e-01 -1.0368033476e+01 -3.0393132969e-13 -1.9093392215e-14 -3.0393132969e-13 -1.6799307363e+01" polarizability="1.8323884625e+01 -1.5852954205e-01 7.0121600643e-13 -1.5852961105e-01 1.7475374884e+01 2.0104540162e-12 5.1243460341e-13 6.3749171098e-12 8.4567419227e+01" dipole_derivatives="-5.0000288821e-01 -3.4259095235e-11 -2.5074560443e-11 -2.5313424153e-13 -5.0000288822e-01 1.8435811896e-11 -4.3700890129e-08 8.5650146697e-08 -5.0002877015e-01 -5.0000288859e-01 -2.8954228230e-11 3.3789811187e-11 -1.3458120113e-11 -5.0000288858e-01 1.5425990355e-11 4.3712533593e-08 -8.5619955570e-08 -5.0003684845e-01" charge=-1 multiplicity=2 method=b3lyp basis=def2-svpd config_type=o2_q-1_m2 sample_index=23 bond_length=1.950000 units=atomic
O         0.0000000000       0.0000000000       0.0000000000  -3.542826562471e-14   2.135683315921e-14   9.382518604700e-02
O         0.0000000000       0.0000000000       1.9500000000  -3.447415156326e-14   4.325814687397e-14  -9.382518604705e-02
2
Properties=species:S:1:pos:R:3:forces:R:3 energy=-1.501217763606e+02 dipole="1.6937086789e-14 -1.8393083759e-14 -1.9369692788e+00" quadrupole="-1.0377384778e+01 -6.7876082393e-02 -5.9770245383e-13 -6.7876082393e-02 -1.1260968790e+01 -1.6752965670e-14 -5.9770245383e-13 -1.6752965670e-14 -1.7428511071e+01" polarizability="1.7702045435e+01 6.3356821587e-02 2.2797308019e-12 6.3356797938e-02 1.8526801600e+01 -5.0868297258e-13 9.7548461304e-12 -1.1790918255e-12 2.7610104917e+01" dipole_derivatives="-5.0000427186e-01 -7.3312117662e-12 -2.4748261006e-11 -1.2222736836e-11 -5.0000427183e-01 -4.8175786189e-12 -3.2818470164e-09 -7.2037847909e-08 -4.9987528097e-01 -5.0000427208e-01 2.6205003185e-11 -8.3086295521e-12 3.0356413070e-12 -5.0000427215e-01 -1.7442393025e-11 3.3025387980e-09 7.2008080054e-08 -4.9986734768e-01" charge=-1 multiplicity=2 method=b3lyp basis=def2-svpd config_type=o2_q-1_m2 sample_index=25 bond_length=2.050000 units=atomic
O         0.0000000000       0.0000000000       0.0000000000   1.659331307604e-14  -2.126841349934e-14   8.570601060555e-02
O         0.0000000000       0.0000000000       2.0500000000   1.435415373539e-14  -1.292645565911e-14  -8.570601060556e-02
2
Properties=species:S:1:pos:R:3:forces:R:3 energy=-1.501138760737e+02 dipole="2.6188893500e-14 3.8473452755e-14 -1.9842124311e+00" quadrupole="-1.0386452399e+01 -3.6832260140e-02 -3.5492255438e-13 -3.6832260140e-02 -1.1276686048e+01 8.1488372659e-14 -3.5492255438e-13 8.1488372659e-14 -1.7761453665e+01" polarizability="1.7809120570e+01 3.3458660914e-02 1.5887010578e-12 3.3458697493e-02 1.8617815919e+01 -2.7973909442e-13 7.0279722082e-12 -5.5326075534e-13 3.8013993046e+01" dipole_derivatives="-5.0000508751e-01 -7.6198061700e-12 3.1710801114e-11 -1.2893513045e-11 -5.0000508753e-01 1.3111922633e-11 1.7599310898e-08 -9.6598916366e-08 -4.9997344867e-01 -5.0000508224e-01 -1.9476274809e-12 -6.5864036909e-11 1.4489458643e-11 -5.0000508219e-01 -1.4971546199e-11 -1.7544694864e-08 9.6600449861e-08 -4.9997306503e-01" charge=-1 multiplicity=2 method=b3lyp basis=def2-svpd config_type=o2_q-1_m2 sample_index=26 bond_length=2.100000 units=atomic
O         0.0000000000       0.0000000000       0.0000000000   1.466317527997e-16  -4.972046843633e-14   8.150177794886e-02
O         0.0000000000       0.0000000000       2.1000000000  -2.654218416326e-14  -4.398235484203e-14  -8.150177794935e-02
2
Properties=species:S:1:pos:R:3:forces:R:3 energy=-1.501063737402e+02 dipole="-1.6006300569e-14 -1.4741532985e-14 -2.0314555837e+00" quadrupole="-1.0468939898e+01 -2.4516779376e-01 -9.8515803515e-13 -2.4516779376e-01 -1.1215676820e+01 2.4018542681e-13 -9.8515803515e-13 2.4018542681e-13 -1.8106294677e+01" polarizability="1.7974847250e+01 2.1829320194e-01 4.4505909440e-12 2.1829316385e-01 1.8639734128e+01 -1.2068132476e-12 2.0320618116e-11 -5.2524106558e-12 4.3380597762e+01" dipole_derivatives="-5.0000571805e-01 -8.1528840266e-12 -8.4447065432e-12 2.1847692013e-11 -5.0000571802e-01 1.2856249997e-11 -1.6641972522e-08 1.1915904374e-07 -5.0000725755e-01 -5.0000570132e-01 1.0029854828e-11 2.0865326631e-11 5.2330193327e-13 -5.0000570132e-01 8.2934986226e-12 1.6617082710e-08 -1.1915683024e-07 -4.9995847356e-01" charge=-1 multiplicity=2 method=b3lyp basis=def2-svpd config_type=o2_q-1_m2 sample_index=27 bond_length=2.150000 units=atomic
O         0.0000000000       0.0000000000       0.0000000000   2.978761866945e-14  -3.818219104957e-14   7.729984674754e-02
O         0.0000000000       0.0000000000       2.1500000000   7.738069295814e-17  -4.963645019827e-14  -7.729984674745e-02
2
Properties=species:S:1:pos:R:3:forces:R:3 energy=-1.500992667770e+02 dipole="6.7434501066e-15 -1.1992414593e-14 -2.0786987329e+00" quadrupole="-1.1297348829e+01 3.3259493217e-02 1.4880275986e-13 3.3259493217e-02 -1.0405806368e+01 3.8275006095e-12 1.4880275986e-13 3.8275006095e-12 -1.8462822225e+01" polarizability="1.8787754785e+01 -2.9216569109e-02 -3.0810517781e-13 -2.9214032022e-02 1.8004582975e+01 -1.6506320783e-11 -7.3691348125e-12 -8.4119028112e-11 4.7145899291e+01" dipole_derivatives="-5.0000626259e-01 3.4634669865e-12 -6.8438111535e-12 7.0025807726e-12 -5.0000626260e-01 -2.7390474010e-11 -2.4978095980e-08 5.1071057106e-08 -4.9995285196e-01 -5.0000608786e-01 -1.9228633936e-11 3.3516919320e-11 -8.5568930071e-12 -5.0000608787e-01 1.6177221462e-11 2.4956946232e-08 -5.1074915131e-08 -4.9992989534e-01" charge=-1 multiplicity=2 method=b3lyp basis=def2-svpd config_type=o2_q-1_m2 sample_index=28 bond_length=2.200000 units=atomic
O         0.0000000000       0.0000000000       0.0000000000  -2.600375278831e-14  -1.134653852862e-14   7.314655378455e-02
O         0.0000000000       0.0000000000       2.2000000000  -1.488021009351e-14   6.774586817958e-14  -7.314655378569e-02
2
Properties=species:S:1:pos:R:3:forces:R:3 energy=-1.500925490045e+02 dipole="-8.8218535088e-16 1.2620601548e-14 -2.1259418847e+00" quadrupole="-1.0525300133e+01 2.9773254211e-01 -2.3457770369e-12 2.9773254211e-01 -1.1193793149e+01 -8.8684206327e-13 -2.3457770369e-12 -8.8684206327e-13 -1.8830843478e+01" polarizability="1.8189004013e+01 -2.5955103871e-01 9.5057769712e-12 -2.5955099744e-01 1.8771775982e+01 3.6458153642e-12 3.6805089424e-11 1.0101696995e-11 5.0193851145e+01" dipole_derivatives="-5.0000623994e-01 -6.0958795016e-12 6.8703300778e-09 2.5354259933e-11 -5.0000623981e-01 1.5442901670e-09 2.4248089647e-08 -7.7432657508e-08 -4.9997466744e-01 -5.0000588954e-01 8.9130704265e-12 -6.8600605148e-09 5.7874959074e-12 -5.0000588968e-01 -1.5352418493e-09 -2.4250337849e-08 7.7448783498e-08 -4.9998379505e-01" charge=-1 multiplicity=2 method=b3lyp basis=def2-svpd config_type=o2_q-1_m2 sample_index=29 bond_length=2.250000 units=atomic
O         0.0000000000       0.0000000000       0.0000000000   2.580083584344e-14   3.183826249430e-14   6.907211395173e-02
O         0.0000000000       0.0000000000       2.2500000000  -2.824332649762e-14   2.513831244085e-17  -6.907211395271e-02
2
Properties=species:S:1:pos:R:3:forces:R:3 energy=-1.500862119266e+02 dipole="1.6254766933e-14 9.4705878132e-15 -2.1731850462e+00" quadrupole="-1.1314180071e+01 -2.4228640747e-02 -5.2060839946e-13 -2.4228640747e-02 -1.0418563614e+01 1.9198152811e-11 -5.2060839946e-13 1.9198152811e-11 -1.9210177087e+01" polarizability="1.8949683351e+01 2.1066043801e-02 2.1793992299e-12 2.1068782272e-02 1.8170791662e+01 -7.9844987306e-11 1.9652078212e-12 -1.2179452514e-10 5.2858278217e+01" dipole_derivatives="-5.0000526395e-01 -9.5956671549e-12 -1.7038446609e-10 1.6130138015e-11 -5.0000526303e-01 3.4186961951e-10 -1.7656695550e-08 -1.8969284477e-08 -5.0000166259e-01 -5.0000543130e-01 2.2453437559e-11 1.8113975164e-10 -4.0842181979e-12 -5.0000543224e-01 -3.6446265806e-10 1.7658034757e-08 1.8955823022e-08 -5.0000073742e-01" charge=-1 multiplicity=2 method=b3lyp basis=def2-svpd config_type=o2_q-1_m2 sample_index=30 bond_length=2.300000 units=atomic
O         0.0000000000       0.0000000000       0.0000000000   7.136416247442e-14  -1.870058657920e-13   6.509695800116e-02
O         0.0000000000       0.0000000000       2.3000000000   2.741793114161e-14   1.795673715270e-13  -6.509695800122e-02
2
Properties=species:S:1:pos:R:3:forces:R:3 energy=-1.500802454386e+02 dipole="-9.4791762591e-15 1.6617594739e-14 -2.2204281972e+00" quadrupole="-1.0522922407e+01 -2.8294331225e-01 2.0207546557e-11 -2.8294331225e-01 -1.1221469314e+01 -7.1278728912e-12 2.0207546557e-11 -7.1278728912e-12 -1.9600652323e+01" polarizability="1.8331576183e+01 2.4659223244e-01 -8.2781554057e-11 2.4659218659e-01 1.8940385021e+01 2.9619347615e-11 5.1134992856e-11 -1.2363066490e-11 5.5293773431e+01" dipole_derivatives="-5.0000411446e-01 1.1874654005e-11 2.1845819272e-08 4.8508240424e-12 -5.0000413103e-01 -4.3373451619e-09 -5.0752953923e-08 4.6854298219e-08 -4.9991487376e-01 -5.0000410920e-01 2.6816618403e-11 -2.1869997847e-08 -1.8728611850e-11 -5.0000409262e-01 4.3314609799e-09 5.0725409984e-08 -4.6848525059e-08 -5.0003602457e-01" charge=-1 multiplicity=2 method=b3lyp basis=def2-svpd config_type=o2_q-1_m2 sample_index=31 bond_length=2.350000 units=atomic
O         0.0000000000       0.0000000000       0.0000000000  -1.552373870773e-13   1.937345128325e-14   6.123296684902e-02
O         0.0000000000       0.0000000000       2.3500000000   1.400273316399e-13  -4.990458446044e-14  -6.123296684875e-02
2
Properties=species:S:1:pos:R:3:forces:R:3 energy=-1.500746385559e+02 dipole="1.6739130629e-15 3.0137051161e-14 -2.2676713561e+00" quadrupole="-1.1223496604e+01 2.8839558547e-01 -7.4658241515e-12 2.8839558547e-01 -1.0530801378e+01 -2.0478260877e-11 -7.4658241515e-12 -2.0478260877e-11 -2.0002110710e+01" polarizability="1.9011558663e+01 -2.5287174160e-01 3.0031656897e-11 -2.5287178954e-01 1.8404181804e+01 8.2731422912e-11 1.1303640113e-10 3.2932997360e-10 5.7581746571e+01" dipole_derivatives="-5.0000178709e-01 8.1500012044e-12 2.9567843414e-11 2.2251063037e-11 -5.0000176030e-01 1.1458271294e-10 -3.6588076319e-08 4.4192458720e-08 -4.9992829422e-01 -5.0000287739e-01 2.7626935764e-11 7.0218115028e-12 6.4482021498e-12 -5.0000290422e-01 -9.2322741298e-11 3.6565386136e-08 -4.4220880430e-08 -5.0005285683e-01" charge=-1 multiplicity=2 method=b3lyp basis=def2-svpd config_type=o2_q-1_m2 sample_index=32 bond_length=2.400000 units=atomic
O         0.0000000000       0.0000000000       0.0000000000   1.125517439125e-13   3.008565713554e-13   5.748790398386e-02
O         0.0000000000       0.0000000000       2.4000000000  -1.407236531623e-13  -2.891992295968e-13  -5.748790398347e-02
2
Properties=species:S:1:pos:R:3:forces:R:3 energy=-1.500693797174e+02 dipole="1.4260132055e-14 3.5743332319e-14 -2.3149145124e+00" quadrupole="-1.0432949025e+01 5.7216001473e-02 -8.3731588254e-11 5.7216001473e-02 -1.1329747717e+01 -5.2935465889e-12 -8.3731588254e-11 -5.2935465889e-12 -2.0414402489e+01" polarizability="1.8379261087e+01 -5.0640189625e-02 3.3432989091e-10 -5.0640441175e-02 1.9172993074e+01 2.0959566015e-11 1.3613268598e-08 7.9090532413e-10 5.9769943364e+01" dipole_derivatives="-4.9999925005e-01 1.0617504515e-11 8.3408735857e-09 -4.0048356788e-12 -4.9999919450e-01 1.9644254062e-09 9.7481363259e-08 -5.1931223211e-08 -5.0000073286e-01 -5.0000119076e-01 -3.1683986408e-11 -8.3293550218e-09 1.7843896296e-12 -5.0000124632e-01 -1.9597624695e-09 -9.7480433447e-08 5.1934172240e-08 -5.0002815698e-01" charge=-1 multiplicity=2 method=b3lyp basis=def2-svpd config_type=o2_q-1_m2 sample_index=33 bond_length=2.450000 units=atomic
O         0.0000000000       0.0000000000       0.0000000000   3.598974181654e-13   3.923380587829e-14   5.386864254788e-02
O         0.0000000000       0.0000000000       2.4500000000  -4.125497451083e-13  -2.346863892862e-14  -5.386864254804e-02
2
Properties=species:S:1:pos:R:3:forces:R:3 energy=-1.500644566611e+02 dipole="4.0382995033e-15 -2.3036968563e-14 -2.3621576437e+00" quadrupole="-1.0431481882e+01 -7.9360555388e-03 2.6097028637e-10 -7.9360555388e-03 -1.1338315305e+01 -2.3198368310e-12 2.6097028637e-10 -2.3198368310e-12 -2.0837389279e+01" polarizability="1.8434757079e+01 7.1093617462e-03 -1.0294799513e-09 7.1099789858e-03 1.9247114194e+01 9.1832223044e-12 1.0579596943e-08 1.5806204914e-09 6.1888301910e+01" dipole_derivatives="-4.9999637234e-01 -4.8604793411e-12 -5.5320869981e-08 -6.4637514974e-12 -4.9999648670e-01 4.9626074305e-09 1.7852379297e-08 -4.3577370878e-08 -5.0001359456e-01 -4.9999964951e-01 -1.1203060046e-11 5.5319912413e-08 -1.0857650700e-12 -4.9999953517e-01 -4.9609420960e-09 -1.7866208513e-08 4.3584934273e-08 -5.0000212108e-01" charge=-1 multiplicity=2 method=b3lyp basis=def2-svpd config_type=o2_q-1_m2 sample_index=34 bond_length=2.500000 units=atomic
O         0.0000000000       0.0000000000       0.0000000000  -1.660343354230e-12  -1.618660570687e-13   5.037992256393e-02
O         0.0000000000       0.0000000000       2.5000000000   1.643551230982e-12   1.821831384193e-13  -5.037992256331e-02
2
Properties=species:S:1:pos:R:3:forces:R:3 energy=-1.500515729448e+02 dipole="1.7141207647e-14 1.3726520724e-14 -2.5038870410e+00" quadrupole="-1.1350411365e+01 2.0044840949e-02 5.4705175116e-11 2.0044840949e-02 -1.0434626133e+01 2.4951678167e-09 5.4705175116e-11 2.4951678167e-09 -2.2169354682e+01" polarizability="1.9446027854e+01 -1.8827028416e-02 -2.0979154358e-10 -1.8827076876e-02 1.8585952079e+01 -9.5861556528e-09 -4.3427271577e-08 1.9382859311e-06 6.7992029216e+01" dipole_derivatives="-4.9999163146e-01 1.8242705275e-11 2.2320045625e-11 -1.5211414326e-11 -4.9999162660e-01 1.0729615582e-09 2.0428752440e-08 -2.4716409475e-09 -5.0132110701e-01 -4.9999400542e-01 1.7673009572e-11 2.5280766556e-11 3.6650948694e-12 -4.9999401025e-01 -1.0714627571e-09 -2.0441544291e-08 2.4805921206e-09 -5.0130452415e-01" charge=-1 multiplicity=2 method=b3lyp basis=def2-svpd config_type=o2_q-1_m2 sample_index=35 bond_length=2.650000 units=atomic
O         0.0000000000       0.0000000000       0.0000000000   1.448226210616e-12  -3.895164955017e-12   4.075850577937e-02
O         0.0000000000       0.0000000000       2.6500000000  -1.488221995078e-12   3.890390996011e-12  -4.075850577930e-02
2
Properties=species:S:1:pos:R:3:forces:R:3 energy=-1.500412223238e+02 dipole="-5.3756917782e-16 -5.6161963400e-15 -2.6456165714e+00" quadrupole="-1.0775755428e+01 -4.4747704256e-01 1.3504760565e-08 -4.4747704256e-01 -1.1018104345e+01 -1.0334087579e-08 1.3504760565e-08 -1.0334087579e-08 -2.3593973744e+01" polarizability="1.9043110155e+01 4.4396227181e-01 -5.1034231858e-08 4.4396220065e-01 1.9283551914e+01 3.9053101801e-08 -1.6694105035e-06 -1.7240615241e-06 7.3911991560e+01" dipole_derivatives="-4.9999141575e-01 3.2101492158e-12 -2.4156210898e-12 6.9073085266e-12 -4.9999141586e-01 6.1648707245e-11 -3.3813844086e-08 -1.1681159512e-08 -5.0113817545e-01 -4.9999141538e-01 6.1851131301e-12 2.3878655142e-12 -1.9113049158e-12 -4.9999141526e-01 -4.9908098759e-11 3.3825015705e-08 1.1679126416e-08 -5.0113374079e-01" charge=-1 multiplicity=2 method=b3lyp basis=def2-svpd config_type=o2_q-1_m2 sample_index=36 bond_length=2.800000 units=atomic
O         0.0000000000       0.0000000000       0.0000000000  -1.068678041664e-10   5.193548233214e-11   3.252167642374e-02
O         0.0000000000       0.0000000000       2.8000000000   1.069056627716e-10  -5.200154060211e-11  -3.252167642431e-02
2
Properties=species:S:1:pos:R:3:forces:R:3 energy=-1.500329992231e+02 dipole="-5.8480262029e-14 2.1290731031e-14 -2.7873460387e+00" quadrupole="-1.1335386495e+01 1.7224619123e-01 1.7058891043e-11 1.7224619123e-01 -1.0463001371e+01 9.0389463823e-11 1.7058891043e-11 9.0389463823e-11 -2.5109721780e+01" polarizability="1.9740090849e+01 -1.8042470253e-01 1.0344004337e-11 -1.8042498167e-01 1.8826276750e+01 4.3253686885e-11 -2.5641782831e-06 1.2132427415e-05 7.9785105547e+01" dipole_derivatives="-4.9999195745e-01 7.9302590877e-12 2.8264855978e-07 2.4149566588e-11 -4.9999195757e-01 -5.2500858962e-07 -4.4576533437e-08 -6.4980763825e-08 -4.9816160736e-01 -4.9999193220e-01 3.8671352371e-11 -2.8793356832e-07 3.0195850467e-11 -4.9999193211e-01 5.2485865400e-07 4.4630327212e-08 6.5054663045e-08 -4.9816275064e-01" charge=-1 multiplicity=2 method=b3lyp basis=def2-svpd config_type=o2_q-1_m2 sample_index=37 bond_length=2.950000 units=atomic
O         0.0000000000       0.0000000000       0.0000000000   1.020108048115e-13   1.469595553511e-13   2.574070588130e-02
O         0.0000000000       0.0000000000       2.9500000000  -4.011587118863e-14  -8.334377604011e-14  -2.574070588182e-02
2
Properties=species:S:1:pos:R:3:forces:R:3 energy=-1.500172849999e+02 dipole="2.6143163333e-13 -2.5758000062e-14 -3.2125344094e+00" quadrupole="-1.1316001474e+01 -2.4186446560e-01 -9.6458995636e-12 -2.4186446560e-01 -1.0477464224e+01 3.8519528063e-11 -9.6458995636e-12 3.8519528063e-11 -3.0195639666e+01" polarizability="1.9981141350e+01 2.8794234066e-01 3.2846820570e-11 2.8794275722e-01 1.8982842464e+01 -1.8088022406e-10 2.3423946426e-06 -1.3350517604e-09 9.7791387669e+01" dipole_derivatives="-4.9999885305e-01 -5.9845095075e-11 1.8180909667e-07 1.9209359650e-12 -4.9999885266e-01 3.3536496072e-07 1.4363335174e-08 -9.3089052092e-09 7.1865721256e-01 -4.9999854236e-01 1.5880263300e-11 -1.8098875288e-07 -1.2190498943e-11 -4.9999854277e-01 -3.2743821813e-07 -1.4380384904e-08 9.3036585380e-09 -1.7229033433e+00" charge=-1 multiplicity=2 method=b3lyp basis=def2-svpd config_type=o2_q-1_m2 sample_index=40 bond_length=3.400000 units=atomic
O         0.0000000000       0.0000000000       0.0000000000  -1.290587948390e-14  -1.357701620447e-13   1.277756086238e-02
O         0.0000000000       0.0000000000       3.4000000000  -6.727997846965e-14   2.419074831989e-13  -1.277756086296e-02
2
Properties=species:S:1:pos:R:3:forces:R:3 energy=-1.500114817249e+02 dipole="-4.6111995091e-11 1.7851430102e-11 -3.4959932993e+00" quadrupole="-1.0520870039e+01 -3.2727717317e-01 8.5133239305e-08 -3.2727717317e-01 -1.1256581146e+01 -3.2468568357e-08 8.5133239305e-08 -3.2468568357e-08 -3.4025572692e+01" polarizability="1.9042022666e+01 4.1143405939e-01 -2.7897527579e-07 4.1143411285e-01 1.9966901758e+01 1.1677201088e-07 -1.3094880411e-06 9.0481245410e-07 1.1044124341e+02" dipole_derivatives="-5.0001502373e-01 -6.2890352389e-10 -2.9764455871e-06 -2.2214633007e-09 -5.0001473544e-01 -3.7935199303e-06 -7.3666767131e-10 -4.4204188920e-09 -5.0161696876e-01 -5.0001439102e-01 7.3168242040e-10 2.9923594406e-06 2.2431542830e-09 -5.0001467931e-01 3.7394898721e-06 7.7724025133e-10 4.3327268856e-09 -5.0161722498e-01" charge=-1 multiplicity=2 method=b3lyp basis=def2-svpd config_type=o2_q-1_m2 sample_index=42 bond_length=3.700000 units=atomic
O         0.0000000000       0.0000000000       0.0000000000  -4.263534898130e-11   2.064571234969e-11   8.035315727807e-03
O         0.0000000000       0.0000000000       3.7000000000   4.264428627665e-11  -2.057121638474e-11  -8.035315728417e-03
2
Properties=species:S:1:pos:R:3:forces:R:3 energy=-1.500955902122e+02 dipole="7.4207387669e-12 5.1930686250e-12 -3.6377227929e+00" quadrupole="-1.0606526660e+01 -1.1690886222e+00 1.0997177321e-09 -1.1690886222e+00 -9.7500358049e+00 -1.3975537829e-09 1.0997177321e-09 -1.3975537829e-09 -3.7567824931e+01" polarizability="1.8768173076e+01 2.6785429359e+00 -7.6007524773e-09 2.6785430105e+00 1.6805857935e+01 7.4135725284e-09 1.5746945672e-07 -7.2814821379e-08 1.9316048916e+02" dipole_derivatives="-5.0001319763e-01 -6.5668982102e-12 -1.2256378797e-06 -4.9797396477e-12 -5.0001319759e-01 -3.4672635214e-06 -7.9091021926e-09 1.2357222016e-08 -4.9924722054e-01 -5.0001319780e-01 4.1191978791e-11 1.2606755678e-06 -6.4000463547e-12 -5.0001319778e-01 3.4387202981e-06 7.8974823643e-09 -1.2359613766e-08 -4.9920584569e-01" charge=-1 multiplicity=2 method=b3lyp basis=def2-svpd config_type=o2_q-1_m2 sample_index=43 bond_length=3.850000 units=atomic
O         0.0000000000       0.0000000000       0.0000000000  -4.204238530469e-13  -8.575847745809e-13   9.160142140266e-05
O         0.0000000000       0.0000000000       3.8500000000   3.326607229503e-13   9.254194013854e-13  -9.160142163921e-05
2
Properties=species:S:1:pos:R:3:forces:R:3 energy=-1.500956214715e+02 dipole="6.6457339870e-12 3.2305177401e-12 -3.7794522507e+00" quadrupole="-1.0905478012e+01 -1.0068011130e+00 -1.1637955840e-09 -1.0068011130e+00 -9.4425966477e+00 2.5651963943e-09 -1.1637955840e-09 2.5651963943e-09 -3.9652533289e+01" polarizability="1.9445141468e+01 2.3035385440e+00 -3.1022025135e-09 2.3035386769e+00 1.6098048300e+01 -9.6595725195e-10 -1.2784980913e-07 -4.7774229061e-06 2.0439210239e+02" dipole_derivatives="-5.0000715548e-01 2.3469683450e-11 2.8562630866e-07 2.7055341610e-11 -5.0000715554e-01 2.1971227434e-07 2.4711612964e-10 -5.6859222192e-09 -4.9904092109e-01 -5.0000712469e-01 3.6898693514e-11 -2.8562308380e-07 1.7520112828e-11 -5.0000712462e-01 -2.2134502384e-07 -2.7131183584e-10 5.7097824732e-09 -4.9891400620e-01" charge=-1 multiplicity=2 method=b3lyp basis=def2-svpd config_type=o2_q-1_m2 sample_index=44 bond_length=4.000000 units=atomic
O         0.0000000000       0.0000000000       0.0000000000  -3.029187152897e-13  -3.740616912499e-12  -2.935649647142e-04
O         0.0000000000       0.0000000000       4.0000000000   2.598004285707e-13   3.769704755744e-12   2.935649656390e-04
2
Properties=species:S:1:pos:R:3:forces:R:3 energy=-1.500957509551e+02 dipole="-1.6232929066e-11 4.5172383729e-12 -3.9211817065e+00" quadrupole="-1.1246120844e+01 6.2372808882e-01 -7.6801280303e-12 6.2372808882e-01 -9.0933968088e+00 1.4504793843e-09 -7.6801280303e-12 1.4504793843e-09 -4.1819725420e+01" polarizability="2.0211261533e+01 -1.4249729540e+00 8.4324828353e-09 -1.4249735701e+00 1.5293061795e+01 -2.2644305342e-09 -2.0149842715e-08 3.6667196787e-06 2.1570583858e+02" dipole_derivatives="-4.9999766275e-01 -9.6008701155e-12 -2.4510820338e-07 -1.0774228144e-11 -4.9999766277e-01 2.2443623135e-06 -1.1800044449e-10 1.1840619631e-09 1.4891330209e-01 -4.9999765188e-01 -1.2520323650e-11 2.1712983376e-07 -3.0581579523e-11 -4.9999765187e-01 -2.2193512092e-06 6.5417506481e-11 -1.1616927038e-09 -1.1489364127e+00" charge=-1 multiplicity=2 method=b3lyp basis=def2-svpd config_type=o2_q-1_m2 sample_index=45 bond_length=4.150000 units=atomic
O         0.0000000000       0.0000000000       0.0000000000   2.874274689210e-14   1.195177557161e-13  -5.999888342552e-04
O         0.0000000000       0.0000000000       4.1500000000  -1.342972009583e-13  -1.410560823938e-13   5.999888342881e-04
2
Properties=species:S:1:pos:R:3:forces:R:3 energy=-1.500959568365e+02 dipole="4.4608866592e-12 7.9652382640e-12 -4.0629111702e+00" quadrupole="-9.4526095889e+00 -1.0190816411e+00 -2.0231896777e-09 -1.0190816411e+00 -1.0878633200e+01 1.3539016239e-09 -2.0231896777e-09 1.3539016239e-09 -4.4067964477e+01" polarizability="1.6102742357e+01 2.3243217797e+00 -4.6783084558e-09 2.3243217584e+00 1.9355349004e+01 -5.2727830204e-09 1.3328988073e-08 -2.6416185412e-09 2.2716449946e+02" dipole_derivatives="-4.9999495254e-01 -7.8199279140e-12 -9.4062585708e-07 3.1472132162e-11 -4.9999495251e-01 4.0991178307e-07 4.5183158430e-09 -5.0742376880e-09 -1.0458612842e+00 -4.9999495146e-01 3.8092472376e-12 9.5214927818e-07 5.5538057094e-12 -4.9999495143e-01 -4.0358090280e-07 -4.5145671056e-09 5.0705702657e-09 4.6662740960e-02" charge=-1 multiplicity=2 method=b3lyp basis=def2-svpd config_type=o2_q-1_m2 sample_index=46 bond_length=4.300000 units=atomic
O         0.0000000000       0.0000000000       0.0000000000   3.158301695737e-13   2.494642741139e-14  -8.328166080884e-04
O         0.0000000000       0.0000000000       4.3000000000  -4.335138101840e-13  -2.217086984984e-14   8.328166081788e-04
2
Properties=species:S:1:pos:R:3:forces:R:3 energy=-1.500972114413e+02 dipole="4.5120934637e-14 -3.4681513038e-14 -4.6298290086e+00" quadrupole="-9.0669998024e+00 6.0632670362e-01 4.8705804976e-11 6.0632670362e-01 -1.1238209717e+01 -2.2453501844e-10 4.8705804976e-11 -2.2453501844e-10 -5.3861273411e+01" polarizability="1.5250887600e+01 -1.3564102106e+00 -8.1208174655e-10 -1.3564112042e+00 2.0104316111e+01 3.0749521391e-09 -1.4020469418e-08 -3.8703791269e-08 2.7500268172e+02" dipole_derivatives="-4.9992219083e-01 -4.3902364401e-11 5.8668973382e-07 3.1838736264e-11 -4.9992218948e-01 -5.7283123100e-07 -1.0126045401e-08 6.0286281175e-09 -6.6883641649e-01 -4.9992218714e-01 5.2110919929e-12 -5.8858684129e-07 2.1396457766e-11 -4.9992218514e-01 5.8215649378e-07 1.0130625505e-08 -6.0280708376e-09 -3.3153168414e-01" charge=-1 multiplicity=2 method=b3lyp basis=def2-svpd config_type=o2_q-1_m2 sample_index=50 bond_length=4.900000 units=atomic
O         0.0000000000       0.0000000000       0.0000000000  -6.255404876976e-14   3.644538289112e-14  -1.272886956852e-03
O         0.0000000000       0.0000000000       4.9000000000  -4.066893694477e-14  -3.700049440344e-14   1.272886956599e-03
