2
Properties=species:S:1:pos:R:3:forces:R:3 energy=-1.493963649085e+02 dipole="5.1386891790e-10 6.3678264437e-10 -4.6204817750e-11" quadrupole="-6.3994233589e+00 -1.9560822629e-06 3.8842585585e-10 -1.9560822629e-06 -8.8761783537e+00 4.8129895588e-10 3.8842585585e-10 4.8129895588e-10 -9.4263876525e+00" polarizability="6.9511877450e+00 1.5525923399e-05 2.5328775257e-14 1.5685030642e-05 2.3448266934e+01 4.2924171222e-13 4.1791170151e-14 8.7485915523e-13 2.5442495762e+01" dipole_derivatives="1.7327074014e-03 3.9070185680e-11 -4.5739843818e-08 -1.0030006198e-12 1.7326604465e-03 1.9889640107e-07 2.1463881783e-06 -8.9101814815e-07 -3.4044767383e-03 1.7325883490e-03 3.2849714917e-11 4.5723350068e-08 1.0592606201e-11 1.7326348937e-03 -1.9903694810e-07 -2.1464237054e-06 8.9107898837e-07 3.2397218415e-03" charge=0 multiplicity=1 method=b3lyp basis=def2-svpd config_type=o2_q0_m1 sample_index=0 bond_length=0.800000 units=atomic
O         0.0000000000       0.0000000000       0.0000000000   1.924403927520e-14  -9.669699913804e-15  -3.278315698809e+00
O         0.0000000000       0.0000000000       0.8000000000   1.523879398079e-14  -3.653487671126e-14   3.278315698809e+00
2
Properties=species:S:1:pos:R:3:forces:R:3 energy=-1.498826280004e+02 dipole="-2.9448294776e-12 -2.9697801759e-12 4.3972292474e-10" quadrupole="-7.3947427006e+00 9.4450239351e-01 -2.4590666485e-12 9.4450239351e-01 -7.3946015905e+00 -2.5652664362e-12 -2.4590666485e-12 -2.5652664362e-12 -8.7561853796e+00" polarizability="9.5260366640e+00 -2.6827513345e+00 -4.0469284954e-13 -2.6827513346e+00 9.5256366403e+00 3.6973196514e-13 -4.4141848660e-13 4.5096829916e-13 1.5129461746e+01" dipole_derivatives="1.0602277528e-04 -7.5871048679e-05 2.9116703966e-12 7.5874343055e-05 1.0601934294e-04 -2.1340705508e-11 8.1906560992e+00 -8.1906555213e+00 2.8743727509e-05 1.0602707604e-04 -7.5869631116e-05 2.4156954722e-11 7.5879320050e-05 1.0601845247e-04 -9.7871725452e-12 -8.1906560992e+00 8.1906555212e+00 2.9692505121e-05" charge=0 multiplicity=1 method=b3lyp basis=def2-svpd config_type=o2_q0_m1 sample_index=2 bond_length=0.900000 units=atomic
O         0.0000000000       0.0000000000       0.0000000000   3.939674235311e-15   1.868952798096e-14  -1.615637554749e+00
O         0.0000000000       0.0000000000       0.9000000000  -1.277635562158e-14  -7.794814030729e-15   1.615637554749e+00
2
Properties=species:S:1:pos:R:3:forces:R:3 energy=-1.500092756138e+02 dipole="6.0413025873e-14 7.4968695105e-14 -2.3856472353e-12" quadrupole="-7.2688457151e+00 -5.3973492342e-13 5.0357084696e-14 -5.3973492342e-13 -7.2688457148e+00 5.4088065167e-14 5.0357084696e-14 5.4088065167e-14 -8.3944185204e+00" polarizability="7.9815798821e+00 1.4845902285e-12 -1.6830932786e-13 1.4768186674e-12 7.9815798818e+00 8.7812749083e-14 -1.8446227840e-12 4.9384446955e-13 1.2458297589e+01" dipole_derivatives="1.4642066069e-05 -2.9921227700e-11 1.2870656405e-11 -1.4007739253e-11 1.4642108970e-05 -2.3545533051e-11 -6.3774208137e-08 -8.0592865714e-08 -5.7451367069e+00 1.4640328664e-05 4.0042254981e-11 1.9036112489e-11 -4.6410802151e-12 1.4640254004e-05 -1.7933168932e-11 6.3825056351e-08 8.0634499078e-08 5.7451181866e+00" charge=0 multiplicity=1 method=b3lyp basis=def2-svpd config_type=o2_q0_m1 sample_index=3 bond_length=0.950000 units=atomic
O         0.0000000000       0.0000000000       0.0000000000   3.475288729768e-14   4.174011215460e-15  -1.092697498136e+00
O         0.0000000000       0.0000000000       0.9500000000  -4.921701164053e-14   1.401022762139e-14   1.092697498136e+00
2
Properties=species:S:1:pos:R:3:forces:R:3 energy=-1.500496131214e+02 dipole="-1.8898712810e-13 -1.6990219437e-13 -4.4959591605e-12" quadrupole="-7.4035292087e+00 8.0972457964e-01 -1.5752091886e-13 8.0972457964e-01 -7.4035299074e+00 -1.6459525405e-13 -1.5752091886e-13 -1.6459525405e-13 -8.4428489058e+00" polarizability="8.2138122158e+00 -1.1612033902e+00 -7.0556117177e-15 -1.1612033902e+00 8.2138132979e+00 -2.9336053026e-14 2.6993218937e-12 -1.7399447161e-12 1.2839570124e+01" dipole_derivatives="4.3924112495e-06 9.7268705390e-13 1.4017912678e-11 -1.9974629985e-11 4.3924570291e-06 -2.8281583980e-11 -2.1466367572e-07 -3.9880659886e-07 3.9450838203e+00 4.3906216288e-06 1.5666780528e-11 -1.5197524642e-11 1.5388888476e-11 4.3905834118e-06 -4.5606345486e-12 2.1466689537e-07 3.9875336366e-07 -3.9450954103e+00" charge=0 multiplicity=1 method=b3lyp basis=def2-svpd config_type=o2_q0_m1 sample_index=4 bond_length=1.000000 units=atomic
O         0.0000000000       0.0000000000       0.0000000000  -1.140410430425e-13  -1.730728639256e-14  -7.048873891676e-01
O         0.0000000000       0.0000000000       1.0000000000  -2.152065771106e-14   3.743483534032e-15   7.048873891680e-01
2
Properties=species:S:1:pos:R:3:forces:R:3 energy=-1.501472837069e+02 dipole="1.6256851458e-14 -3.2717520578e-15 -8.3537781137e-09" quadrupole="-7.3735154014e+00 3.9708617147e-09 2.7661852054e-14 3.9708617147e-09 -7.3735154014e+00 -5.9767581810e-15 2.7661852054e-14 -5.9767581810e-15 -8.2084617791e+00" polarizability="7.7454974167e+00 -5.2519393059e-09 -1.5300055338e-14 -5.2519392859e-09 7.7454974167e+00 -3.7842755349e-14 4.8992240777e-13 -1.6403332101e-12 1.2597838023e+01" dipole_derivatives="1.1605863681e-06 -6.4050003252e-12 -1.1106332812e-11 1.5783795995e-11 1.1611456087e-06 -1.2432872296e-11 8.4556195379e-08 2.8844093780e-08 -6.6173475033e-06 1.1693465913e-06 3.4202209304e-11 -7.0943858981e-12 -1.6895753743e-11 1.1687085994e-06 1.0177081256e-11 -8.4572571168e-08 -2.8851476763e-08 -2.6208656356e-06" charge=0 multiplicity=1 method=b3lyp basis=def2-svpd config_type=o2_q0_m1 sample_index=5 bond_length=1.050000 units=atomic
O         0.0000000000       0.0000000000       0.0000000000  -1.887757308494e-14  -1.840021034832e-14  -4.383898385006e-01
O         0.0000000000       0.0000000000       1.0500000000  -4.658395200446e-14   2.010370880182e-14   4.383898385004e-01
2
Properties=species:S:1:pos:R:3:forces:R:3 energy=-1.501165875879e+02 dipole="1.3590483939e-14 1.0859729994e-14 -4.5474735089e-13" quadrupole="-7.9152723164e+00 6.8395484211e-01 2.3614196816e-14 6.8395484211e-01 -7.7996652640e+00 3.1170238945e-14 2.3614196816e-14 3.1170238945e-14 -7.7089167444e+00" polarizability="8.8119534427e+00 -1.3818296428e-01 8.1306717272e-14 -1.3818291339e-01 8.7885971022e+00 1.2844460369e-14 4.2211019560e-09 3.0358950009e-09 1.7977049980e+01" dipole_derivatives="7.1494928781e-08 -6.9434894294e-07 -2.0828617112e-11 6.5613759148e-07 4.8959327187e-08 4.9385257332e-12 6.9833667094e-01 -6.9844013814e-01 6.9805639175e-01 7.1524765083e-08 -6.9424615940e-07 1.7327810880e-12 6.5613983280e-07 5.0985799871e-08 -8.5872997245e-12 -6.9833667093e-01 6.9844013815e-01 -6.9805155861e-01" charge=0 multiplicity=1 method=b3lyp basis=def2-svpd config_type=o2_q0_m1 sample_index=12 bond_length=1.400000 units=atomic
O         0.0000000000       0.0000000000       0.0000000000  -6.721451506585e-14  -2.947685250528e-14   1.592317151332e-01
O         0.0000000000       0.0000000000       1.4000000000  -1.331828758291e-14  -5.264929365615e-14  -1.592317151334e-01
2
Properties=species:S:1:pos:R:3:forces:R:3 energy=-1.501459448959e+02 dipole="1.7874059574e-14 3.6844479910e-15 -2.2311041903e-12" quadrupole="-8.0187326554e+00 -6.7537571802e-01 4.5962004561e-14 -6.7537571802e-01 -7.7923221026e+00 1.0715901795e-14 4.5962004561e-14 1.0715901795e-14 -7.6238163773e+00" polarizability="8.9792457089e+00 1.1156277154e-01 -2.8911140191e-15 1.1156266687e-01 8.9418464853e+00 -3.0360112792e-14 4.7192773890e-09 -6.4234968821e-10 1.9007744097e+01" dipole_derivatives="1.6994494536e-06 -4.3639581726e-07 -6.0824670687e-12 -1.0520011590e-12 1.4327049581e-06 1.9901906416e-12 5.8540769454e-08 -8.0548738688e-01 5.5784102060e-06 1.6992014064e-06 -4.3642215565e-07 -3.6493316315e-12 -4.9568980026e-12 1.4327790237e-06 -9.6064940629e-12 -5.8498511590e-08 8.0548738689e-01 9.3335211782e-07" charge=0 multiplicity=1 method=b3lyp basis=def2-svpd config_type=o2_q0_m1 sample_index=13 bond_length=1.450000 units=atomic
O         0.0000000000       0.0000000000       0.0000000000  -3.074462216049e-14  -6.670945589401e-15   1.725066595028e-01
O         0.0000000000       0.0000000000       1.4500000000   1.926075274952e-14   1.492796013643e-15  -1.725066595027e-01
2
Properties=species:S:1:pos:R:3:forces:R:3 energy=-1.501293139793e+02 dipole="5.8677822737e-14 -7.0007257954e-15 -1.3730527826e-10" quadrupole="-7.9259768671e+00 6.1697869036e-12 -1.2025851931e-13 6.1697869036e-12 -7.9259768671e+00 5.0389645358e-14 -1.2025851931e-13 5.0389645358e-14 -7.4708432216e+00" polarizability="9.1597275745e+00 2.4472091020e-12 4.8943867627e-15 2.4474311466e-12 9.1597275745e+00 -6.2602147785e-14 -2.4419735436e-07 2.5532379734e-08 2.1556563357e+01" dipole_derivatives="2.6132874011e-06 2.2453566366e-07 -4.2415062026e-12 -4.4907588157e-07 2.7399349520e-06 1.1440963499e-11 3.7269781705e-07 8.7959583107e-01 5.5992048165e-05 2.6134974875e-06 2.2446394295e-07 -1.0347518230e-11 -4.4902108084e-07 2.7400116302e-06 -9.7489575887e-12 -3.7269151654e-07 -8.7959583109e-01 -5.6071330093e-05" charge=0 multiplicity=1 method=b3lyp basis=def2-svpd config_type=o2_q0_m1 sample_index=14 bond_length=1.500000 units=atomic
O         0.0000000000       0.0000000000       0.0000000000  -4.148393150349e-14   2.839844586907e-14   1.787262074480e-01
O         0.0000000000       0.0000000000       1.5000000000   1.987747402448e-15   1.757866513821e-14  -1.787262074479e-01
2
Properties=species:S:1:pos:R:3:forces:R:3 energy=-1.500676279092e+02 dipole="-3.5863784902e-15 3.5707471649e-15 2.2026824809e-13" quadrupole="-7.9668052013e+00 -3.0713931398e-11 -1.9657014049e-14 -3.0713931398e-11 -7.9668051994e+00 1.0185968897e-14 -1.9657014049e-14 1.0185968897e-14 -7.3941737056e+00" polarizability="9.3196023025e+00 -4.2382652943e-11 1.4105150348e-14 -4.2385095433e-11 9.3196023050e+00 -5.1589648094e-14 -1.2644415429e-08 -5.1044080269e-08 2.2808935232e+01" dipole_derivatives="3.1373763026e-06 -8.1439036633e-08 3.7170305925e-11 -8.1427414090e-08 3.1373617707e-06 -2.1052906461e-11 9.2981095357e-01 9.2981089678e-01 9.2934209769e-01 3.1373465974e-06 -8.1456032756e-08 -1.1163331573e-11 -8.1442689163e-08 3.1373373850e-06 8.5073862828e-12 -9.2981095354e-01 -9.2981089677e-01 -9.2933469269e-01" charge=0 multiplicity=1 method=b3lyp basis=def2-svpd config_type=o2_q0_m1 sample_index=15 bond_length=1.550000 units=atomic
O         0.0000000000       0.0000000000       0.0000000000   8.156047690421e-15   1.434035363063e-14   1.789180287451e-01
O         0.0000000000       0.0000000000       1.5500000000  -2.100687920044e-14   1.119477593577e-14  -1.789180287455e-01
2
Properties=species:S:1:pos:R:3:forces:R:3 energy=-1.500507545797e+02 dipole="-3.9127076766e-15 2.0706983203e-14 -1.4527046233e-11" quadrupole="-7.9951315322e+00 -6.8488403050e-01 -1.0333641798e-14 -6.8488403050e-01 -8.0481732571e+00 3.0949445969e-14 -1.0333641798e-14 3.0949445969e-14 -7.3897142710e+00" polarizability="9.3967657422e+00 6.7087601672e-02 3.1210984865e-14 6.7087624522e-02 9.4019611551e+00 1.4541357952e-14 -6.3689374895e-09 2.2152342098e-08 2.2213491792e+01" dipole_derivatives="2.6630975857e-06 -3.6419923974e-07 -2.8930384272e-11 -3.6418691681e-07 2.6631037658e-06 -3.2525609931e-11 9.6270125034e-01 9.6270157404e-01 -9.6216233095e-01 2.6631608528e-06 -3.6421655989e-07 5.2460173500e-11 -3.6419485285e-07 2.6631531662e-06 -1.6271727767e-11 -9.6270125034e-01 -9.6270157406e-01 9.6217207564e-01" charge=0 multiplicity=1 method=b3lyp basis=def2-svpd config_type=o2_q0_m1 sample_index=16 bond_length=1.600000 units=atomic
O         0.0000000000       0.0000000000       0.0000000000  -2.226768365379e-14   7.983322724557e-14   1.778013403958e-01
O         0.0000000000       0.0000000000       1.6000000000  -1.194453273942e-14   1.086201920633e-14  -1.778013403965e-01
2
Properties=species:S:1:pos:R:3:forces:R:3 energy=-1.500340994814e+02 dipole="1.6064145954e-09 -1.7606884315e-09 -4.5591193043e-09" quadrupole="-8.1163142161e+00 -6.8379735551e-01 2.5044692221e-09 -6.8379735551e-01 -7.9870980551e+00 -2.7449390575e-09 2.5044692221e-09 -2.7449390575e-09 -7.3201115513e+00" polarizability="9.5348022959e+00 5.8965066571e-02 -4.9218418352e-14 5.8965108090e-02 9.5235951415e+00 -1.0990923908e-13 -1.1599023563e-06 8.0642502810e-07 2.3307821358e+01" dipole_derivatives="1.2796397977e-06 -5.7042227114e-07 2.9392722368e-11 2.0148928186e-11 1.4204545458e-06 4.6666957258e-11 -3.6488728705e-08 -9.8287286871e-01 3.9676215230e-06 1.2797229480e-06 -5.7039678510e-07 -7.2264257919e-12 3.2806541684e-11 1.4205022073e-06 2.2519886496e-11 3.6497985190e-08 9.8287286865e-01 -1.4538707183e-06" charge=0 multiplicity=1 method=b3lyp basis=def2-svpd config_type=o2_q0_m1 sample_index=17 bond_length=1.650000 units=atomic
O         0.0000000000       0.0000000000       0.0000000000  -2.341088069805e-15   3.593131434877e-14   1.744078746640e-01
O         0.0000000000       0.0000000000       1.6500000000   4.194135557936e-14   1.867517858971e-14  -1.744078746641e-01
2
Properties=species:S:1:pos:R:3:forces:R:3 energy=-1.500178471126e+02 dipole="1.3013055418e-14 -1.8992352713e-14 2.5487523203e-10" quadrupole="-8.1610595018e+00 6.8369865012e-01 1.5378823103e-14 6.8369865012e-01 -7.9949828651e+00 -2.0677422302e-14 1.5378823103e-14 -2.0677422302e-14 -7.2549756280e+00" polarizability="9.6575578598e+00 -5.3749941314e-02 -5.0454356122e-14 -5.3750185422e-02 9.6445024639e+00 -1.1103856736e-14 2.4096446414e-06 1.7478107625e-06 2.4412203106e+01" dipole_derivatives="-1.4745269272e-07 6.9909222139e-07 -1.1692595464e-12 -6.9911698904e-07 -1.4746477709e-07 5.5660186608e-12 -9.9339906912e-01 9.9339918245e-01 -9.9244725341e-01 -1.4746629328e-07 6.9914450052e-07 6.0746602605e-11 -6.9915773055e-07 -1.4748673529e-07 -2.1275674459e-11 9.9339906913e-01 -9.9339918250e-01 9.9245795087e-01" charge=0 multiplicity=1 method=b3lyp basis=def2-svpd config_type=o2_q0_m1 sample_index=18 bond_length=1.700000 units=atomic
O         0.0000000000       0.0000000000       0.0000000000  -5.385965575705e-14  -3.899360084629e-14   1.693648771899e-01
O         0.0000000000       0.0000000000       1.7000000000  -5.818960300325e-14  -4.960219651879e-14  -1.693648771902e-01
2
Properties=species:S:1:pos:R:3:forces:R:3 energy=-1.499870320860e+02 dipole="-3.8911497030e-15 1.7170883252e-15 -2.2936319510e-11" quadrupole="-8.1077187824e+00 2.9698465909e-14 1.0485997397e-10 2.9698465909e-14 -8.1077187824e+00 1.7450834027e-09 1.0485997397e-10 1.7450834027e-09 -7.0729451638e+00" polarizability="9.9753897978e+00 6.9533268032e-13 -3.6141711521e-11 6.9633188104e-13 9.9753897978e+00 -6.0384977597e-10 -1.4410656717e-09 -7.2057545865e-10 2.9748977425e+01" dipole_derivatives="-2.9383782081e-06 -1.1738040336e-06 -1.7462942947e-07 -5.8692926867e-07 -2.4460754898e-06 1.4377927628e-07 9.9276341502e-01 2.5776158985e-08 2.3338675437e-07 -2.9383406308e-06 -1.1738642984e-06 1.7466541457e-07 -5.8694184426e-07 -2.4461126291e-06 -1.4375446280e-07 -9.9276341502e-01 -2.5739285703e-08 4.4767371477e-06" charge=0 multiplicity=1 method=b3lyp basis=def2-svpd config_type=o2_q0_m1 sample_index=20 bond_length=1.800000 units=atomic
O         0.0000000000       0.0000000000       0.0000000000  -1.111621083440e-14   3.178193703020e-14   1.562497758027e-01
O         0.0000000000       0.0000000000       1.8000000000   4.253552243129e-14   2.817010629956e-14  -1.562497758023e-01
2
Properties=species:S:1:pos:R:3:forces:R:3 energy=-1.499726122364e+02 dipole="-1.6413057593e-14 1.1089224764e-14 8.1818996023e-11" quadrupole="-8.1261211015e+00 -1.0363820913e-11 -3.6544048663e-15 -1.0363820913e-11 -8.1261210982e+00 7.6205359058e-14 -3.6544048663e-15 7.6205359058e-14 -7.0215181263e+00" polarizability="1.0081764576e+01 -1.7874590696e-13 -2.5376520602e-14 -1.7774670624e-13 1.0081764576e+01 -4.8816033049e-14 -6.9936710440e-10 2.6606862852e-10 3.1422874741e+01" dipole_derivatives="-4.2390830161e-06 2.6205437328e-11 1.1903926270e-11 1.7572635002e-11 -4.2390902024e-06 2.4559836376e-11 3.7783734474e-08 1.2254156023e-08 9.8208589158e-01 -4.2388316438e-06 6.7404309282e-12 -2.1840422340e-11 1.4124232351e-11 -4.2388166490e-06 -5.1205188967e-11 -3.7735162217e-08 -1.2263134952e-08 -9.8208313262e-01" charge=0 multiplicity=1 method=b3lyp basis=def2-svpd config_type=o2_q0_m1 sample_index=21 bond_length=1.850000 units=atomic
O         0.0000000000       0.0000000000       0.0000000000  -7.297066381878e-14   1.651663599697e-14   1.488984074636e-01
O         0.0000000000       0.0000000000       1.8500000000   3.887036111477e-15   4.365745193772e-14  -1.488984074640e-01
2
Properties=species:S:1:pos:R:3:forces:R:3 energy=-1.499588972374e+02 dipole="-1.1430357198e-14 1.1522111447e-14 8.7527851633e-10" quadrupole="-8.1421656091e+00 -4.3355324164e-08 -5.9483927272e-14 -4.3355324164e-08 -8.1421655760e+00 7.8682018149e-14 -5.9483927272e-14 7.8682018149e-14 -6.9742199018e+00" polarizability="1.0181380726e+01 -1.2280474110e-08 -4.3368538087e-14 -1.2280385764e-08 1.0181380748e+01 3.9121008296e-14 -1.5270981037e-10 1.0038563419e-10 3.3340612536e+01" dipole_derivatives="-4.0263936330e-06 -1.5271878732e-08 3.6532347611e-08 -7.6232914278e-09 -3.4854743336e-06 -2.5240153049e-08 9.6990178284e-01 -2.3147661565e-07 3.0719602903e-05 -4.0259143322e-06 -1.5314874105e-08 -3.6513557086e-08 -7.6195148417e-09 -3.4851881623e-06 2.5273515251e-08 -9.6990178287e-01 2.3149918094e-07 -7.1726003137e-05" charge=0 multiplicity=1 method=b3lyp basis=def2-svpd config_type=o2_q0_m1 sample_index=22 bond_length=1.900000 units=atomic
O         0.0000000000       0.0000000000       0.0000000000   3.520145527982e-14   1.578619587327e-14   1.413623185288e-01
O         0.0000000000       0.0000000000       1.9000000000   8.231218242980e-14   6.137430433817e-14  -1.413623185291e-01
2
Properties=species:S:1:pos:R:3:forces:R:3 energy=-1.499890905458e+02 dipole="1.8503365269e-14 -3.1724979456e-14 -2.3561760543e-08" quadrupole="-8.1561671400e+00 -2.9927030853e-09 -2.7022866481e-13 -2.9927030853e-09 -8.1561671371e+00 -5.2482987815e-13 -2.7022866481e-13 -5.2482987815e-13 -6.9309448279e+00" polarizability="1.0274765462e+01 1.5713994550e-09 1.6135337845e-13 1.5721093316e-09 1.0274765461e+01 1.4275090305e-13 -5.8807557225e-11 -2.0254824373e-11 3.5725307258e+01" dipole_derivatives="-4.5842569289e-06 4.3483018509e-07 1.6754063112e-09 2.2276890068e-11 -4.0883866711e-06 -1.6847325861e-09 2.8629390525e-08 9.5178583016e-01 3.3777442648e-05 -4.5943210932e-06 4.3483994246e-07 -1.6141358780e-09 -6.2754108788e-13 -4.0933631555e-06 1.6912829020e-09 -2.8633928562e-08 -9.5178583015e-01 -5.4374227232e-05" charge=0 multiplicity=1 method=b3lyp basis=def2-svpd config_type=o2_q0_m1 sample_index=23 bond_length=1.950000 units=atomic
O         0.0000000000       0.0000000000       0.0000000000  -3.598969567991e-14  -8.194449720567e-15   1.357207084808e-01
O         0.0000000000       0.0000000000       1.9500000000   2.097392927186e-14  -1.878396977782e-14  -1.357207084807e-01
2
Properties=species:S:1:pos:R:3:forces:R:3 energy=-1.499766199339e+02 dipole="1.9448106385e-14 -1.5599286986e-14 5.9716285250e-09" quadrupole="-8.1344263372e+00 7.0406670303e-01 2.7206808238e-14 7.0406670303e-01 -8.2238236044e+00 -5.0275135446e-14 2.7206808238e-14 -5.0275135446e-14 -6.9545429399e+00" polarizability="1.0240734742e+01 -6.5021915147e-02 -1.1856188445e-14 -6.5021922325e-02 1.0248990617e+01 2.9948415495e-14 1.2423608622e-10 -2.0601893280e-10 3.1243860606e+01" dipole_derivatives="-4.3711689628e-06 2.5204955862e-13 -2.9178739140e-12 9.2169874577e-12 -4.3714102480e-06 -1.9157749419e-11 7.5190464965e-08 2.0662499489e-08 -1.8186968723e-05 -4.3783896312e-06 -2.6786379847e-11 2.5642751449e-11 -2.2780935538e-12 -4.3781715597e-06 -7.3210697180e-12 -7.5195794036e-08 -2.0673504575e-08 -1.7430824187e-05" charge=0 multiplicity=1 method=b3lyp basis=def2-svpd config_type=o2_q0_m1 sample_index=24 bond_length=2.000000 units=atomic
O         0.0000000000       0.0000000000       0.0000000000  -2.499892240745e-15  -1.015727783418e-14   1.282458254755e-01
O         0.0000000000       0.0000000000       2.0000000000   1.406008948465e-14   3.097395954590e-14  -1.282458254750e-01
2
Properties=species:S:1:pos:R:3:forces:R:3 energy=-1.499220041972e+02 dipole="9.7149875196e-11 -5.2477065107e-11 5.5970069468e-08" quadrupole="-8.1790945932e+00 5.8991700413e-13 8.8813488006e-09 5.8991700413e-13 -8.1790945932e+00 3.1683539030e-08 8.8813488006e-09 3.1683539030e-08 -6.8559998283e+00" polarizability="1.0444538663e+01 1.8707257965e-13 1.2296784445e-08 1.8951507030e-13 1.0444538663e+01 4.6897439801e-08 -3.1593990097e-09 -1.1071256436e-08 4.6571718730e+01" dipole_derivatives="-4.2368447011e-06 -2.4104637558e-11 -8.9788233776e-08 -3.4344943903e-11 -4.2368197856e-06 -6.0841916164e-07 3.4321205600e-08 4.8815826381e-08 2.1703237489e+01 -4.2043058733e-06 3.9957230241e-12 8.9518546725e-08 2.7961161511e-11 -4.2042851826e-06 6.0831774277e-07 -3.4291063045e-08 -4.8817977438e-08 -2.1703393276e+01" charge=0 multiplicity=1 method=b3lyp basis=def2-svpd config_type=o2_q0_m1 sample_index=25 bond_length=2.050000 units=atomic
O         0.0000000000       0.0000000000       0.0000000000   1.469444914850e-14   2.861576920786e-15   1.191533042224e-01
O         0.0000000000       0.0000000000       2.0500000000   3.817992239928e-14  -1.762754314830e-14  -1.191533042222e-01
2
Properties=species:S:1:pos:R:3:forces:R:3 energy=-1.499110772468e+02 dipole="2.0308827893e-14 2.6424773874e-14 -2.0499548725e-09" quadrupole="-8.1884566800e+00 5.7716054158e-11 -9.1229002523e-13 5.7716054158e-11 -8.1884566758e+00 -1.8870214673e-12 -9.1229002523e-13 -1.8870214673e-12 -6.8240791831e+00" polarizability="1.0521628892e+01 -4.2554848534e-13 -1.0128908799e-11 -4.2632564146e-13 1.0521628893e+01 -2.1468589017e-11 6.6028295525e-12 3.4848509127e-12 1.2353605223e+02" dipole_derivatives="-3.5493824192e-06 -1.5592064549e-06 3.6962051952e-09 3.1185203351e-06 -3.7787478338e-06 4.2143848415e-09 -2.0397090961e-07 8.7739453060e-01 -2.7502989400e-04 -3.5491415734e-06 -1.5592086120e-06 -3.6873650443e-09 3.1182855135e-06 -3.7708934018e-06 -4.1927354926e-09 2.0401186296e-07 -8.7739453061e-01 -3.3060396853e-04" charge=0 multiplicity=1 method=b3lyp basis=def2-svpd config_type=o2_q0_m1 sample_index=26 bond_length=2.100000 units=atomic
O         0.0000000000       0.0000000000       0.0000000000   6.686569628081e-15  -2.407571642801e-15   1.121719028992e-01
O         0.0000000000       0.0000000000       2.1000000000   1.610075795235e-14   1.075304013251e-15  -1.121719028996e-01
2
Properties=species:S:1:pos:R:3:forces:R:3 energy=-1.498991425632e+02 dipole="1.6058406165e-11 3.1328948337e-11 -1.0729195310e-11" quadrupole="-7.5061264309e+00 -7.9984220017e-01 -1.2385174273e-10 -7.9984220017e-01 -8.6557620948e+00 -2.4152078668e-10 -1.2385174273e-10 -2.4152078668e-10 -7.0190056324e+00" polarizability="1.0082276556e+01 8.6688145910e-01 4.7693817160e-10 8.6688144707e-01 1.1328276709e+01 9.3026472696e-10 6.5203260795e-10 1.3767140287e-09 1.2883988628e+01" dipole_derivatives="1.1502673180e-02 -3.1130082390e-12 1.5835354706e-03 -3.8467425105e-11 4.7788169799e-07 5.6290962860e-04 8.2917256962e+00 -2.7847461750e-09 1.3774690696e-03 -1.1491339912e-02 -1.5358327333e-11 -9.1983160229e-04 3.5081244879e-11 4.7787289888e-07 -7.4751180378e-04 -8.2947435265e+00 2.7892976557e-09 1.2197483358e-03" charge=0 multiplicity=1 method=b3lyp basis=def2-svpd config_type=o2_q0_m1 sample_index=36 bond_length=2.800000 units=atomic
O         0.0000000000       0.0000000000       0.0000000000   2.037475273378e-11  -1.827736397512e-11   1.142886382186e-02
O         0.0000000000       0.0000000000       2.8000000000  -2.032859521153e-11   1.831322417881e-11  -1.142390398495e-02
2
Properties=species:S:1:pos:R:3:forces:R:3 energy=-1.500187750569e+02 dipole="1.3897742071e-12 2.0335626781e-12 2.6042965779e-01" quadrupole="-8.1389918392e+00 1.0500489367e-10 -1.6422470975e-10 1.0500489367e-10 -8.1389918390e+00 -4.2152009500e-10 -1.6422470975e-10 -4.2152009500e-10 -5.6655624544e+00" polarizability="1.0831829114e+01 -2.9850058536e-10 -2.2521462091e-08 -2.8238709981e-10 1.0831829115e+01 -4.9815498352e-08 9.2467458691e-08 2.0005133793e-07 3.2582694068e+01" dipole_derivatives="-2.6050616883e-02 -1.3688202474e-11 -5.5109362210e-04 -2.6990191908e-11 -1.3031226303e-02 2.1984236518e-04 -3.2010471717e-06 2.7642272965e+00 3.8735753448e-03 2.6044710021e-02 -9.0644306372e-12 4.5507359276e-04 7.5404722949e-12 1.3026755124e-02 4.2582626810e-04 3.2013053697e-06 -2.7604392149e+00 -3.8705800202e-03" charge=0 multiplicity=1 method=b3lyp basis=def2-svpd config_type=o2_q0_m1 sample_index=38 bond_length=3.100000 units=atomic
O         0.0000000000       0.0000000000       0.0000000000  -1.611455791097e-13   9.231188871213e-14   5.726874392771e-04
O         0.0000000000       0.0000000000       3.1000000000   1.433264995645e-13  -9.353313403922e-14  -5.726874401269e-04
2
Properties=species:S:1:pos:R:3:forces:R:3 energy=-1.498932797036e+02 dipole="3.1656602843e-08 1.1929047449e-08 5.4875215483e-11" quadrupole="-8.8349477117e+00 -6.5362840706e-01 1.0596137219e-07 -6.5362840706e-01 -7.3461176342e+00 3.9995494268e-08 1.0596137219e-07 3.9995494268e-08 -7.0440812243e+00" polarizability="1.1798210889e+01 7.7276350985e-01 -1.3763933890e-08 7.7276354345e-01 1.0037828001e+01 -5.7119316957e-09 1.6330412264e-08 5.8223281890e-09 1.1151938087e+01" dipole_derivatives="-1.0160053934e-06 -1.0403260470e-12 -1.4520580896e-04 1.4715113594e-11 -1.0160116160e-06 -4.0292479614e-04 6.7142279692e-10 -8.6887224846e-10 -1.8822592510e-02 -1.0159914729e-06 3.1710237102e-11 1.0313448052e-04 1.2165868091e-12 -1.0160015997e-06 3.4815369446e-04 -6.3774072828e-10 8.6068343208e-10 1.6360593146e-02" charge=0 multiplicity=1 method=b3lyp basis=def2-svpd config_type=o2_q0_m1 sample_index=39 bond_length=3.250000 units=atomic
O         0.0000000000       0.0000000000       0.0000000000  -3.658451290401e-13  -3.447138404133e-13   3.814485860180e-03
O         0.0000000000       0.0000000000       3.2500000000   2.760558419236e-13   3.939522315554e-13  -3.819017695700e-03
2
Properties=species:S:1:pos:R:3:forces:R:3 energy=-1.498923676250e+02 dipole="1.4775628943e-11 2.3804200825e-12 -1.3307044355e-10" quadrupole="-9.0334005239e+00 -3.1235836049e-01 -1.7923515385e-08 -3.1235836049e-01 -7.1512117141e+00 -2.8971171508e-09 -1.7923515385e-08 -2.8971171508e-09 -7.0515522862e+00" polarizability="1.2145619494e+01 3.8392309899e-01 3.2273752932e-08 3.8392284651e-01 9.8332338851e+00 5.2121441949e-09 3.0461007382e-08 6.3101614098e-09 1.0869611011e+01" dipole_derivatives="1.3316859135e-06 -1.8603101759e-11 -7.6565365394e-05 -5.8287599217e-12 8.8698437928e-03 7.9256499593e-05 -6.7899171617e-04 -1.1227683042e+00 -4.6090620254e+00 5.0533116116e-07 1.0026628894e-11 3.1403141212e-05 -5.2607135090e-11 -8.8761012704e-03 5.3364213157e-05 -6.8040242005e-04 1.1234480013e+00 4.6091505033e+00" charge=0 multiplicity=1 method=b3lyp basis=def2-svpd config_type=o2_q0_m1 sample_index=40 bond_length=3.400000 units=atomic
O         0.0000000000       0.0000000000       0.0000000000  -6.035637672820e-14   8.960802575141e-13   2.677155274177e-03
O         0.0000000000       0.0000000000       3.4000000000  -1.280732059463e-14  -8.835347373358e-13  -2.677002626796e-03
2
Properties=species:S:1:pos:R:3:forces:R:3 energy=-1.500185269498e+02 dipole="4.2828443743e-13 -1.2165047596e-13 4.7322146202e-11" quadrupole="-8.8814693135e+00 6.0323340627e-01 -2.4821332894e-09 6.0323340627e-01 -7.3058235722e+00 8.4111566790e-10 -2.4821332894e-09 8.4111566790e-10 -7.0582850932e+00" polarizability="1.2082320199e+01 -7.7637435052e-01 3.8140815790e-09 -7.7637446350e-01 1.0054529450e+01 -1.2917925203e-09 5.8862062822e-09 -1.9079959431e-09 1.0663988286e+01" dipole_derivatives="6.4230107175e-03 3.9241496291e-11 -1.6081108566e-06 1.2833156229e-11 1.2852691885e-02 -1.7562651362e-07 -7.5344216099e-01 1.3197503626e-07 -3.7295861465e-04 -6.4821109635e-03 -4.5375478503e-11 1.5751798931e-06 -2.5434187559e-11 -1.2953553479e-02 2.0058510437e-07 7.5888172452e-01 -1.3041225239e-07 -7.4647904190e-05" charge=0 multiplicity=1 method=b3lyp basis=def2-svpd config_type=o2_q0_m1 sample_index=41 bond_length=3.550000 units=atomic
O         0.0000000000       0.0000000000       0.0000000000  -1.404324928260e-13   5.089626995083e-14   1.214607045221e-04
O         0.0000000000       0.0000000000       3.5500000000   1.271098165305e-13  -4.656640015479e-14  -1.214607051111e-04
2
Properties=species:S:1:pos:R:3:forces:R:3 energy=-1.498909725604e+02 dipole="2.5312702596e-12 1.6803499359e-12 5.4100723901e-11" quadrupole="-8.4743381580e+00 -9.1791883798e-01 4.3795223627e-10 -9.1791883798e-01 -7.7165071794e+00 2.9297000470e-10 4.3795223627e-10 2.9297000470e-10 -7.0694065521e+00" polarizability="1.1634023285e+01 1.2126372414e+00 -5.7119209893e-10 1.2126373075e+00 1.0634626924e+01 -3.8185389862e-10 -8.2930546507e-10 -5.4866770623e-10 1.0404382228e+01" dipole_derivatives="-1.9947178143e-06 -1.6475636836e-11 -3.3850089241e-06 -4.9504282083e-11 3.0909961536e-03 9.6905486597e-07 1.0694658321e-11 -3.5189993845e-01 1.1495897921e-02 -1.9947272198e-06 1.7565081421e-12 3.4356092952e-06 -1.5554787160e-11 -3.1318426423e-03 -1.0002333147e-06 -2.2581244464e-11 3.5294215559e-01 -1.1362854056e-02" charge=0 multiplicity=1 method=b3lyp basis=def2-svpd config_type=o2_q0_m1 sample_index=43 bond_length=3.850000 units=atomic
O         0.0000000000       0.0000000000       0.0000000000  -8.297810697409e-14  -1.562393176414e-14   9.022651516776e-04
O         0.0000000000       0.0000000000       3.8500000000  -2.107754600891e-14  -1.046630931455e-14  -9.007437043252e-04
2
Properties=species:S:1:pos:R:3:forces:R:3 energy=-1.498907596167e+02 dipole="2.0602994614e-11 -1.6703762224e-11 -4.5219824816e-02" quadrupole="-8.1238111147e+00 -4.4124259801e-11 3.2501134683e-09 -4.4124259801e-11 -8.1238111145e+00 -3.2930116218e-09 3.2501134683e-09 -3.2930116218e-09 -7.6712011311e+00" polarizability="1.0833759596e+01 -3.7462057068e-10 2.7063343877e-07 -3.7446066387e-10 1.0833759596e+01 -2.2285617169e-07 -1.0267940804e-08 8.3186986650e-09 1.9847537345e+01" dipole_derivatives="6.3556900341e-06 2.2237415112e-11 -8.2960917680e-08 1.3962330206e-12 6.3557063138e-06 2.1346118661e-09 -3.5881386295e-11 -2.1795784036e-11 -2.8286191666e-03 6.3556891281e-06 7.6692176143e-12 8.0962155413e-08 9.9002862550e-12 6.3556927454e-06 1.4458018772e-09 3.0042381614e-11 3.9998664374e-11 2.0463698579e-03" charge=0 multiplicity=1 method=b3lyp basis=def2-svpd config_type=o2_q0_m1 sample_index=44 bond_length=4.000000 units=atomic
O         0.0000000000       0.0000000000       0.0000000000   5.227407121008e-12   4.629079136376e-12   6.290934504542e-04
O         0.0000000000       0.0000000000       4.0000000000  -5.251332860870e-12  -4.551556946320e-12  -6.193735701128e-04
2
Properties=species:S:1:pos:R:3:forces:R:3 energy=-1.500184683864e+02 dipole="-6.0254991613e-14 2.5190545877e-13 3.1477050279e-02" quadrupole="-8.1226819250e+00 1.7691842435e-10 -8.1752215575e-10 1.7691842435e-10 -8.1226819246e+00 3.2288564753e-10 -8.1752215575e-10 3.2288564753e-10 -7.0957084277e+00" polarizability="1.0826107849e+01 1.2366556730e-08 7.5983192685e-10 2.9359893267e-09 1.0826107848e+01 -3.0602118073e-10 2.3591080860e-08 2.1344424673e-06 1.7242208592e+01" dipole_derivatives="8.0843970956e-06 2.6476151933e-11 -9.8012933033e-07 -6.1358882566e-13 8.0843552268e-06 -4.9955501465e-07 4.4514901747e-12 2.2470130682e-11 -5.5428672842e-03 8.0843940980e-06 -1.5498821777e-11 9.8009123624e-07 -1.9314914466e-11 8.0843696482e-06 4.9931646870e-07 1.6604739231e-11 -2.2047671306e-11 6.8899323807e-03" charge=0 multiplicity=1 method=b3lyp basis=def2-svpd config_type=o2_q0_m1 sample_index=45 bond_length=4.150000 units=atomic
O         0.0000000000       0.0000000000       0.0000000000  -2.205971257639e-13   9.963295476071e-14   1.644748448158e-05
O         0.0000000000       0.0000000000       4.1500000000   9.780645924035e-14  -5.489096686831e-14  -1.644748465352e-05
2
Properties=species:S:1:pos:R:3:forces:R:3 energy=-1.499651679487e+02 dipole="2.1022567398e-13 3.5589966347e-13 -5.0974335863e-11" quadrupole="-7.5605135395e+00 -8.3651619816e-01 7.3738121700e-11 -8.3651619816e-01 -8.6329964364e+00 1.3474601397e-10 7.3738121700e-11 1.3474601397e-10 -7.0808624496e+00" polarizability="1.0415424254e+01 1.0263118074e+00 -7.5292688155e-11 1.0263118287e+00 1.1729094404e+01 -1.3762850954e-10 4.6375501302e-11 6.5204761044e-11 1.0203788617e+01" dipole_derivatives="1.9094681448e-03 1.7459615650e-11 5.5288048124e-08 -1.4796177838e-12 -1.9394697897e-03 -2.4082102029e-07 4.7219685906e-07 4.0035172660e-08 -5.8908262905e-03 -1.9396095032e-03 -3.4125212504e-11 -5.4176201941e-08 -1.6783550971e-11 1.9074096833e-03 2.4710349245e-07 9.6205164367e-07 5.3175747226e-08 4.0312992409e-03" charge=0 multiplicity=1 method=b3lyp basis=def2-svpd config_type=o2_q0_m1 sample_index=46 bond_length=4.300000 units=atomic
O         0.0000000000       0.0000000000       0.0000000000  -2.839633657604e-10   1.098947834484e-10  -6.694090024976e-05
O         0.0000000000       0.0000000000       4.3000000000   4.776245639491e-10  -4.224358875573e-10   6.694089997857e-05
2
Properties=species:S:1:pos:R:3:forces:R:3 energy=-1.498152364913e+02 dipole="1.1144279737e-12 5.5613780926e-14 1.5914736196e-10" quadrupole="-9.0910941692e+00 -5.3672385590e-04 1.1217976687e-09 -5.3672385590e-04 -7.1033546471e+00 5.0944249475e-13 1.1217976687e-09 5.0944249475e-13 -7.0856877840e+00" polarizability="1.3086769363e+01 8.4046266558e-04 -1.1265327370e-09 8.4031731157e-04 9.8679940010e+00 -3.3283873761e-13 1.0598368552e-09 -8.1278309135e-13 1.0135815278e+01" dipole_derivatives="-4.4855628140e-04 -1.3480948741e-12 -3.1137009165e-11 -9.2467843344e-12 4.4296337794e-04 -3.0220714195e-11 7.5167338282e-02 6.9648971594e-02 -1.0013226592e-01 4.4281943551e-04 2.2067632071e-11 -1.0843298954e-11 8.7444381222e-14 -4.4854661154e-04 4.1211922139e-11 -6.9649051670e-02 -7.5167492417e-02 9.4841712982e-02" charge=0 multiplicity=1 method=b3lyp basis=def2-svpd config_type=o2_q0_m1 sample_index=48 bond_length=4.600000 units=atomic
O         0.0000000000       0.0000000000       0.0000000000   3.876829358171e-14   5.463369621705e-14   1.546580868507e-04
O         0.0000000000       0.0000000000       4.6000000000  -1.584218812320e-14   2.297089320425e-14  -1.435415727707e-04
2
Properties=species:S:1:pos:R:3:forces:R:3 energy=-1.499652121958e+02 dipole="-3.9644567225e-09 4.2790180395e-08 -1.1354323703e-07" quadrupole="-8.0773269314e+00 -3.8477876212e-01 -8.5487347455e-01 -3.8477876212e-01 -7.3341940428e+00 -3.6289375637e-01 -8.5487347455e-01 -3.6289375637e-01 -7.9985693720e+00" polarizability="1.0784076451e+01 3.5137417049e-01 8.4499258637e-01 3.5137394033e-01 1.0099858628e+01 3.7718986266e-01 8.4499322997e-01 3.7719008571e-01 1.0630967995e+01" dipole_derivatives="-9.0891022389e-06 -1.3889733936e-12 5.4073718744e-07 1.8497937169e-11 -1.2345045469e-04 1.5661109976e-07 -1.6746595227e-11 -2.9710004528e-02 6.5240150812e-04 -9.0891075450e-06 -1.7429306874e-11 6.6448031330e-08 1.2640326692e-12 1.3791774232e-04 -6.8865772874e-07 -1.0481456740e-11 2.4678905395e-02 -7.8476499246e-05" charge=0 multiplicity=1 method=b3lyp basis=def2-svpd config_type=o2_q0_m1 sample_index=53 bond_length=5.350000 units=atomic
O         0.0000000000       0.0000000000       0.0000000000  -1.270261134158e-11  -1.205438198991e-11  -6.448224123851e-06
O         0.0000000000       0.0000000000       5.3500000000  -2.122147442119e-11  -2.009501226788e-11   6.448222338557e-06
2
Properties=species:S:1:pos:R:3:forces:R:3 energy=-1.500184666227e+02 dipole="-1.6365229413e-06 1.9756435743e-06 -1.5131718101e-10" quadrupole="-7.1702474027e+00 6.7980860841e-07 -1.4060120559e-04 6.7980860841e-07 -7.1702476528e+00 -1.5057176269e-05 -1.4060120559e-04 -1.5057176269e-05 -9.0999784997e+00" polarizability="9.8238342957e+00 -5.4613743948e-06 1.2174453900e-04 -4.7947790804e-06 9.8238352437e+00 2.3655919043e-05 1.1310156840e-04 2.1838660786e-05 1.1946618121e+01" dipole_derivatives="2.5658707857e-04 -1.0134455431e-11 2.1147248005e-11 3.2923365405e-11 -7.6054200690e-06 4.1282877612e-10 3.4522208230e-07 3.7604639251e-11 2.5514526277e-02 -2.1765451874e-04 6.8592975087e-12 -2.4505672655e-11 3.4966772551e-11 -7.6054166882e-06 -4.6442639119e-10 7.4800117963e-07 -9.2660254469e-12 -2.8393507216e-02" charge=0 multiplicity=1 method=b3lyp basis=def2-svpd config_type=o2_q0_m1 sample_index=54 bond_length=5.500000 units=atomic
O         0.0000000000       0.0000000000       0.0000000000  -3.495485919774e-14  -5.624430843543e-15  -2.070579171793e-06
O         0.0000000000       0.0000000000       5.5000000000   1.213977604169e-14   4.881210650146e-14   2.070579158137e-06
2
Properties=species:S:1:pos:R:3:forces:R:3 energy=-1.498901966830e+02 dipole="-3.0048442207e-12 2.3644314130e-11 -2.5691769743e-03" quadrupole="-8.1192848447e+00 -2.2071233730e-13 -2.9842626060e-10 -2.2071233730e-13 -8.1192848442e+00 -3.4208098024e-09 -2.9842626060e-10 -3.4208098024e-09 -7.4033525460e+00" polarizability="1.0827108611e+01 8.8955232069e-13 -6.1230507776e-11 -9.9651675800e-12 1.0827108609e+01 5.4559364894e-09 -4.5893351462e-10 -2.7518819904e-09 1.0646249163e+01" dipole_derivatives="-4.3172439188e-06 3.8130288947e-12 -1.7995937952e-06 -4.1647588485e-13 -1.8789187410e-04 3.9653856364e-06 -1.0045200891e-11 3.4957494568e-07 9.1686073389e-05 -4.3172228796e-06 -7.8930985102e-12 7.4781180156e-06 -4.3297275454e-12 2.0982147714e-04 1.9519513175e-06 1.3570220827e-11 1.4909357735e-07 -3.5802325586e-04" charge=0 multiplicity=1 method=b3lyp basis=def2-svpd config_type=o2_q0_m1 sample_index=56 bond_length=5.800000 units=atomic
O         0.0000000000       0.0000000000       0.0000000000   1.190008870690e-13   1.288291790418e-12   2.880926442763e-05
O         0.0000000000       0.0000000000       5.8000000000  -1.239413795287e-13  -1.410527345430e-12  -3.409387160893e-05
2
Properties=species:S:1:pos:R:3:forces:R:3 energy=-1.499652622784e+02 dipole="-1.9995610412e-08 6.2787528156e-08 -4.4053649617e-13" quadrupole="-7.1700698935e+00 1.5062613379e-09 3.9017502806e-05 1.5062613379e-09 -7.1700698958e+00 1.7062854163e-05 3.9017502806e-05 1.7062854163e-05 -9.0873721948e+00" polarizability="9.7730162214e+00 1.6922408613e-08 -3.7838013408e-05 1.6587225302e-08 9.7729498408e+00 -1.6167923766e-05 -3.0513281077e-05 -1.3008223829e-05 1.1889920705e+01" dipole_derivatives="9.4373547516e-05 2.0730908095e-11 -2.6329568259e-07 5.1556245770e-11 -8.4034537340e-05 4.4271733952e-08 -1.2090098725e-02 1.4865403031e-02 7.3418768983e-05 -8.3956056228e-05 -1.2765057893e-11 5.4813051887e-07 2.3772386451e-11 9.4395718131e-05 -1.4818111505e-07 1.4865606366e-02 -1.2090214420e-02 2.3744495894e-04" charge=0 multiplicity=1 method=b3lyp basis=def2-svpd config_type=o2_q0_m1 sample_index=57 bond_length=5.950000 units=atomic
O         0.0000000000       0.0000000000       0.0000000000  -5.656079257275e-07  -3.786307242272e-07   7.498203693513e-06
O         0.0000000000       0.0000000000       5.9500000000   5.656126624367e-07   3.784729181261e-07  -7.498196371148e-06
