2
Properties=species:S:1:pos:R:3:forces:R:3 energy=-1.494476353589e+02 dipole="2.2955647173e-14 1.8628557812e-14 -4.0767389464e-12" quadrupole="-7.2884490196e+00 -1.2470855275e-14 1.5273743084e-14 -1.2470855275e-14 -7.2884490196e+00 -3.4651758359e-15 1.5273743084e-14 -3.4651758359e-15 -8.9090682672e+00" polarizability="1.1002598772e+01 3.3219086248e-13 9.7520956849e-14 2.7236166630e-13 1.1002598772e+01 7.6000800874e-14 2.8137506284e-13 2.7016210431e-13 1.8573018893e+01" dipole_derivatives="1.3449425751e-05 -1.7329993142e-11 2.7508880619e-11 -1.5838437334e-11 1.3435200568e-05 8.6542303889e-12 3.4761991063e-06 2.9064666229e-06 4.6004793752e-05 1.3407343475e-05 1.7630100304e-11 -3.9938174324e-11 -6.8862775711e-12 1.3421676363e-05 2.6391447003e-12 -3.4761704626e-06 -2.9064308738e-06 4.5607733146e-05" charge=0 multiplicity=3 method=b3lyp basis=def2-svpd config_type=o2_q0_m3 sample_index=0 bond_length=0.800000 units=atomic
O         0.0000000000       0.0000000000       0.0000000000   3.733922501875e-14   2.551423642632e-14  -3.320877322953e+00
O         0.0000000000       0.0000000000       0.8000000000  -1.294554349922e-14   2.076146385916e-14   3.320877322952e+00
2
Properties=species:S:1:pos:R:3:forces:R:3 energy=-1.497126782165e+02 dipole="6.0737945754e-15 1.9762315773e-14 1.9593215939e-12" quadrupole="-7.2123571333e+00 6.4858601670e-15 -2.7671007377e-14 6.4858601670e-15 -7.2123571333e+00 1.3117636024e-14 -2.7671007377e-14 1.3117636024e-14 -8.6367487949e+00" polarizability="9.0884345766e+00 -8.7002485742e-15 1.9933877589e-13 -9.5291067865e-15 9.0884345765e+00 -9.3621503501e-16 -1.2554376489e-14 -3.1006388211e-13 1.4604871819e+01" dipole_derivatives="2.0952614681e-06 -1.2148091781e-11 5.9210929370e-12 -8.3289518614e-12 2.0938257033e-06 -7.2568343721e-12 -1.9779600180e-07 7.6316797326e-07 -2.2818690715e-05 2.0919024843e-06 -4.0346375325e-11 -2.0506647923e-11 3.2703626802e-12 2.0932752036e-06 -3.8924502486e-12 1.9786194905e-07 -7.6319062181e-07 -2.1812663453e-05" charge=0 multiplicity=3 method=b3lyp basis=def2-svpd config_type=o2_q0_m3 sample_index=1 bond_length=0.850000 units=atomic
O         0.0000000000       0.0000000000       0.0000000000  -2.513286137879e-14  -1.621235582303e-14  -2.339936687879e+00
O         0.0000000000       0.0000000000       0.8500000000  -2.396675188532e-14   1.551337068204e-14   2.339936687879e+00
2
Properties=species:S:1:pos:R:3:forces:R:3 energy=-1.498980533728e+02 dipole="1.1960396428e-14 4.6945959679e-15 -6.6968652845e-12" quadrupole="-7.2042946667e+00 -1.4741747379e-14 2.5545148476e-14 -1.4741747379e-14 -7.2042946667e+00 -1.9721477450e-14 2.5545148476e-14 -1.9721477450e-14 -8.4632561353e+00" polarizability="8.2034322191e+00 1.1518087895e-13 -8.8464125830e-14 1.1647755769e-13 8.2034322191e+00 1.6241527657e-13 2.8049522060e-14 4.7133945262e-13 1.2853787644e+01" dipole_derivatives="1.0261366667e-06 1.2146499587e-13 -2.6343127714e-12 1.3981615076e-11 1.0249819362e-06 -1.7166167291e-11 4.5488379730e-07 9.0084495419e-08 -2.2892368112e-05 1.0256203121e-06 -3.1017199280e-12 -3.0056551133e-11 -4.4008457380e-12 1.0267974348e-06 3.2884157893e-11 -4.5490533562e-07 -9.0215834803e-08 -2.2791645127e-05" charge=0 multiplicity=3 method=b3lyp basis=def2-svpd config_type=o2_q0_m3 sample_index=2 bond_length=0.900000 units=atomic
O         0.0000000000       0.0000000000       0.0000000000  -9.688094921473e-15   1.780236187066e-14  -1.621276042924e+00
O         0.0000000000       0.0000000000       0.9000000000   4.638443533219e-14  -3.576054455470e-14   1.621276042924e+00
2
Properties=species:S:1:pos:R:3:forces:R:3 energy=-1.500251449359e+02 dipole="9.3468700480e-15 -9.1333653106e-17 7.7276851584e-11" quadrupole="-7.2352161043e+00 2.9847065036e-15 1.3038245314e-15 2.9847065036e-15 -7.2352161043e+00 -1.2644215195e-14 1.3038245314e-15 -1.2644215195e-14 -8.3443018917e+00" polarizability="7.8094103670e+00 -7.0786592720e-15 -1.4793910847e-13 -7.0513066778e-15 7.8094103670e+00 8.6087724656e-14 -1.6836840856e-12 3.9811431937e-13 1.2230121694e+01" dipole_derivatives="1.6725219728e-06 1.2258071215e-11 1.5838915414e-11 -1.7812716991e-12 1.6725432457e-06 1.4703753065e-11 1.3753054251e-07 6.8912653362e-08 -1.5968373401e-05 1.6701190883e-06 -1.7226319251e-11 1.6184079952e-11 2.2515825097e-11 1.6701110712e-06 1.4158901389e-11 -1.3750434125e-07 -6.8940186893e-08 -1.6155277227e-05" charge=0 multiplicity=3 method=b3lyp basis=def2-svpd config_type=o2_q0_m3 sample_index=3 bond_length=0.950000 units=atomic
O         0.0000000000       0.0000000000       0.0000000000  -2.987426342650e-14  -2.930312278956e-15  -1.096542248664e+00
O         0.0000000000       0.0000000000       0.9500000000  -2.599771028769e-14  -3.195429995555e-15   1.096542248664e+00
2
Properties=species:S:1:pos:R:3:forces:R:3 energy=-1.501097749231e+02 dipole="-1.8785521720e-15 1.0140671666e-14 -4.7283066351e-11" quadrupole="-7.2880895255e+00 1.1859970725e-14 1.8777702010e-14 1.1859970725e-14 -7.2880895255e+00 9.5605883168e-16 1.8777702010e-14 9.5605883168e-16 -8.2534564146e+00" polarizability="7.6714849370e+00 -5.5551279092e-15 -6.7420519638e-14 -5.5505673427e-15 7.6714849370e+00 3.0914604786e-14 3.1944403740e-12 -1.6748864187e-12 1.2239254814e+01" dipole_derivatives="1.7177766539e-06 -2.3004361890e-11 -5.2206517706e-12 -3.7507583303e-12 1.7169252505e-06 -2.6616966269e-11 -7.4409739481e-07 -1.7928902807e-07 -1.0695042130e-05 1.7171494860e-06 2.2466607767e-12 -1.5079082345e-11 -3.3139030256e-12 1.7180102474e-06 1.3161583628e-11 7.4407108253e-07 1.7924844942e-07 -1.0804807715e-05" charge=0 multiplicity=3 method=b3lyp basis=def2-svpd config_type=o2_q0_m3 sample_index=4 bond_length=1.000000 units=atomic
O         0.0000000000       0.0000000000       0.0000000000  -5.053015404619e-15  -1.515437117893e-14  -7.152741779468e-01
O         0.0000000000       0.0000000000       1.0000000000  -3.922753604322e-14  -1.017588425887e-15   7.152741779470e-01
2
Properties=species:S:1:pos:R:3:forces:R:3 energy=-1.501636356956e+02 dipole="1.0469170606e-14 -6.0036013715e-15 1.5960512911e-09" quadrupole="-7.3529607709e+00 -2.9250508200e-15 2.4598122068e-14 -2.9250508200e-15 -7.3529607709e+00 -1.0808051795e-14 2.4598122068e-14 -1.0808051795e-14 -8.1752962368e+00" polarizability="7.6772652107e+00 1.1238200130e-14 -5.8041241979e-15 1.0254654858e-14 7.6772652107e+00 -3.8314377013e-14 8.1385694901e-13 -1.1488560489e-12 1.2637384820e+01" dipole_derivatives="9.4227437181e-07 -5.8040075972e-12 -7.1131458581e-12 -4.9712709714e-12 9.4162801978e-07 -3.4574098815e-12 6.6716382419e-08 -3.6008973581e-08 -6.7104534152e-06 9.3684907649e-07 1.3091580920e-11 4.0175240587e-11 -1.4025035293e-11 9.3747001141e-07 1.2699799721e-11 -6.6669003651e-08 3.6053438013e-08 -6.5224116108e-06" charge=0 multiplicity=3 method=b3lyp basis=def2-svpd config_type=o2_q0_m3 sample_index=5 bond_length=1.050000 units=atomic
O         0.0000000000       0.0000000000       0.0000000000  -3.577518820638e-14   2.964079305238e-14  -4.398783974626e-01
O         0.0000000000       0.0000000000       1.0500000000  -3.617420268315e-14   3.946061557049e-14   4.398783974624e-01
2
Properties=species:S:1:pos:R:3:forces:R:3 energy=-1.501953443509e+02 dipole="1.3266346841e-14 3.7823508038e-15 -5.7288538358e-09" quadrupole="-7.4238263923e+00 1.8340456612e-16 -4.8107941950e-15 1.8340456612e-16 -7.4238263923e+00 -1.4572065368e-14 -4.8107941950e-15 -1.4572065368e-14 -8.1010671965e+00" polarizability="7.7679672860e+00 9.2460806938e-16 2.2314131999e-14 8.7540414450e-16 7.7679672860e+00 3.4764446550e-14 -3.5169797414e-12 -1.3841180587e-11 1.3293379455e+01" dipole_derivatives="-3.0084527302e-07 -4.6996514072e-12 9.5399932469e-12 1.8065219392e-11 -3.0067960052e-07 -1.4070852857e-11 -2.2306934078e-08 -1.8853038575e-07 -3.4633752810e-06 -2.9574719607e-07 -8.4894511807e-12 -1.0180106210e-11 1.0558585323e-11 -2.9587828790e-07 5.1275943971e-12 2.2285284729e-08 1.8846435523e-07 -2.7924631218e-06" charge=0 multiplicity=3 method=b3lyp basis=def2-svpd config_type=o2_q0_m3 sample_index=6 bond_length=1.100000 units=atomic
O         0.0000000000       0.0000000000       0.0000000000  -2.531784241622e-14   3.778165852065e-14  -2.423926033367e-01
O         0.0000000000       0.0000000000       1.1000000000  -6.286509076157e-14   3.847548444073e-14   2.423926033361e-01
2
Properties=species:S:1:pos:R:3:forces:R:3 energy=-1.502112343980e+02 dipole="1.1870473406e-14 2.1977067421e-14 2.6319131763e-08" quadrupole="-7.4968750261e+00 9.1323124073e-15 2.0256503868e-14 9.1323124073e-15 -7.4968750261e+00 4.1446036327e-14 2.0256503868e-14 4.1446036327e-14 -8.0261602074e+00" polarizability="7.9101335196e+00 7.9671141167e-15 1.2632176909e-14 7.8946182701e-15 7.9101335196e+00 -2.1604625710e-14 1.5231433047e-11 1.4266428692e-11 1.4130157019e+01" dipole_derivatives="-1.5760905628e-06 3.8711675689e-11 -1.1265180435e-11 -1.3619813823e-11 -1.5760121600e-06 -2.5574128125e-12 -6.2496674502e-09 -3.7234104688e-08 5.0650703076e-07 -1.5926878476e-06 3.5132284399e-12 3.3287494962e-11 -3.5277108962e-12 -1.5927909079e-06 -7.3183679362e-12 6.2518323851e-09 3.7174041623e-08 -6.6101302210e-07" charge=0 multiplicity=3 method=b3lyp basis=def2-svpd config_type=o2_q0_m3 sample_index=7 bond_length=1.150000 units=atomic
O         0.0000000000       0.0000000000       0.0000000000  -2.851596028982e-14   3.670903016592e-14  -1.020845556097e-01
O         0.0000000000       0.0000000000       1.1500000000   5.346993544659e-15   1.329871083779e-14   1.020845556096e-01
2
Properties=species:S:1:pos:R:3:forces:R:3 energy=-1.502159459310e+02 dipole="-1.2311878348e-14 9.5371022874e-15 -2.7662530044e-09" quadrupole="-7.5695442150e+00 6.9387732258e-15 -4.1861661475e-15 6.9387732258e-15 -7.5695442150e+00 -5.6195428059e-15 -4.1861661475e-15 -5.6195428059e-15 -7.9486040743e+00" polarizability="8.0831544676e+00 5.2856037866e-15 2.2023737439e-14 5.3080825184e-15 8.0831544676e+00 7.1431061374e-14 3.9189778359e-11 5.2870882853e-11 1.5098643602e+01" dipole_derivatives="-2.5600176682e-06 -7.7590543683e-12 -1.4877638422e-12 -1.2713724372e-11 -2.5601737223e-06 3.2995243528e-12 4.9215076459e-09 -5.4934640170e-07 2.7315071316e-06 -2.5576946312e-06 1.3376088984e-11 1.0352200804e-11 -2.7044619815e-11 -2.5575941268e-06 9.8661594681e-12 -4.9103499045e-09 5.4932700055e-07 2.3843851338e-06" charge=0 multiplicity=3 method=b3lyp basis=def2-svpd config_type=o2_q0_m3 sample_index=8 bond_length=1.200000 units=atomic
O         0.0000000000       0.0000000000       0.0000000000  -7.817667388043e-14  -2.252779931707e-14  -3.574567482961e-03
O         0.0000000000       0.0000000000       1.2000000000  -2.642715172099e-14   2.147720741196e-14   3.574567483163e-03
2
Properties=species:S:1:pos:R:3:forces:R:3 energy=-1.502128608003e+02 dipole="1.8834585248e-15 1.1519555824e-14 7.7680084587e-11" quadrupole="-7.6400320305e+00 4.0660850283e-15 2.2837005843e-14 4.0660850283e-15 -7.6400320305e+00 3.6984035306e-15 2.2837005843e-14 3.6984035306e-15 -7.8680935363e+00" polarizability="8.2734175947e+00 -4.0279881291e-15 -1.6433213358e-14 -4.0781158970e-15 8.2734175947e+00 5.3449702826e-14 2.0196676558e-11 -1.1069473683e-10 1.6165848374e+01" dipole_derivatives="-2.8913576307e-06 1.5513573996e-11 -2.5837120226e-11 -2.5349504942e-11 -2.8914634686e-06 -9.8507496820e-12 5.5218110639e-07 -3.5072533766e-07 3.4844712254e-06 -3.0011573476e-06 -3.8398046091e-11 9.6261293428e-12 -8.1294400158e-13 -3.0009601697e-06 -1.9320793971e-11 -5.5222446060e-07 3.5074693150e-07 4.2776315684e-06" charge=0 multiplicity=3 method=b3lyp basis=def2-svpd config_type=o2_q0_m3 sample_index=9 bond_length=1.250000 units=atomic
O         0.0000000000       0.0000000000       0.0000000000  -4.642394695607e-15   1.929277396022e-14   6.459251773040e-02
O         0.0000000000       0.0000000000       1.2500000000  -5.710682215526e-14   1.950041345220e-14  -6.459251773007e-02
2
Properties=species:S:1:pos:R:3:forces:R:3 energy=-1.502044233340e+02 dipole="2.4870517474e-15 -8.3598382634e-15 -4.3236525471e-12" quadrupole="-7.7070527609e+00 -2.9177485479e-15 1.9688866568e-14 -2.9177485479e-15 -7.7070527609e+00 -5.1488583494e-15 1.9688866568e-14 -5.1488583494e-15 -7.7853129636e+00" polarizability="8.4714406480e+00 4.8934535062e-15 -2.2090066849e-14 4.9444686674e-15 8.4714406480e+00 3.2661472073e-14 -1.1671744688e-11 1.5402389789e-10 1.7309348148e+01" dipole_derivatives="-2.5930088405e-06 -1.6849341225e-11 -7.6725724484e-12 -1.7326313040e-11 -2.5924180117e-06 -6.5909912898e-12 1.8366734522e-07 -8.8974674850e-08 3.4605088517e-06 -2.5925706266e-06 3.5459454675e-11 1.8150302243e-11 6.4686788042e-12 -2.5931770425e-06 -3.0592806418e-11 -1.8363943699e-07 8.9002666348e-08 4.1634309889e-06" charge=0 multiplicity=3 method=b3lyp basis=def2-svpd config_type=o2_q0_m3 sample_index=10 bond_length=1.300000 units=atomic
O         0.0000000000       0.0000000000       0.0000000000   1.169563373940e-14   6.466660182866e-15   1.109407419931e-01
O         0.0000000000       0.0000000000       1.3000000000   1.559503598466e-14   2.079495292303e-14  -1.109407419935e-01
2
Properties=species:S:1:pos:R:3:forces:R:3 energy=-1.501923831881e+02 dipole="1.2624361144e-14 -9.7388517860e-15 9.3791641120e-13" quadrupole="-7.7697153094e+00 -2.0470135089e-15 1.0986034105e-14 -2.0470135089e-15 -7.7697153094e+00 -1.8052066098e-14 1.0986034105e-14 -1.8052066098e-14 -7.7014436599e+00" polarizability="8.6704258195e+00 1.2930646657e-14 6.0390916538e-14 1.2950269089e-14 8.6704258195e+00 7.4665538971e-15 1.5922855359e-09 -5.9183439605e-10 1.8514717141e+01" dipole_derivatives="-1.4474166784e-06 -2.3530854265e-11 -1.8640295856e-11 -2.4791759648e-11 -1.4473988859e-06 -1.4238201486e-13 9.5763189045e-08 -8.8298021672e-08 3.3093066065e-06 -1.4472949815e-06 -1.1571275272e-11 2.3128025489e-11 -1.7986087588e-11 -1.4472664754e-06 1.1492677718e-11 -9.5770127939e-08 8.8293983236e-08 3.0983537402e-06" charge=0 multiplicity=3 method=b3lyp basis=def2-svpd config_type=o2_q0_m3 sample_index=11 bond_length=1.350000 units=atomic
O         0.0000000000       0.0000000000       0.0000000000   1.158986399877e-14  -4.963376639609e-15   1.417429944907e-01
O         0.0000000000       0.0000000000       1.3500000000   2.003414496829e-14  -5.973187514704e-15  -1.417429944907e-01
2
Properties=species:S:1:pos:R:3:forces:R:3 energy=-1.501779834568e+02 dipole="1.9154343521e-14 1.3979242144e-14 -1.1155520951e-12" quadrupole="-7.8274558698e+00 6.9651604516e-15 2.2819973236e-14 6.9651604516e-15 -7.8274558698e+00 2.1152393656e-14 2.2819973236e-14 2.1152393656e-14 -7.6178116461e+00" polarizability="8.8655072948e+00 -4.7791445433e-14 7.5370545676e-14 -4.7825913666e-14 8.8655072948e+00 3.5606415743e-14 3.2675373262e-09 2.5830347796e-09 1.9774401348e+01" dipole_derivatives="2.5959879756e-07 8.8562874561e-12 -2.5441339090e-11 1.3663399989e-11 2.5956928859e-07 8.9214537773e-12 -9.2955643183e-09 -5.5768473173e-08 1.8830904613e-06 2.5960306784e-07 1.6893947821e-11 -2.9101836442e-11 8.8461549950e-12 2.5957214711e-07 2.3178086263e-11 9.3159507886e-09 5.5767404583e-08 1.2557578727e-06" charge=0 multiplicity=3 method=b3lyp basis=def2-svpd config_type=o2_q0_m3 sample_index=12 bond_length=1.400000 units=atomic
O         0.0000000000       0.0000000000       0.0000000000  -2.718753139731e-14  -1.698761505536e-14   1.615202341357e-01
O         0.0000000000       0.0000000000       1.4000000000   2.310746178185e-14  -7.942312858363e-15  -1.615202341360e-01
2
Properties=species:S:1:pos:R:3:forces:R:3 energy=-1.501621069533e+02 dipole="1.7884214730e-14 3.2550759412e-15 -3.4926728176e-11" quadrupole="-7.8799889322e+00 -1.0368515392e-14 3.1340116915e-14 -1.0368515392e-14 -7.8799889322e+00 1.2115409604e-14 3.1340116915e-14 1.2115409604e-14 -7.5356559964e+00" polarizability="9.0533287508e+00 8.5958228026e-14 3.5182114223e-15 8.6012096459e-14 9.0533287508e+00 -3.1399054627e-14 -4.1849095592e-10 -4.5485681990e-09 2.1087592266e+01" dipole_derivatives="2.0830803099e-06 3.5032682182e-11 -3.9134401091e-11 -6.0749840720e-12 2.0830733917e-06 -8.9908753511e-12 2.2315925496e-07 -1.5978801615e-07 4.9298490290e-07 2.0829696637e-06 -2.9327176670e-11 -2.3117885568e-11 -1.2585436359e-11 2.0829646358e-06 4.0846436801e-12 -2.2314043668e-07 1.5985474056e-07 5.2297614850e-07" charge=0 multiplicity=3 method=b3lyp basis=def2-svpd config_type=o2_q0_m3 sample_index=13 bond_length=1.450000 units=atomic
O         0.0000000000       0.0000000000       0.0000000000   2.029556761641e-14   2.901815925424e-14   1.734392964798e-01
O         0.0000000000       0.0000000000       1.4500000000  -8.361297448960e-14  -2.599540359732e-14  -1.734392964797e-01
2
Properties=species:S:1:pos:R:3:forces:R:3 energy=-1.501453867873e+02 dipole="-5.4353238034e-15 -1.8305901240e-14 1.3507417407e-11" quadrupole="-7.9272613583e+00 -4.4693943311e-15 2.1497823384e-14 -4.4693943311e-15 -7.9272613583e+00 -8.2800574606e-15 2.1497823384e-14 -8.2800574606e-15 -7.4560006533e+00" polarizability="9.2317632353e+00 5.3420811713e-14 -1.0994099438e-14 5.3608826607e-14 9.2317632353e+00 -7.1103688574e-14 1.5854952740e-08 -2.0092405248e-08 2.2461431779e+01" dipole_derivatives="3.5019286792e-06 -1.5504407658e-11 -2.7474180065e-11 3.1959011597e-12 3.5019174427e-06 6.7006093318e-12 -1.6868073605e-07 -8.4993387328e-08 7.4140729667e-07 3.5019606032e-06 -4.3986199227e-11 1.8300962324e-11 4.3054768313e-12 3.5019519669e-06 -5.9208511293e-12 1.6867587882e-07 8.4999146610e-08 3.2976793518e-07" charge=0 multiplicity=3 method=b3lyp basis=def2-svpd config_type=o2_q0_m3 sample_index=14 bond_length=1.500000 units=atomic
O         0.0000000000       0.0000000000       0.0000000000  -6.215205069562e-14   3.773040915431e-15   1.796777170868e-01
O         0.0000000000       0.0000000000       1.5000000000  -1.892198567763e-14  -6.546863753517e-15  -1.796777170867e-01
2
Properties=species:S:1:pos:R:3:forces:R:3 energy=-1.501282843873e+02 dipole="-5.1664137840e-15 3.2649366246e-15 -5.8975047068e-12" quadrupole="-7.9694057157e+00 9.9714598697e-15 -2.5093031080e-14 9.9714598697e-15 -7.9694057157e+00 1.1090531433e-14 -2.5093031080e-14 1.1090531433e-14 -7.3796093273e+00" polarizability="9.3996792730e+00 -3.1060696267e-14 1.9849436041e-14 -3.1060393577e-14 9.3996792730e+00 -6.5114217150e-14 -1.2778545897e-08 -4.3342694357e-08 2.3915013383e+01" dipole_derivatives="4.0518473890e-06 3.7892033250e-11 9.6673084230e-12 2.9892572888e-11 4.0518145543e-06 -2.4990234028e-11 -1.8222291731e-07 2.4306730240e-07 1.7893981713e-06 4.0518604956e-06 -2.9856794109e-11 9.0954606931e-12 -1.9956076818e-11 4.0518462422e-06 7.3931990876e-12 1.8224002862e-07 -2.4301280432e-07 1.7871681912e-06" charge=0 multiplicity=3 method=b3lyp basis=def2-svpd config_type=o2_q0_m3 sample_index=15 bond_length=1.550000 units=atomic
O         0.0000000000       0.0000000000       0.0000000000   1.793054223645e-14  -7.238279381004e-15   1.817348738078e-01
O         0.0000000000       0.0000000000       1.5500000000  -3.835864588957e-14  -2.495818833313e-14  -1.817348738082e-01
2
Properties=species:S:1:pos:R:3:forces:R:3 energy=-1.501111416782e+02 dipole="-2.2894066552e-15 2.1660429631e-14 -7.3292483194e-12" quadrupole="-8.0066934024e+00 4.4823653700e-15 2.1922864283e-14 4.4823653700e-15 -8.0066934024e+00 5.7640574030e-14 2.1922864283e-14 5.7640574030e-14 -7.3069967901e+00" polarizability="9.5567149415e+00 -9.8100579303e-16 -2.9597317033e-15 -1.0617868160e-15 9.5567149415e+00 1.5093739014e-14 -7.1728254773e-07 -7.5043900882e-07 2.5491074762e+01" dipole_derivatives="3.6310124572e-06 2.2381755169e-11 -3.0155009338e-11 1.6456112850e-11 3.6310235526e-06 2.5383660704e-12 1.1946221790e-08 -2.8247029715e-08 4.2436505143e-06 3.6310492073e-06 -2.0348659255e-11 3.3916955509e-12 1.5567749878e-11 3.6310784254e-06 1.1015174630e-12 -1.1951231671e-08 2.8237912009e-08 4.2278953116e-06" charge=0 multiplicity=3 method=b3lyp basis=def2-svpd config_type=o2_q0_m3 sample_index=16 bond_length=1.600000 units=atomic
O         0.0000000000       0.0000000000       0.0000000000  -5.979017610480e-16   1.170463559468e-14   1.806806059514e-01
O         0.0000000000       0.0000000000       1.6000000000  -5.680756750598e-14   6.153452219933e-14  -1.806806059521e-01
2
Properties=species:S:1:pos:R:3:forces:R:3 energy=-1.500942128279e+02 dipole="2.6249785561e-14 -7.4567631804e-15 -5.3681503687e-12" quadrupole="-8.0394897498e+00 1.7730113143e-14 2.8453950793e-14 1.7730113143e-14 -8.0394897498e+00 -2.4426648031e-14 2.8453950793e-14 -2.4426648031e-14 -7.2384710248e+00" polarizability="9.7030559003e+00 -7.6146691057e-14 -9.8172021300e-14 -7.5814531279e-14 9.7030559003e+00 -1.3921185405e-13 2.0626758312e-06 3.4157297588e-06 2.7295503680e+01" dipole_derivatives="2.3394397299e-06 4.0014728407e-11 -2.9505409477e-11 -1.8143144714e-12 2.3394014621e-06 -1.9157451511e-11 1.5707868339e-07 2.4980302549e-07 5.0419372843e-06 2.3395086249e-06 1.8563413930e-11 8.6540332956e-12 1.3474258315e-11 2.3394878271e-06 1.9737716514e-11 -1.5704226808e-07 -2.4982675650e-07 5.2848695142e-06" charge=0 multiplicity=3 method=b3lyp basis=def2-svpd config_type=o2_q0_m3 sample_index=17 bond_length=1.650000 units=atomic
O         0.0000000000       0.0000000000       0.0000000000   1.929164153881e-14   5.394317956866e-14   1.773187215215e-01
O         0.0000000000       0.0000000000       1.6500000000   6.694516131327e-15   3.321886884354e-14  -1.773187215216e-01
2
Properties=species:S:1:pos:R:3:forces:R:3 energy=-1.500776848431e+02 dipole="7.7970539773e-15 -2.0734507887e-14 9.9653618690e-12" quadrupole="-8.0682130638e+00 -1.1510934148e-15 -1.2208602913e-14 -1.1510934148e-15 -8.0682130638e+00 -1.2741892659e-15 -1.2208602913e-14 -1.2741892659e-15 -7.1741858208e+00" polarizability="9.8392309141e+00 3.5808774389e-14 -1.6486320450e-14 3.5577099264e-14 9.8392309141e+00 -7.3209497222e-14 3.2341656291e-06 1.0976319670e-06 2.9689592581e+01" dipole_derivatives="6.5152361198e-07 1.9042121733e-11 -1.9809934555e-11 -1.0778573047e-12 6.5148798815e-07 4.8676117035e-12 -1.3934370324e-07 -8.0295908811e-08 1.2876447811e-05 6.5152397516e-07 1.3165929814e-12 2.5624727647e-11 -2.7690796821e-11 6.5150560934e-07 -9.3652697641e-14 1.3934989274e-07 8.0296130855e-08 1.3160512013e-05" charge=0 multiplicity=3 method=b3lyp basis=def2-svpd config_type=o2_q0_m3 sample_index=18 bond_length=1.700000 units=atomic
O         0.0000000000       0.0000000000       0.0000000000  -7.558208466955e-14   2.330655603855e-14   1.722844743574e-01
O         0.0000000000       0.0000000000       1.7000000000  -5.564627684115e-14   2.842983690898e-14  -1.722844743577e-01
2
Properties=species:S:1:pos:R:3:forces:R:3 energy=-1.500616906590e+02 dipole="1.7583932719e-15 -7.6477602155e-15 5.8584248563e-12" quadrupole="-8.0932998090e+00 -8.3959204625e-15 -2.4481430018e-15 -8.3959204625e-15 -8.0932998090e+00 3.3103345657e-14 -2.4481430018e-15 3.3103345657e-14 -7.1141891707e+00" polarizability="9.9659427922e+00 5.9443552042e-14 1.6534064355e-14 5.8685514340e-14 9.9659427922e+00 4.9402736901e-14 3.0182557902e-06 1.6082387978e-09 3.5680643591e+01" dipole_derivatives="-1.0935655107e-06 -2.2605249507e-11 1.3697952570e-13 8.8065186818e-12 -1.0936246511e-06 1.7725749383e-12 1.0831890940e-08 -2.0027705883e-07 6.2464893535e-06 -1.0935215902e-06 -1.2727598252e-11 -1.0198375686e-11 2.2668304066e-11 -1.0935371958e-06 1.3659525104e-11 -1.0837497566e-08 2.0030968551e-07 6.7860219666e-06" charge=0 multiplicity=3 method=b3lyp basis=def2-svpd config_type=o2_q0_m3 sample_index=19 bond_length=1.750000 units=atomic
O         0.0000000000       0.0000000000       0.0000000000  -3.125331261556e-14   6.925619077923e-15   1.660876594341e-01
O         0.0000000000       0.0000000000       1.7500000000   5.823173211395e-14   1.538986371705e-14  -1.660876594341e-01
2
Properties=species:S:1:pos:R:3:forces:R:3 energy=-1.500463202448e+02 dipole="-5.3893424579e-15 2.1399737382e-15 2.0040857862e-11" quadrupole="-8.1151775066e+00 -5.3941936557e-15 -8.8116302164e-15 -5.3941936557e-15 -8.1151775066e+00 2.7594212460e-15 -8.8116302164e-15 2.7594212460e-15 -7.0584623063e+00" polarizability="1.0083944181e+01 5.8697691583e-14 2.4874886387e-14 5.8627599653e-14 1.0083944181e+01 -4.0346419759e-15 1.6098242947e-09 -1.0271645072e-09 2.3642039034e+01" dipole_derivatives="-2.4642032984e-06 -1.8933979926e-11 -9.2981807632e-13 1.3467382444e-12 -2.4642343167e-06 -2.7783433436e-11 3.0634592085e-08 7.7166328882e-09 -7.0772573912e-06 -2.4643050716e-06 8.3313500410e-12 2.6909036853e-11 1.2531049563e-11 -2.4643281088e-06 7.9659524465e-12 -3.0613150903e-08 -7.7196582460e-09 -6.8572759832e-06" charge=0 multiplicity=3 method=b3lyp basis=def2-svpd config_type=o2_q0_m3 sample_index=20 bond_length=1.800000 units=atomic
O         0.0000000000       0.0000000000       0.0000000000  -1.128478684982e-14   1.484611504044e-14   1.591364119770e-01
O         0.0000000000       0.0000000000       1.8000000000  -5.116525828535e-14   5.376566788140e-14  -1.591364119766e-01
2
Properties=species:S:1:pos:R:3:forces:R:3 energy=-1.500316292726e+02 dipole="-1.5357758934e-14 1.2137637493e-14 -3.0762947745e-11" quadrupole="-8.1342462330e+00 4.5070287817e-15 -9.3301672378e-15 4.5070287817e-15 -8.1342462330e+00 7.2620953927e-14 -9.3301672378e-15 7.2620953927e-14 -7.0069462710e+00" polarizability="1.0193959205e+01 -2.5142205567e-14 -2.3604848655e-14 -2.5036101051e-14 1.0193959205e+01 -4.6806405078e-14 -1.2097448735e-09 5.9937136546e-10 3.0553151712e+01" dipole_derivatives="-3.3765181500e-06 1.2046539596e-11 -1.7556708878e-11 3.0154246172e-11 -3.3764814185e-06 6.2284622954e-12 9.7554173073e-08 -1.6068066322e-07 2.7701424210e-06 -3.3766614409e-06 -5.9819463242e-12 2.6091548380e-11 1.0590938832e-11 -3.3766531754e-06 -1.1779577419e-11 -9.7550550970e-08 1.6065182518e-07 2.2060091531e-06" charge=0 multiplicity=3 method=b3lyp basis=def2-svpd config_type=o2_q0_m3 sample_index=21 bond_length=1.850000 units=atomic
O         0.0000000000       0.0000000000       0.0000000000   1.111661014656e-14   2.851061227618e-14   1.517483743365e-01
O         0.0000000000       0.0000000000       1.8500000000  -6.149297988892e-14  -1.585406979545e-14  -1.517483743367e-01
2
Properties=species:S:1:pos:R:3:forces:R:3 energy=-1.500176471585e+02 dipole="-1.0342652619e-14 1.3500923606e-14 4.8352433168e-12" quadrupole="-8.1508680332e+00 -6.3965952397e-15 -4.9120563275e-14 -6.3965952397e-15 -8.1508680332e+00 5.8770648706e-14 -4.9120563275e-14 5.8770648706e-14 -6.9595586463e+00" polarizability="1.0296642072e+01 2.4858050577e-14 -4.1263063073e-14 2.5284228592e-14 1.0296642072e+01 5.2823421268e-14 -3.7572079205e-10 2.3786012846e-10 3.4173255698e+01" dipole_derivatives="-3.8203831735e-06 -2.0749034516e-11 -2.9284655582e-11 6.4050545994e-12 -3.8203978162e-06 -2.4822011680e-11 -1.8725160311e-09 -1.1634854191e-07 -1.9421062813e-05 -3.8200097963e-06 5.7636194509e-11 -1.0267039671e-11 1.3856515600e-11 -3.8199764220e-06 -4.5433873211e-12 1.8673257385e-09 1.1634480879e-07 -1.9770862780e-05" charge=0 multiplicity=3 method=b3lyp basis=def2-svpd config_type=o2_q0_m3 sample_index=22 bond_length=1.900000 units=atomic
O         0.0000000000       0.0000000000       0.0000000000   3.753869239709e-15   1.132948157114e-16   1.441642161406e-01
O         0.0000000000       0.0000000000       1.9000000000   1.319113464785e-16  -2.231775530821e-14  -1.441642161409e-01
2
Properties=species:S:1:pos:R:3:forces:R:3 energy=-1.500043838921e+02 dipole="1.9310056626e-14 -3.1228407715e-14 2.6666668873e-11" quadrupole="-8.1653629594e+00 4.4301371475e-15 -1.2329264014e-13 4.4301371475e-15 -8.1653629594e+00 -3.3166919571e-13 -1.2329264014e-13 -3.3166919571e-13 -6.9162026942e+00" polarizability="1.0392565278e+01 -3.0554628844e-14 1.4823982872e-13 -3.0586834286e-14 1.0392565278e+01 8.4488216703e-14 -1.4236258443e-10 -5.6038808271e-11 3.8746367304e+01" dipole_derivatives="-3.9733909134e-06 8.5994111475e-12 3.2381289475e-12 4.2692291399e-12 -3.9734137366e-06 1.3063168188e-11 -1.1535233879e-07 2.2697435598e-07 -1.2804928284e-05 -3.9729294973e-06 2.6108936160e-11 1.9823284942e-11 -9.2652327507e-12 -3.9729730141e-06 -2.9272424347e-11 1.1534376232e-07 -2.2697189961e-07 -1.2749870867e-05" charge=0 multiplicity=3 method=b3lyp basis=def2-svpd config_type=o2_q0_m3 sample_index=23 bond_length=1.950000 units=atomic
O         0.0000000000       0.0000000000       0.0000000000   2.821854511719e-15   2.391088230424e-14   1.365607825558e-01
O         0.0000000000       0.0000000000       1.9500000000  -4.145761576868e-14   2.616017610636e-14  -1.365607825559e-01
2
Properties=species:S:1:pos:R:3:forces:R:3 energy=-1.499918350023e+02 dipole="2.0317355065e-14 -1.6858062928e-14 2.5803359449e-11" quadrupole="-8.1780096035e+00 4.4403297419e-15 -2.1196968577e-13 4.4403297419e-15 -8.1780096035e+00 1.3040770444e-13 -2.1196968577e-13 1.3040770444e-13 -6.8767707535e+00" polarizability="1.0482220853e+01 2.0482807374e-14 -2.2053391972e-13 2.0435361026e-14 1.0482220853e+01 2.7586996907e-13 -4.2159576633e-11 5.1393072237e-11 4.9115119350e+01" dipole_derivatives="-3.8988748403e-06 1.6374353227e-11 -1.6639399788e-12 5.8860202557e-12 -3.8989029476e-06 1.0310624333e-11 -1.0094304559e-07 -7.2512398863e-08 -2.5150723781e-05 -3.8970283634e-06 2.0512806767e-11 3.2916718122e-11 -2.9589281831e-11 -3.8970556410e-06 5.1405015703e-13 1.0097984948e-07 7.2511441296e-08 -2.5141478927e-05" charge=0 multiplicity=3 method=b3lyp basis=def2-svpd config_type=o2_q0_m3 sample_index=24 bond_length=2.000000 units=atomic
O         0.0000000000       0.0000000000       0.0000000000  -2.021321199643e-14  -2.416736265560e-14   1.290623372374e-01
O         0.0000000000       0.0000000000       2.0000000000   4.836623105373e-15   4.115377493236e-14  -1.290623372369e-01
2
Properties=species:S:1:pos:R:3:forces:R:3 energy=-1.499799864568e+02 dipole="1.0109243282e-14 -2.4281880156e-15 8.7471363486e-11" quadrupole="-8.1890484553e+00 2.6569250561e-14 -7.6803312482e-13 2.6569250561e-14 -8.1890484553e+00 -3.0878550087e-13 -7.6803312482e-13 -3.0878550087e-13 -6.8411453788e+00" polarizability="1.0566033555e+01 -7.7318129999e-14 1.8011507102e-10 -7.7400787700e-14 1.0566033555e+01 3.6965571327e-11 -1.6654983553e-11 -9.8114849468e-11 -2.5460000643e+03" dipole_derivatives="-3.8853587052e-06 2.5255011229e-12 -5.2703711739e-09 2.2286290404e-11 -3.8853491076e-06 1.3109493216e-08 -7.2503662796e-08 2.0602250461e-07 -7.0999211531e-04 -3.8807293294e-06 -1.9331502158e-11 5.2588422017e-09 -1.8567043272e-11 -3.8807303223e-06 -1.3135083856e-08 7.2483068159e-08 -2.0602568956e-07 -7.1014212163e-04" charge=0 multiplicity=3 method=b3lyp basis=def2-svpd config_type=o2_q0_m3 sample_index=25 bond_length=2.050000 units=atomic
O         0.0000000000       0.0000000000       0.0000000000   3.435395784858e-14  -3.739576598612e-15   1.217548083307e-01
O         0.0000000000       0.0000000000       2.0500000000   3.350842453163e-14  -3.089938176969e-14  -1.217548083307e-01
2
Properties=species:S:1:pos:R:3:forces:R:3 energy=-1.499688174722e+02 dipole="1.9486462026e-14 2.5863800275e-14 -5.5384319353e-10" quadrupole="-8.1986864894e+00 8.9002720251e-15 -6.2097240414e-13 8.9002720251e-15 -8.1986864894e+00 -1.3384824776e-12 -6.2097240414e-13 -1.3384824776e-12 -6.8091999999e+00" polarizability="1.0644374922e+01 8.4661277613e-15 2.2002905097e-12 8.4722222035e-15 1.0644374922e+01 4.7109510013e-12 -4.1614535521e-11 -2.1002460897e-11 1.6476458710e+01" dipole_derivatives="-3.7870294456e-06 -8.7303286175e-12 4.4916064425e-11 6.1374270003e-13 -3.7871137735e-06 -2.4978701719e-11 -2.2618609763e-07 -2.3813187533e-08 6.1628247783e-05 -3.8208279142e-06 8.3139949833e-12 4.1141598997e-12 2.0036405558e-11 -3.8207973175e-06 3.8523422619e-11 2.2619534024e-07 2.3846098707e-08 6.2002576046e-05" charge=0 multiplicity=3 method=b3lyp basis=def2-svpd config_type=o2_q0_m3 sample_index=26 bond_length=2.100000 units=atomic
O         0.0000000000       0.0000000000       0.0000000000   1.792925416973e-14   1.694769512187e-14   1.146919109720e-01
O         0.0000000000       0.0000000000       2.1000000000  -8.351567934946e-14   1.247321503069e-14  -1.146919109725e-01
2
Properties=species:S:1:pos:R:3:forces:R:3 energy=-1.499583032925e+02 dipole="-1.6511151995e-14 -9.4938003912e-15 -1.2123351212e-09" quadrupole="-8.2071019278e+00 1.1809354716e-14 -1.2485252374e-12 1.1809354716e-14 -8.2071019278e+00 -6.0614071140e-14 -1.2485252374e-12 -6.0614071140e-14 -6.7807967935e+00" polarizability="1.0717574511e+01 -2.5707685475e-14 2.9097180205e-12 -2.5286111610e-14 1.0717574511e+01 1.3442473124e-13 4.3469704683e-12 1.7304091774e-11 2.6547355066e+01" dipole_derivatives="-3.5454258255e-06 7.2894683234e-12 -1.5240393395e-11 1.1524233475e-12 -3.5454089183e-06 -4.1043948512e-11 -1.0047704335e-07 -2.1098900405e-07 1.8353567777e-05 -3.6368150629e-06 -1.3145894778e-11 1.5986324490e-11 -1.1477497477e-11 -3.6367913583e-06 4.9537154650e-11 1.0052421395e-07 2.1096728531e-07 1.8089482579e-05" charge=0 multiplicity=3 method=b3lyp basis=def2-svpd config_type=o2_q0_m3 sample_index=27 bond_length=2.150000 units=atomic
O         0.0000000000       0.0000000000       0.0000000000   4.212576307619e-14  -2.085359222660e-15   1.079054906473e-01
O         0.0000000000       0.0000000000       2.1500000000  -1.217749698692e-14  -2.311670343634e-14  -1.079054906472e-01
2
Properties=species:S:1:pos:R:3:forces:R:3 energy=-1.499484169840e+02 dipole="6.7877426457e-16 -4.8045511858e-15 3.5027625245e-09" quadrupole="-8.2144488529e+00 5.2204492251e-15 4.8301809628e-12 5.2204492251e-15 -8.2144488529e+00 3.9912462288e-12 4.8301809628e-12 3.9912462288e-12 -6.7557878080e+00" polarizability="1.0785932468e+01 -1.6820632741e-14 -1.0047312507e-11 -1.6923974981e-14 1.0785932468e+01 -8.4315094761e-12 4.6771270940e-12 4.3682679481e-12 3.0794422058e+01" dipole_derivatives="-3.2331629102e-06 1.2556416479e-11 1.6785236074e-09 -1.2265652107e-13 -3.2331318190e-06 -5.4787844479e-09 -9.3175633875e-08 1.0452196053e-07 7.1796451395e-05 -3.4887041429e-06 2.1222119046e-11 -1.6557362799e-09 -2.2054048396e-11 -3.4886983039e-06 5.5095376257e-09 9.3160652803e-08 -1.0450588311e-07 7.1685108585e-05" charge=0 multiplicity=3 method=b3lyp basis=def2-svpd config_type=o2_q0_m3 sample_index=28 bond_length=2.200000 units=atomic
O         0.0000000000       0.0000000000       0.0000000000  -7.183250801786e-14  -6.262249549714e-14   1.014105080340e-01
O         0.0000000000       0.0000000000       2.2000000000   6.081354449845e-14   4.297154796127e-14  -1.014105080352e-01
2
Properties=species:S:1:pos:R:3:forces:R:3 energy=-1.499391307530e+02 dipole="-4.4352801367e-15 7.6969051628e-15 3.1698590419e-09" quadrupole="-8.2208611208e+00 -1.9789453217e-14 -4.2039269024e-12 -1.9789453217e-14 -8.2208611208e+00 1.9673722773e-12 -4.2039269024e-12 1.9673722773e-12 -6.7340168729e+00" polarizability="1.0849725927e+01 1.6767276700e-13 8.0258375516e-12 1.6792935943e-13 1.0849725927e+01 -3.8653532723e-12 -5.7885279912e-13 4.9071249943e-13 3.3578826663e+01" dipole_derivatives="-2.5337078115e-06 -1.9721286331e-11 -1.0888323480e-10 -2.1529726177e-11 -2.5337723647e-06 1.7703358858e-10 2.2616870182e-07 2.9702151155e-07 1.8386691253e-05 -3.0116916788e-06 -7.1461108652e-12 7.8581085125e-11 6.5417153449e-12 -3.0115771485e-06 -1.8924604185e-10 -2.2617262230e-07 -2.9700716886e-07 1.8289309595e-05" charge=0 multiplicity=3 method=b3lyp basis=def2-svpd config_type=o2_q0_m3 sample_index=29 bond_length=2.250000 units=atomic
O         0.0000000000       0.0000000000       0.0000000000   1.029974411408e-13  -1.335735659148e-14   9.520904772475e-02
O         0.0000000000       0.0000000000       2.2500000000  -7.840600114533e-14   2.046278394908e-14  -9.520904772569e-02
2
Properties=species:S:1:pos:R:3:forces:R:3 energy=-1.499304170225e+02 dipole="-4.2189802828e-15 7.6572631246e-15 4.2676262524e-09" quadrupole="-8.2264555090e+00 1.0772815152e-14 -8.9023333789e-12 1.0772815152e-14 -8.2264555090e+00 1.8719402018e-11 -8.9023333789e-12 1.8719402018e-11 -6.7153183499e+00" polarizability="1.0909213600e+01 -9.7948677324e-15 1.6276498524e-11 -9.9379606894e-15 1.0909213600e+01 -3.4193196499e-11 1.5701755323e-12 -2.4999294333e-12 3.5780991524e+01" dipole_derivatives="-2.0509789608e-06 1.4873224255e-11 2.7776790234e-11 -2.7676262150e-12 -2.0499030864e-06 -7.1777858176e-10 -1.1452290505e-08 -2.4394791742e-08 -5.0787739292e-06 -1.6126039076e-06 -5.5313097927e-11 -3.8171253302e-11 -4.5043345963e-12 -1.6136634590e-06 7.0423386085e-10 1.1454850957e-08 2.4394389286e-08 -5.2352386037e-06" charge=0 multiplicity=3 method=b3lyp basis=def2-svpd config_type=o2_q0_m3 sample_index=30 bond_length=2.300000 units=atomic
O         0.0000000000       0.0000000000       0.0000000000   1.433671124793e-13  -3.162097517274e-13   8.929726449308e-02
O         0.0000000000       0.0000000000       2.3000000000  -8.791147239926e-14   2.615867789158e-13  -8.929726449315e-02
2
Properties=species:S:1:pos:R:3:forces:R:3 energy=-1.499222486871e+02 dipole="-5.6884020768e-15 1.5896419594e-14 -1.8657431156e-09" quadrupole="-8.2313344104e+00 8.1967602021e-15 3.8652991526e-11 8.1967602021e-15 -8.2313344104e+00 5.4270430127e-11 3.8652991526e-11 5.4270430127e-11 -6.6995213027e+00" polarizability="1.0964639492e+01 6.0423552917e-15 -6.8503433833e-11 5.4655972734e-15 1.0964639492e+01 -9.6079396950e-11 7.3061235550e-11 1.0277522965e-10 3.7695883669e+01" dipole_derivatives="-5.9276650024e-07 -1.0905548038e-11 -2.6046051039e-09 2.5893786399e-12 -5.9039581287e-07 -2.0898408263e-09 -9.9438679513e-08 -1.5191546632e-07 2.0866050304e-05 -7.5693521918e-07 2.3020856794e-11 2.6365517715e-09 3.2327135484e-11 -7.5928939914e-07 2.0621477007e-09 9.9457136971e-08 1.5190948499e-07 2.0307098045e-05" charge=0 multiplicity=3 method=b3lyp basis=def2-svpd config_type=o2_q0_m3 sample_index=31 bond_length=2.350000 units=atomic
O         0.0000000000       0.0000000000       0.0000000000  -5.525732516515e-13  -6.865371078863e-13   8.366551108002e-02
O         0.0000000000       0.0000000000       2.3500000000   5.764430466809e-13   6.011609572926e-13  -8.366551107977e-02
2
Properties=species:S:1:pos:R:3:forces:R:3 energy=-1.499145997357e+02 dipole="1.3956088384e-15 3.1196607780e-14 1.3039745284e-08" quadrupole="-8.2355878252e+00 6.6031422130e-15 -5.9497460717e-12 6.6031422130e-15 -8.2355878252e+00 -3.3314177536e-11 -5.9497460717e-12 -3.3314177536e-11 -6.6864531294e+00" polarizability="1.1016233435e+01 5.5678614892e-14 1.0264774022e-11 5.6118604164e-14 1.1016233435e+01 5.7585497976e-11 -6.2659832325e-11 -3.5381652751e-10 3.9450254474e+01" dipole_derivatives="5.4637834908e-07 2.8924775732e-11 -3.1951544642e-09 1.1635464762e-10 5.4679368911e-07 4.0920106386e-09 -1.1996757754e-08 5.3369683672e-08 5.8368729641e-06 8.8414987838e-07 -4.1192740154e-11 3.2383005065e-09 -7.1348981762e-11 8.8369422779e-07 -4.0753017821e-09 1.1982505266e-08 -5.3373042097e-08 5.9836853250e-06" charge=0 multiplicity=3 method=b3lyp basis=def2-svpd config_type=o2_q0_m3 sample_index=32 bond_length=2.400000 units=atomic
O         0.0000000000       0.0000000000       0.0000000000   2.085941514305e-13   3.186088202764e-13   7.830326881314e-02
O         0.0000000000       0.0000000000       2.4000000000  -2.228050061456e-13  -3.451431505650e-13  -7.830326881273e-02
2
Properties=species:S:1:pos:R:3:forces:R:3 energy=-1.499074451545e+02 dipole="1.2663453634e-14 1.9951372056e-14 1.7407558062e-08" quadrupole="-8.2392948122e+00 -9.8035627943e-15 -1.7895969312e-11 -9.8035627943e-15 -8.2392948122e+00 -1.1327332152e-10 -1.7895969312e-11 -1.1327332152e-10 -6.6759401931e+00" polarizability="1.1064211010e+01 1.3191716472e-15 3.0344997455e-11 1.3456838503e-15 1.1064211009e+01 1.9166183723e-10 -6.7355546886e-10 -4.1118509739e-09 4.1108179338e+01" dipole_derivatives="2.5143653068e-06 -2.4979533831e-10 3.7989159040e-10 -2.0900155459e-11 2.5118818462e-06 7.5669300339e-09 -1.4103185980e-07 -4.3538769812e-08 -1.6114848234e-05 1.9002863565e-06 2.3577877262e-10 -3.9007788665e-10 -3.7719620242e-11 1.9027237058e-06 -7.5740354613e-09 1.4100926676e-07 4.3516378001e-08 -1.6110102266e-05" charge=0 multiplicity=3 method=b3lyp basis=def2-svpd config_type=o2_q0_m3 sample_index=33 bond_length=2.450000 units=atomic
O         0.0000000000       0.0000000000       0.0000000000   2.828776160159e-13   1.756324671509e-12   7.320149206943e-02
O         0.0000000000       0.0000000000       2.4500000000  -3.847960896765e-13  -1.726681716752e-12  -7.320149206954e-02
2
Properties=species:S:1:pos:R:3:forces:R:3 energy=-1.499007605988e+02 dipole="2.9636701958e-15 -7.5299372479e-15 -1.6620384713e-07" quadrupole="-8.2425247263e+00 8.1842916251e-15 3.1377256847e-10 8.1842916251e-15 -8.2425247263e+00 1.8829469177e-10 3.1377256847e-10 1.8829469177e-10 -6.6678119314e+00" polarizability="1.1108773649e+01 3.2761838950e-15 -5.1985349002e-10 3.2901288781e-15 1.1108773649e+01 -3.1197938101e-10 3.3618128048e-09 2.0179710407e-09 4.2705557834e+01" dipole_derivatives="4.5103729306e-06 3.7015423475e-10 -1.3402927174e-08 2.4452916548e-09 4.5116668033e-06 -6.4423166825e-09 -1.5736376091e-07 -1.3720878600e-07 1.3540327628e-04 2.6216689824e-06 -4.2574865271e-10 1.3386024028e-08 -2.4568934854e-09 2.6203784407e-06 6.4348781882e-09 1.5736258130e-07 1.3720633657e-07 1.3394424336e-04" charge=0 multiplicity=3 method=b3lyp basis=def2-svpd config_type=o2_q0_m3 sample_index=34 bond_length=2.500000 units=atomic
O         0.0000000000       0.0000000000       0.0000000000  -2.873883195249e-12  -1.934241888769e-12   6.835107645388e-02
O         0.0000000000       0.0000000000       2.5000000000   2.828946918328e-12   1.871736332483e-12  -6.835107645330e-02
2
Properties=species:S:1:pos:R:3:forces:R:3 energy=-1.498832942991e+02 dipole="-8.9247349344e-15 1.0700141125e-14 4.1042540033e-08" quadrupole="-8.2499174040e+00 8.1511287648e-15 -6.3921759282e-09 8.1511287648e-15 -8.2499174040e+00 -3.7124047025e-09 -6.3921759282e-09 -3.7124047025e-09 -6.6561137663e+00" polarizability="1.1223752239e+01 -3.7047705606e-14 1.0267786844e-08 -3.7039211941e-14 1.1223752239e+01 5.9632499456e-09 -1.3783270943e-06 -8.0285382534e-07 4.7314103467e+01" dipole_derivatives="5.3582450018e-06 3.3506429708e-10 -5.5246529992e-09 -1.8765978762e-10 5.3574372166e-06 -2.5353368704e-09 1.0596280797e-07 -1.2870607358e-10 1.4510659356e-04 5.3597732203e-06 -3.1664847266e-10 5.5124358297e-09 1.7800084731e-10 5.3605270452e-06 2.5133544546e-09 -1.0598646266e-07 1.1764200725e-10 1.4521319605e-04" charge=0 multiplicity=3 method=b3lyp basis=def2-svpd config_type=o2_q0_m3 sample_index=35 bond_length=2.650000 units=atomic
O         0.0000000000       0.0000000000       0.0000000000   6.033547053768e-11   3.253763043418e-11   5.526184978423e-02
O         0.0000000000       0.0000000000       2.6500000000  -6.038895553189e-11  -3.251487086218e-11  -5.526184978415e-02
2
Properties=species:S:1:pos:R:3:forces:R:3 energy=-1.498692321106e+02 dipole="-1.9777180768e-15 6.2686289251e-16 -7.3714062410e-08" quadrupole="-8.2547421741e+00 3.5596182562e-14 -1.3744579901e-07 3.5596182562e-14 -8.2547421741e+00 -5.1438363030e-08 -1.3744579901e-07 -5.1438363030e-08 -6.6604272740e+00" polarizability="1.1313750557e+01 -1.6712841772e-13 2.1320248615e-07 -1.6824401213e-13 1.1313750557e+01 7.9789902224e-08 4.3571498988e-06 3.5843660533e-07 5.1829080954e+01" dipole_derivatives="3.5294343251e-06 2.6924882878e-10 2.0127776148e-07 5.8964932463e-08 3.5263755548e-06 7.3437991330e-08 -1.7458170326e-08 2.3996006571e-08 4.3360702979e-04 3.5332144726e-06 -2.6307321321e-10 -2.0123619750e-07 -5.8951998364e-08 3.5362982548e-06 -7.3453034852e-08 1.7434890337e-08 -2.3983877384e-08 4.3240669265e-04" charge=0 multiplicity=3 method=b3lyp basis=def2-svpd config_type=o2_q0_m3 sample_index=36 bond_length=2.800000 units=atomic
O         0.0000000000       0.0000000000       0.0000000000   1.046410012315e-09   3.181687885760e-10   4.431597385298e-02
O         0.0000000000       0.0000000000       2.8000000000  -1.046374901512e-09  -3.182099778502e-10  -4.431597385389e-02
2
Properties=species:S:1:pos:R:3:forces:R:3 energy=-1.498579767111e+02 dipole="1.4271080478e-14 -1.0839733329e-16 6.2933480649e-10" quadrupole="-8.2577224642e+00 3.1471452026e-15 -3.2512309287e-12 3.1471452026e-15 -8.2577224642e+00 -3.3779926677e-12 -3.2512309287e-12 -3.3779926677e-12 -6.6775233929e+00" polarizability="1.1381836596e+01 -9.7669946060e-15 8.6904942167e-12 -1.0700034127e-14 1.1381836596e+01 9.6207082626e-12 -5.7354164065e-08 -6.0812437614e-08 5.6361117512e+01" dipole_derivatives="3.2811627853e-06 3.7255955373e-09 -7.9399612077e-11 4.3644274380e-09 2.6887473974e-06 1.9123623958e-10 5.1455367744e-09 1.0053780031e-07 3.6850223975e-03 8.5092312621e-07 -3.6876814210e-09 6.9796182914e-11 -4.3708944871e-09 1.4432119932e-06 -1.9984046802e-10 -5.1491519382e-09 -1.0042299978e-07 3.6850236237e-03" charge=0 multiplicity=3 method=b3lyp basis=def2-svpd config_type=o2_q0_m3 sample_index=37 bond_length=2.950000 units=atomic
O         0.0000000000       0.0000000000       0.0000000000   7.484651563089e-15   7.560959691311e-14   3.542978439705e-02
O         0.0000000000       0.0000000000       2.9500000000  -1.800401472141e-14  -4.296903998913e-14  -3.542978439761e-02
2
Properties=species:S:1:pos:R:3:forces:R:3 energy=-1.498489698022e+02 dipole="-1.9908094669e-14 2.8024515730e-14 -2.1855378662e-07" quadrupole="-8.2592347930e+00 1.8286568479e-13 -1.2627054265e-10 1.8286568479e-13 -8.2592347930e+00 -4.1882840055e-10 -1.2627054265e-10 -4.1882840055e-10 -6.7048665447e+00" polarizability="1.1430444963e+01 -1.2799603642e-12 1.8135669245e-10 -1.2828112959e-12 1.1430444963e+01 6.0312130019e-10 8.9246064393e-07 4.6200404411e-07 6.0964635397e+01" dipole_derivatives="3.9114426051e-06 2.6135192312e-08 9.7973912926e-10 3.2528101733e-07 6.5178932773e-06 -1.5433348766e-09 1.6795368915e-08 -3.0074536611e-09 4.1602854386e-03 4.6046488165e-06 -2.6109226971e-08 -9.8519309987e-10 -3.2528895543e-07 1.9969445255e-06 1.5111939200e-09 -1.6640040040e-08 3.1234910491e-09 4.1604107110e-03" charge=0 multiplicity=3 method=b3lyp basis=def2-svpd config_type=o2_q0_m3 sample_index=38 bond_length=3.100000 units=atomic
O         0.0000000000       0.0000000000       0.0000000000  -7.052964928779e-13   1.519994154023e-12   2.840339686422e-02
O         0.0000000000       0.0000000000       3.1000000000   7.254886741383e-13  -1.492349600709e-12  -2.840339686548e-02
2
Properties=species:S:1:pos:R:3:forces:R:3 energy=-1.498417263249e+02 dipole="-1.1823076873e-13 -1.0980797438e-13 -3.2288902219e-08" quadrupole="-8.2594646401e+00 1.4472954970e-12 5.8032923808e-10 1.4472954970e-12 -8.2594646401e+00 -6.6775383543e-10 5.8032923808e-10 -6.6775383543e-10 -6.7403865590e+00" polarizability="1.1461921010e+01 -1.4131152796e-11 -8.2528752931e-10 -1.4129354945e-11 1.1461921010e+01 9.5349994437e-10 -1.1746328359e-07 1.1298225157e-07 6.5671278775e+01" dipole_derivatives="7.0444548937e-06 7.2309989450e-09 4.0999682511e-11 6.2659933600e-08 7.0383410174e-06 -2.4986432127e-11 7.4832280997e-08 -1.7242466135e-08 3.0428405832e-03 7.0556744927e-06 -7.2217285828e-09 -4.9284721833e-11 -6.2677475123e-08 7.0618925015e-06 1.6271181383e-11 -7.4786404500e-08 1.7130186158e-08 2.8315889219e-03" charge=0 multiplicity=3 method=b3lyp basis=def2-svpd config_type=o2_q0_m3 sample_index=39 bond_length=3.250000 units=atomic
O         0.0000000000       0.0000000000       0.0000000000  -6.793110424151e-13  -5.925955983352e-12   2.292842935078e-02
O         0.0000000000       0.0000000000       3.2500000000   6.403144586752e-13   5.978802599324e-12  -2.292842935178e-02
2
Properties=species:S:1:pos:R:3:forces:R:3 energy=-1.498358552095e+02 dipole="-1.5426483684e-12 -3.6041686102e-13 -2.4390089948e-10" quadrupole="-8.2585282917e+00 1.2511909111e-12 -3.5113227893e-08 1.2511909111e-12 -8.2585282918e+00 -7.6135636520e-09 -3.5113227893e-08 -7.6135636520e-09 -6.7823025133e+00" polarizability="1.1478809157e+01 -8.0396650984e-13 4.8699336888e-08 -1.1909426668e-12 1.1478809157e+01 1.0527485371e-08 -1.8870086964e-07 2.7375179800e-06 7.0500464188e+01" dipole_derivatives="4.2164496714e-06 -8.7513757093e-09 -9.6062314409e-12 -5.0832903343e-09 4.1687550692e-06 -3.0149315714e-11 1.5782519389e-08 -4.4957572387e-08 1.1633923915e-03 4.2730478246e-06 8.7465601169e-09 -1.6456254062e-11 5.0882863379e-09 4.3206583265e-06 5.3358311140e-12 -1.5850234319e-08 4.5033565418e-08 1.5409666632e-03" charge=0 multiplicity=3 method=b3lyp basis=def2-svpd config_type=o2_q0_m3 sample_index=40 bond_length=3.400000 units=atomic
O         0.0000000000       0.0000000000       0.0000000000  -9.254383432533e-11  -1.342529629647e-11   1.866393397129e-02
O         0.0000000000       0.0000000000       3.4000000000   9.251507954900e-11   1.345604947426e-11  -1.866393397184e-02
2
Properties=species:S:1:pos:R:3:forces:R:3 energy=-1.499252767429e+02 dipole="2.5309846077e-15 2.8708059904e-15 5.2179416343e-09" quadrupole="-8.0410911430e+00 4.1607358665e-01 -3.1408949009e-12 4.1607358665e-01 -7.3792067350e+00 -6.5838606827e-12 -3.1408949009e-12 -6.5838606827e-12 -7.9184561466e+00" polarizability="1.1154984288e+01 -5.5739581716e-01 4.6998287556e-12 -5.5739583549e-01 1.0268296519e+01 5.1143398377e-12 -4.3845032106e-12 -1.0278924487e-11 8.7645163857e+01" dipole_derivatives="-6.4369781014e-06 1.8755803135e-10 1.0857153159e-11 2.8088797543e-11 -6.4365947715e-06 -6.2122446630e-13 -7.2042328700e-10 9.5556158472e-09 6.9144590642e-04 -6.3992032252e-06 -1.4356544399e-10 -1.9849959658e-11 -1.0047673393e-11 -6.3995348261e-06 -7.5389147647e-12 7.3233736783e-10 -9.5359492872e-09 2.1986646326e-04" charge=0 multiplicity=3 method=b3lyp basis=def2-svpd config_type=o2_q0_m3 sample_index=41 bond_length=3.550000 units=atomic
O         0.0000000000       0.0000000000       0.0000000000   1.565502574841e-11   3.995713469831e-11   7.788707550214e-03
O         0.0000000000       0.0000000000       3.5500000000  -1.572316568654e-11  -3.998791563166e-11  -7.788707548356e-03
2
Properties=species:S:1:pos:R:3:forces:R:3 energy=-1.499215689675e+02 dipole="-1.1707695002e-12 4.5652845552e-13 -6.3426739416e-09" quadrupole="-7.8850451320e+00 -4.9738343180e-01 1.6562496838e-09 -4.9738343180e-01 -7.5263523030e+00 -2.4508346831e-09 1.6562496838e-09 -2.4508346831e-09 -7.9619182359e+00" polarizability="1.0949156840e+01 6.5691360459e-01 -9.9916832358e-09 6.5691361392e-01 1.0475434297e+01 -3.7024253936e-09 -2.4896549083e-07 3.0071973306e-08 9.9384777759e+01" dipole_derivatives="-1.7671121671e-05 2.0785647700e-12 -7.8923054221e-10 -1.2099079651e-11 -1.7671368591e-05 2.3424176689e-09 4.1866636026e-09 1.4502101343e-08 -5.1144863641e-04 -1.7665792767e-05 4.8423052015e-14 7.8066794713e-10 -7.4963567338e-12 -1.7665545026e-05 -2.3907678816e-09 -4.1778169466e-09 -1.4484429281e-08 -4.3233177395e-04" charge=0 multiplicity=3 method=b3lyp basis=def2-svpd config_type=o2_q0_m3 sample_index=43 bond_length=3.850000 units=atomic
O         0.0000000000       0.0000000000       0.0000000000   6.283070020447e-12   4.201213140940e-12   5.434469536526e-03
O         0.0000000000       0.0000000000       3.8500000000  -6.324065005632e-12  -4.191776245231e-12  -5.434469536138e-03
2
Properties=species:S:1:pos:R:3:forces:R:3 energy=-1.499189780882e+02 dipole="-1.0132963359e-13 1.5427139767e-13 -4.8823523002e-10" quadrupole="-7.5202285872e+00 4.9485471583e-01 -2.8389184135e-11 4.9485471583e-01 -7.8803494591e+00 -2.0428323945e-11 -2.8389184135e-11 -2.0428323945e-11 -8.0109932561e+00" polarizability="1.0463700397e+01 -6.4739661165e-01 1.7361033220e-10 -6.4739663780e-01 1.0934841786e+01 -1.9127329416e-10 1.3872337983e-09 -7.3189787231e-09 1.1178706591e+02" dipole_derivatives="7.1410691539e-07 1.8776111710e-11 2.8504912593e-11 -1.2144652499e-11 6.9172570599e-07 6.2866622666e-12 3.0107893175e-09 9.5160691393e-08 2.0870787315e-03 9.1067073497e-07 -5.4395576270e-12 -1.0477666230e-11 9.5356283914e-12 9.3312883529e-07 3.4514033888e-11 -3.0017533598e-09 -9.4726695888e-08 2.0870780735e-03" charge=0 multiplicity=3 method=b3lyp basis=def2-svpd config_type=o2_q0_m3 sample_index=45 bond_length=4.150000 units=atomic
O         0.0000000000       0.0000000000       0.0000000000   2.600264598638e-13  -5.921823316193e-13   3.816761065054e-03
O         0.0000000000       0.0000000000       4.1500000000  -3.807077026405e-13   5.985106028597e-13  -3.816761065074e-03
2
Properties=species:S:1:pos:R:3:forces:R:3 energy=-1.499171416017e+02 dipole="-1.0126876610e-11 1.3956236359e-11 -1.4814929727e-08" quadrupole="-7.8890379077e+00 -4.8793739481e-01 -1.0293273037e-09 -4.8793739481e-01 -7.5007873108e+00 1.5012818974e-09 -1.0293273037e-09 1.5012818974e-09 -8.0560717679e+00" polarizability="1.0935547445e+01 6.3535201777e-01 1.2446152480e-09 6.3535202799e-01 1.0429978753e+01 -3.1774386101e-09 1.7911912780e-09 -9.6920410024e-10 1.2485751361e+02" dipole_derivatives="2.0163817472e-05 2.6106741247e-12 8.2854485231e-12 2.0055841702e-11 2.0167323134e-05 3.2632983652e-11 4.8278146238e-08 3.1361199878e-08 3.2454239222e-03 2.0205070765e-05 1.2058147588e-11 -3.2755671245e-12 1.6081917750e-11 2.0201454878e-05 1.2941671508e-11 -4.8471176075e-08 -3.1351771439e-08 3.2483194191e-03" charge=0 multiplicity=3 method=b3lyp basis=def2-svpd config_type=o2_q0_m3 sample_index=47 bond_length=4.450000 units=atomic
O         0.0000000000       0.0000000000       0.0000000000  -1.013548268825e-13   1.629725298589e-13   2.748545077501e-03
O         0.0000000000       0.0000000000       4.4500000000   7.254453939348e-14  -1.008000404798e-13  -2.748545077626e-03
2
Properties=species:S:1:pos:R:3:forces:R:3 energy=-1.499157925530e+02 dipole="4.8982703932e-12 -9.1960415300e-13 1.4952263427e-07" quadrupole="-7.9543193777e+00 4.5288597044e-01 -6.0636157899e-10 4.5288597044e-01 -7.4263473091e+00 -9.9313496498e-10 -6.0636157899e-10 -9.9313496498e-10 -8.0914078843e+00" polarizability="1.1012401165e+01 -5.8905311887e-01 -1.6433722283e-09 -5.8905288015e-01 1.0325396041e+01 2.9093796576e-09 -1.3383415536e-07 4.0904727008e-06 1.3861860330e+02" dipole_derivatives="1.9206239463e-05 1.5594723380e-11 2.5811599700e-04 1.5692160792e-11 1.9207503842e-05 2.5821759037e-04 7.2584030149e-08 -2.9791562012e-09 6.6009185733e-03 1.9260640082e-05 -1.2902432545e-11 -2.1374995931e-04 3.4591863828e-12 1.9259554038e-05 -2.1468664980e-04 -7.2572402081e-08 2.9793233852e-09 -5.2915382295e-03" charge=0 multiplicity=3 method=b3lyp basis=def2-svpd config_type=o2_q0_m3 sample_index=49 bond_length=4.750000 units=atomic
O         0.0000000000       0.0000000000       0.0000000000  -1.279530592844e-13   1.619731737976e-13   2.066439023046e-03
O         0.0000000000       0.0000000000       4.7500000000   4.662792399807e-15  -1.524252557859e-13  -2.066439024781e-03
2
Properties=species:S:1:pos:R:3:forces:R:3 energy=-1.499147556352e+02 dipole="-2.7354629578e-13 5.8787507164e-13 -1.6576677808e-09" quadrupole="-7.6868725806e+00 5.2365120729e-01 -4.1898151812e-10 5.2365120729e-01 -7.6868619941e+00 -4.0878305349e-10 -4.1898151812e-10 -4.0878305349e-10 -8.1165399485e+00" polarizability="1.0660223123e+01 -6.8200817073e-01 3.3609805249e-10 -6.8200817205e-01 1.0660207706e+01 4.7901521089e-10 -8.3745164994e-10 5.0987727553e-08 1.5310303814e+02" dipole_derivatives="5.7179647640e-06 -1.8785708584e-11 -3.8970090843e-11 -1.3746396674e-12 5.7177585914e-06 -1.6937808116e-11 -6.2454490364e-11 -1.9233714014e-10 1.8541548071e-03 5.9002759201e-06 -4.0727195414e-13 6.1729662848e-11 -6.7161106246e-12 5.9005162005e-06 2.4820391591e-11 5.9316267176e-11 2.2206141006e-10 1.9199152977e-03" charge=0 multiplicity=3 method=b3lyp basis=def2-svpd config_type=o2_q0_m3 sample_index=51 bond_length=5.050000 units=atomic
O         0.0000000000       0.0000000000       0.0000000000   4.294125513051e-14   3.713077657394e-14   1.621129153884e-03
O         0.0000000000       0.0000000000       5.0500000000  -7.025540283894e-15   2.393148978044e-14  -1.621129153527e-03
2
Properties=species:S:1:pos:R:3:forces:R:3 energy=-1.499143201050e+02 dipole="-3.2613604194e-15 9.7176179777e-15 5.1969311698e-07" quadrupole="-8.2022643492e+00 -8.3781333592e-02 -1.2671292913e-13 -8.3781333592e-02 -7.1688317112e+00 7.4370549885e-13 -1.2671292913e-13 7.4370549885e-13 -8.1260886006e+00" polarizability="1.1331247039e+01 1.0917736351e-01 -5.5999112206e-13 1.0917728653e-01 9.9844540242e+00 -7.9624827472e-13 1.9216047703e-09 -1.8170491093e-08 1.6062712380e+02" dipole_derivatives="-1.1301194941e-06 -3.5594416555e-12 2.5282803616e-10 6.2035088336e-12 -1.1305426256e-06 -5.3726527253e-12 -2.3890238746e-09 -3.8473412824e-10 1.6944155438e-04 -1.0969034689e-06 5.5578430998e-12 -5.0421028451e-10 2.3525531576e-11 -1.0964949999e-06 2.4729024979e-10 2.4052307455e-09 3.7435137455e-10 7.3907855915e-05" charge=0 multiplicity=3 method=b3lyp basis=def2-svpd config_type=o2_q0_m3 sample_index=52 bond_length=5.200000 units=atomic
O         0.0000000000       0.0000000000       0.0000000000   2.005689213160e-14  -1.648992328359e-14   1.453817025868e-03
O         0.0000000000       0.0000000000       5.2000000000   4.219886397425e-14   6.978062846560e-14  -1.453817027722e-03
2
Properties=species:S:1:pos:R:3:forces:R:3 energy=-1.499139281645e+02 dipole="-8.3609891728e-14 -1.1316356949e-13 5.8565774452e-10" quadrupole="-8.1745289991e+00 -1.8361459828e-01 -1.5186956625e-12 -1.8361459828e-01 -7.1944204889e+00 5.9722699071e-12 -1.5186956625e-12 5.9722699071e-12 -8.1341805845e+00" polarizability="1.1295639537e+01 2.3948281730e-01 1.5521564446e-12 2.3948282517e-01 1.0017385846e+01 -6.4713807582e-12 -6.9967139450e-06 -1.8231779516e-05 1.6834035908e+02" dipole_derivatives="-4.2160759323e-06 -9.0674073245e-12 -7.4550000472e-13 1.8850547274e-11 -4.2165883364e-06 1.9227299163e-10 2.0382257080e-09 -4.0407553605e-10 1.3625385622e-04 -4.4858044226e-06 -1.0847218180e-11 -8.4339217045e-11 -1.4755569386e-12 -4.4852977100e-06 -2.3085324174e-10 -2.0527673528e-09 4.1023391281e-10 -1.4513533056e-04" charge=0 multiplicity=3 method=b3lyp basis=def2-svpd config_type=o2_q0_m3 sample_index=53 bond_length=5.350000 units=atomic
O         0.0000000000       0.0000000000       0.0000000000  -2.811209806127e-14   2.341952543914e-14   1.311431815154e-03
O         0.0000000000       0.0000000000       5.3500000000   8.738706281563e-15   5.335250898658e-15  -1.311431816301e-03
