2
Properties=species:S:1:pos:R:3:forces:R:3 energy=-7.568283809292e+01 dipole="1.3504801349e-10 -1.7555484915e-09 -6.6190879224e-01" quadrupole="-4.1621069561e+00 7.9330938955e-02 -3.7290647557e-10 7.9330938955e-02 -5.1911321027e+00 4.6078503483e-09 -3.7290647557e-10 4.6078503483e-09 -3.4382625611e+00" polarizability="6.1667592236e+00 -1.1019775117e-01 -2.4767544493e-10 -1.1019689195e-01 7.5961655260e+00 3.2055187017e-09 8.4885995594e-09 2.1467300581e-07 8.8135962768e+00" dipole_derivatives="-3.5730885231e-01 -1.0345484818e-06 -2.9662396046e-11 1.0345981327e-06 -3.5730885245e-01 6.1533280895e-10 -6.8060113101e-08 3.8444314399e-07 -1.3156985861e-01 3.5730845012e-01 -3.0022801988e-07 4.6200113838e-11 3.0022786978e-07 3.5730845025e-01 -5.9859845811e-10 6.8060251879e-08 -3.8445421846e-07 1.3157021382e-01" charge=0 multiplicity=2 method=b3lyp basis=def2-svpd config_type=oh_q0_m2 sample_index=0 temperature=500.0 units=atomic
O        -0.0000000000       0.0000000002       0.0581064394   3.741429162356e-13  -4.891520906998e-12  -1.852141658721e-03
H         0.0000000002      -0.0000000024      -0.9221913604  -3.770762252143e-13   4.911113253371e-12   1.851761241757e-03
2
Properties=species:S:1:pos:R:3:forces:R:3 energy=-7.568073587977e+01 dipole="3.0744643236e-09 -4.3829169823e-08 -6.7390484864e-01" quadrupole="-4.3384665268e+00 3.6107058663e-01 -2.7922522466e-08 3.6107058663e-01 -5.0951782229e+00 1.1449889781e-07 -2.7922522466e-08 1.1449889781e-07 -3.3594423729e+00" polarizability="6.4584992817e+00 -5.1416634776e-01 1.9648823608e-08 -5.1416637945e-01 7.5360684253e+00 1.2713027288e-07 -7.1361583395e-07 1.1044067851e-07 9.5262863489e+00" dipole_derivatives="-3.4617279275e-01 1.1225379071e-07 -1.0919533606e-09 -1.1228181599e-07 -3.4617279280e-01 1.4567299637e-08 -5.3681753487e-08 -6.4138777622e-08 -1.2304314545e-01 3.4617318762e-01 1.7471212069e-09 1.0748794836e-09 -1.7443644992e-09 3.4617318768e-01 -1.4584728727e-08 5.3703180791e-08 6.4127952948e-08 1.2295772652e-01" charge=0 multiplicity=2 method=b3lyp basis=def2-svpd config_type=oh_q0_m2 sample_index=1 temperature=500.0 units=atomic
O        -0.0000000003       0.0000000040       0.0610628134   1.847950913149e-10  -2.634356546405e-09  -4.050502326801e-02
H         0.0000000044      -0.0000000630      -0.9691111601  -1.847962290547e-10   2.634339427360e-09   4.050485501049e-02
2
Properties=species:S:1:pos:R:3:forces:R:3 energy=-7.568245908486e+01 dipole="-1.2341044491e-09 1.8019352597e-08 -6.5626464217e-01" quadrupole="-4.8585089447e+00 -4.7912121435e-01 -1.0540316186e-08 -4.7912121435e-01 -4.4575770143e+00 -2.6114968929e-08 -1.0540316186e-08 -2.6114968929e-08 -3.4717432273e+00" polarizability="7.1053636578e+00 6.5677939043e-01 2.0544046375e-08 6.5677961132e-01 6.5557590904e+00 -5.4742498221e-08 1.3669947030e-07 -9.2975132051e-07 8.5112809021e+00" dipole_derivatives="-3.6253643918e-01 -1.5763918644e-06 4.4586582219e-10 1.5763741004e-06 -3.6253643911e-01 -6.2379483796e-09 2.6347146687e-08 1.5678902621e-08 -1.3532032299e-01 3.6253600513e-01 -4.0159041626e-07 -4.2074932552e-10 4.0159024571e-07 3.6253600506e-01 6.2228987398e-09 -2.6336766101e-08 -1.5677625864e-08 1.3538019358e-01" charge=0 multiplicity=2 method=b3lyp basis=def2-svpd config_type=oh_q0_m2 sample_index=2 temperature=500.0 units=atomic
O         0.0000000001      -0.0000000016       0.0567801817   3.821457042809e-11  -5.586642036521e-10   2.034676414767e-02
H        -0.0000000017       0.0000000247      -0.9011426880  -3.823681864908e-11   5.586351471513e-10  -2.034699912919e-02
2
Properties=species:S:1:pos:R:3:forces:R:3 energy=-7.567883088234e+01 dipole="-3.9459441808e-09 5.7075313509e-08 -6.4514983524e-01" quadrupole="-5.1233049588e+00 -1.2558066534e-01 -1.3350242575e-09 -1.2558066534e-01 -4.1206787942e+00 -5.1356578428e-08 -1.3350242575e-09 -5.1356578428e-08 -3.5315059927e+00" polarizability="7.4041505196e+00 1.6728953080e-01 1.8150313462e-08 1.6729002278e-01 6.0684963282e+00 -1.6829896391e-07 2.0734886145e-07 -2.9989628733e-07 7.9682392174e+00" dipole_derivatives="-3.7287935406e-01 1.8047664509e-08 1.3173410146e-09 -1.8078049556e-08 -3.7287935385e-01 -2.0223909347e-08 2.2761698082e-07 -3.0567259834e-07 -1.4237748047e-01 3.7288099108e-01 3.7529609031e-08 -1.3384537996e-09 -3.7539428241e-08 3.7288099085e-01 2.0227449039e-08 -2.2762780549e-07 3.0566807419e-07 1.4235880841e-01" charge=0 multiplicity=2 method=b3lyp basis=def2-svpd config_type=oh_q0_m2 sample_index=3 temperature=500.0 units=atomic
O         0.0000000003      -0.0000000048       0.0542703963   4.455638823159e-10  -6.444769559388e-09   7.284786150621e-02
H        -0.0000000053       0.0000000762      -0.8613105722  -4.455636744612e-10   6.444755039377e-09  -7.284810649254e-02
2
Properties=species:S:1:pos:R:3:forces:R:3 energy=-7.566730059865e+01 dipole="8.6484039893e-09 -1.2481916856e-07 -6.9666363289e-01" quadrupole="-5.3066273300e+00 -1.3040772609e-01 -3.1207923844e-09 -1.3040772609e-01 -4.2861141338e+00 1.9706571299e-07 -3.1207923844e-09 1.9706571299e-07 -3.1769020795e+00" polarizability="8.0064261651e+00 1.9231931440e-01 -7.4423076894e-08 1.9231924403e-01 6.5014523998e+00 8.4783938952e-07 -1.8872614085e-08 8.4519362870e-07 1.1214054497e+01" dipole_derivatives="-3.2457938314e-01 1.1970138003e-07 -2.6760522132e-09 -1.1976539612e-07 -3.2457938246e-01 3.8744515285e-08 4.6540105103e-08 2.6956352428e-07 -1.0521197865e-01 3.2457888145e-01 1.1248447924e-09 2.6504199039e-09 -1.0730381165e-09 3.2457888071e-01 -3.8736078672e-08 -4.6541603904e-08 -2.6956271937e-07 1.0521321714e-01" charge=0 multiplicity=2 method=b3lyp basis=def2-svpd config_type=oh_q0_m2 sample_index=4 temperature=500.0 units=atomic
O        -0.0000000008       0.0000000121       0.0673244161   1.090539817675e-09  -1.573863489980e-08  -8.784331569015e-02
H         0.0000000133      -0.0000001914      -1.0684873391  -1.090498671527e-09   1.573875671706e-08   8.784405474261e-02
2
Properties=species:S:1:pos:R:3:forces:R:3 energy=-7.567710913946e+01 dipole="5.1138938246e-09 -7.3576592168e-08 -6.8233402302e-01" quadrupole="-5.2699257098e+00 -1.8216848304e-02 -1.2787044066e-08 -1.8216848304e-02 -4.2215524357e+00 9.9559921377e-08 -1.2787044066e-08 9.9559921377e-08 -3.2972557585e+00" polarizability="7.8436693975e+00 2.6329810799e-02 -1.9712100986e-08 2.6330080957e-02 6.3283919454e+00 4.0694555726e-07 -1.6005272023e-06 4.3463900383e-07 1.0093640893e+01" dipole_derivatives="-3.3827399197e-01 1.1978089082e-07 -1.7074858756e-09 -1.1975238011e-07 -3.3827399185e-01 2.5766317191e-08 -4.0292547077e-08 -1.9760251768e-07 -1.1659089988e-01 3.3827402337e-01 5.5384708694e-11 1.6879978023e-09 -5.6933323785e-11 3.3827402329e-01 -2.5771953592e-08 4.0298223092e-08 1.9758897296e-07 1.1658703213e-01" charge=0 multiplicity=2 method=b3lyp basis=def2-svpd config_type=oh_q0_m2 sample_index=5 temperature=500.0 units=atomic
O        -0.0000000005       0.0000000068       0.0632702421   4.617448545730e-10  -6.643288993077e-09  -6.160848186516e-02
H         0.0000000075      -0.0000001083      -1.0041446556  -4.617437012936e-10   6.643337085359e-09   6.160900739632e-02
2
Properties=species:S:1:pos:R:3:forces:R:3 energy=-7.567670818621e+01 dipole="-4.8358273177e-09 6.9977637578e-08 -6.4147372580e-01" quadrupole="-5.0637212266e+00 2.4593791739e-01 3.8247418408e-08 2.4593791739e-01 -4.1566817089e+00 -6.8122327056e-08 3.8247418408e-08 -6.8122327056e-08 -3.5495727239e+00" polarizability="7.3046464954e+00 -3.2427870238e-01 -3.1381596512e-08 -3.2427916098e-01 6.1086959034e+00 -1.8140239838e-07 1.6069299818e-07 -3.4881570138e-07 7.8022176992e+00" dipole_derivatives="-3.7632958299e-01 -1.2888563833e-08 2.7704466330e-09 1.2923392524e-08 -3.7632958299e-01 -2.5155744264e-08 2.4332036386e-08 -2.4623741934e-07 -1.4447204915e-01 3.7633133605e-01 8.7261126089e-08 -2.7707324084e-09 -8.7264902534e-08 3.7633133604e-01 2.5154357610e-08 -2.4317992064e-08 2.4624102757e-07 1.4447958593e-01" charge=0 multiplicity=2 method=b3lyp basis=def2-svpd config_type=oh_q0_m2 sample_index=6 temperature=500.0 units=atomic
O         0.0000000004      -0.0000000058       0.0534664430   7.017050494936e-10  -1.015553649688e-08   9.309427632315e-02
H        -0.0000000064       0.0000000926      -0.8485512494  -7.017684867727e-10   1.015556115674e-08  -9.309443137191e-02
2
Properties=species:S:1:pos:R:3:forces:R:3 energy=-7.566726499102e+01 dipole="-7.6018019967e-09 1.0919974138e-07 -6.3049231750e-01" quadrupole="-4.0624668761e+00 1.7847950301e-02 8.7006080130e-09 1.7847950301e-02 -5.0881183048e+00 -2.5810368884e-07 8.7006080130e-09 -2.5810368884e-07 -3.5988281646e+00" polarizability="5.9679034723e+00 -2.2775586064e-02 1.2537086728e-08 -2.2775410048e-02 7.2766889425e+00 -1.0943299832e-08 -1.0207558787e-07 -2.8154259351e-07 7.3411194762e+00" dipole_derivatives="-3.8679067823e-01 -1.6401401587e-07 2.8195027881e-09 1.6457103405e-07 -3.8679065096e-01 -4.0956840818e-08 -3.2046085230e-07 -6.2202187845e-09 -1.5023917712e-01 3.8679271513e-01 3.9016026593e-07 -2.8189778649e-09 -3.9069815413e-07 3.8679268790e-01 4.0974099363e-08 3.2049010668e-07 6.1907978743e-09 1.5023374182e-01" charge=0 multiplicity=2 method=b3lyp basis=def2-svpd config_type=oh_q0_m2 sample_index=7 temperature=500.0 units=atomic
O         0.0000000006      -0.0000000089       0.0511299131   1.971620429833e-09  -2.832300513892e-08   1.635300111582e-01
H        -0.0000000098       0.0000001405      -0.8114688255  -1.971599999357e-09   2.832281525999e-08  -1.635289472442e-01
2
Properties=species:S:1:pos:R:3:forces:R:3 energy=-7.568054086151e+01 dipole="-3.0706582744e-09 4.3546684892e-08 -6.4898750848e-01" quadrupole="-4.4156802706e+00 4.6925485216e-01 3.5715229483e-08 4.6925485216e-01 -4.8530512767e+00 -9.2218571593e-08 3.5715229483e-08 -9.2218571593e-08 -3.5117623174e+00" polarizability="6.4737856092e+00 -6.3170537563e-01 -3.4192490836e-08 -6.3170552276e-01 7.0625688663e+00 -6.9736783359e-08 1.4097601808e-07 -8.1562742311e-07 8.1484587698e+00" dipole_derivatives="-3.6929652439e-01 4.0792910504e-08 1.1055968140e-09 -4.0806063094e-08 -3.6929652421e-01 -1.5385408075e-08 -1.3988110670e-07 3.2258040683e-07 -1.3994927807e-01 3.6929801882e-01 1.6549798141e-08 -1.0953118570e-09 -1.6554905950e-08 3.6929801863e-01 1.5381693161e-08 1.3989084890e-07 -3.2258110072e-07 1.4002649180e-01" charge=0 multiplicity=2 method=b3lyp basis=def2-svpd config_type=oh_q0_m2 sample_index=8 temperature=500.0 units=atomic
O         0.0000000003      -0.0000000037       0.0551228594   2.526176162588e-10  -3.576183392277e-09   5.330500220226e-02
H        -0.0000000041       0.0000000587      -0.8748397808  -2.526116186184e-10   3.576205155245e-09  -5.330533119691e-02
2
Properties=species:S:1:pos:R:3:forces:R:3 energy=-7.567866567755e+01 dipole="4.3205390814e-09 -6.2357950738e-08 -6.7917170542e-01" quadrupole="-5.2305542814e+00 1.6964443212e-01 -2.7717992569e-08 1.6964443212e-01 -4.2390871993e+00 8.5387691342e-08 -2.7717992569e-08 8.5387691342e-08 -3.3212846727e+00" polarizability="7.7646246905e+00 -2.4388707735e-01 9.0881531628e-09 -2.4388841578e-01 6.3392392440e+00 3.2357234811e-07 -1.4016186870e-06 5.0102214883e-07 9.8736632853e+00" dipole_derivatives="-3.4124764704e-01 1.1741286270e-07 -1.3923001673e-09 -1.1739914861e-07 -3.4124764694e-01 2.0403380882e-08 5.0540530094e-08 -4.7776865797e-08 -1.1907913708e-01 3.4124780655e-01 4.8817592924e-10 1.4054460680e-09 -4.9751170934e-10 3.4124780646e-01 -2.0423888328e-08 -5.0547815933e-08 4.7774451062e-08 1.1900242357e-01" charge=0 multiplicity=2 method=b3lyp basis=def2-svpd config_type=oh_q0_m2 sample_index=9 temperature=500.0 units=atomic
O        -0.0000000004       0.0000000057       0.0624282357   3.449801002646e-10  -4.978782148520e-09  -5.422683517930e-02
H         0.0000000063      -0.0000000910      -0.9907814035  -3.449667920877e-10   4.978821789501e-09   5.422699982151e-02
2
Properties=species:S:1:pos:R:3:forces:R:3 energy=-7.567668785441e+01 dipole="5.2937654529e-09 -7.6349243976e-08 -6.8311813766e-01" quadrupole="-4.8669798787e+00 -5.1107291827e-01 4.4918677035e-08 -5.1107291827e-01 -4.6299407795e+00 1.4566350254e-07 4.4918677035e-08 1.4566350254e-07 -3.2911633397e+00" polarizability="7.2660252136e+00 7.3952623103e-01 -1.0576101788e-07 7.3952623068e-01 6.9230366392e+00 3.6720274852e-07 5.1607404973e-08 3.5664706819e-07 1.0149582488e+01" dipole_derivatives="-3.3753440981e-01 1.1992974329e-07 -1.7165487777e-09 -1.1998064160e-07 -3.3753440985e-01 2.4814310485e-08 -2.8846033895e-07 -5.1823573211e-08 -1.1598587806e-01 3.3753440944e-01 -3.9052212629e-11 1.7244602009e-09 3.6148541122e-11 3.3753440943e-01 -2.4816458073e-08 2.8834511168e-07 5.1744108998e-08 1.1598156904e-01" charge=0 multiplicity=2 method=b3lyp basis=def2-svpd config_type=oh_q0_m2 sample_index=10 temperature=500.0 units=atomic
O        -0.0000000005       0.0000000071       0.0634817421   4.909129822516e-10  -7.079757153962e-09  -6.334416205167e-02
H         0.0000000078      -0.0000001126      -1.0075013145  -4.909129795411e-10   7.079786373406e-09   6.334445675925e-02
2
Properties=species:S:1:pos:R:3:forces:R:3 energy=-7.567757827219e+01 dipole="-4.5351922491e-09 6.5054615051e-08 -6.4288060726e-01" quadrupole="-4.5142986145e+00 5.0639671741e-01 5.8072316828e-08 5.0639671741e-01 -4.7151148340e+00 -1.2225644383e-07 5.8072316828e-08 -1.2225644383e-07 -3.5427544367e+00" polarizability="6.5850829689e+00 -6.7043910169e-01 -5.8373666666e-08 -6.7043924482e-01 6.8509449648e+00 -9.7573461971e-08 1.2745089660e-07 -5.5457652509e-07 7.8650223517e+00" dipole_derivatives="-3.7500665769e-01 -7.0966677507e-09 1.9073862144e-09 4.0599469117e-09 -3.7500665404e-01 -2.3380231838e-08 -3.2386591742e-06 -4.0258794354e-06 -1.4367574119e-01 3.7500836948e-01 7.1963077004e-08 -1.9099996296e-09 -6.8863166181e-08 3.7500836586e-01 2.3384923751e-08 3.2380837733e-06 4.0252185196e-06 1.4367717152e-01" charge=0 multiplicity=2 method=b3lyp basis=def2-svpd config_type=oh_q0_m2 sample_index=11 temperature=500.0 units=atomic
O         0.0000000004      -0.0000000054       0.0537727402   6.007520026582e-10  -8.617827454741e-09   8.516307976873e-02
H        -0.0000000060       0.0000000864      -0.8534124094  -6.008044698035e-10   8.617793966123e-09  -8.516268454451e-02
2
Properties=species:S:1:pos:R:3:forces:R:3 energy=-7.567717620935e+01 dipole="-4.6849112606e-09 6.7363324778e-08 -6.4221584494e-01" quadrupole="-5.1207037488e+00 9.0333806828e-02 2.0952029368e-08 9.0333806828e-02 -4.1044504014e+00 -5.9267426773e-08 2.0952029368e-08 -5.9267426773e-08 -3.5459908946e+00" polarizability="7.3839921278e+00 -1.1935564529e-01 -9.1393338929e-09 -1.1935604448e-01 6.0412054717e+00 -1.8638625789e-07 1.8130093455e-07 -2.8657832885e-07 7.8352326305e+00" dipole_derivatives="-3.7563139537e-01 -5.5751430795e-09 1.6618133786e-09 5.5951030044e-09 -3.7563139494e-01 -2.4356669926e-08 5.3951371148e-08 -1.6763709865e-07 -1.4405689012e-01 3.7563312719e-01 7.5081587903e-08 -1.6848349489e-09 -7.5096064494e-08 3.7563312682e-01 2.4347166286e-08 -5.3943127742e-08 1.6763121446e-07 1.4405832138e-01" charge=0 multiplicity=2 method=b3lyp basis=def2-svpd config_type=oh_q0_m2 sample_index=12 temperature=500.0 units=atomic
O         0.0000000004      -0.0000000056       0.0536277967   6.483906598391e-10  -9.322976566669e-09   8.888164653786e-02
H        -0.0000000062       0.0000000893      -0.8511120500  -6.483817662922e-10   9.322993557072e-09  -8.888181570484e-02
2
Properties=species:S:1:pos:R:3:forces:R:3 energy=-7.568112971313e+01 dipole="-2.5712459057e-09 3.7665259455e-08 -6.5065485936e-01" quadrupole="-5.1446066672e+00 -1.1645108712e-01 -2.2971654261e-10 -1.1645108712e-01 -4.1349249580e+00 -3.6142446185e-08 -2.2971654261e-10 -3.6142446185e-08 -3.5028956617e+00" polarizability="7.4646102157e+00 1.5743185002e-01 4.1384607474e-09 1.5743235960e-01 6.0996596329e+00 -7.2080985756e-08 1.7903471542e-07 -2.9823775915e-07 8.2290838225e+00" dipole_derivatives="-3.6774345004e-01 -1.6045318788e-06 9.1250681465e-10 1.6045512137e-06 -3.6774345023e-01 -1.3215045568e-08 -6.9149269644e-08 9.3263924361e-08 -1.3903559514e-01 3.6774285095e-01 -4.4710133977e-07 -9.0092406600e-10 4.4710150049e-07 3.6774285108e-01 1.3241374117e-08 6.9152933380e-08 -9.3253266220e-08 1.3900928009e-01" charge=0 multiplicity=2 method=b3lyp basis=def2-svpd config_type=oh_q0_m2 sample_index=13 temperature=500.0 units=atomic
O         0.0000000002      -0.0000000032       0.0554977281   1.789238816449e-10  -2.621957197935e-09   4.529378022715e-02
H        -0.0000000035       0.0000000510      -0.8807892178  -1.789927015947e-10   2.621999232021e-09  -4.529414802782e-02
2
Properties=species:S:1:pos:R:3:forces:R:3 energy=-7.568079211400e+01 dipole="3.0109378730e-09 -4.3194892577e-08 -6.7373301231e-01" quadrupole="-4.2093613033e+00 1.2871232934e-01 -1.2009825688e-08 1.2871232934e-01 -5.2231176097e+00 1.1999869119e-07 -1.2009825688e-08 1.1999869119e-07 -3.3606497020e+00" polarizability="6.2739734982e+00 -1.8319735521e-01 -2.7073809760e-09 -1.8319722787e-01 7.7168626503e+00 1.1445839868e-07 -5.1665490859e-07 1.0519631310e-07 9.5153258192e+00" dipole_derivatives="-3.4633304409e-01 1.1126620852e-07 -1.0183569724e-09 -1.1122998188e-07 -3.4633304376e-01 1.4246137652e-08 2.1185803112e-07 -9.1547353032e-08 -1.2302958818e-01 3.4633344706e-01 1.8000191931e-09 1.0299725219e-09 -1.8164742485e-09 3.4633344669e-01 -1.4238345350e-08 -2.1185463106e-07 9.1553140069e-08 1.2308181764e-01" charge=0 multiplicity=2 method=b3lyp basis=def2-svpd config_type=oh_q0_m2 sample_index=14 temperature=500.0 units=atomic
O        -0.0000000003       0.0000000039       0.0610189908   1.789084119243e-10  -2.566139568589e-09  -4.002562904428e-02
H         0.0000000043      -0.0000000621      -0.9684156641  -1.788752385074e-10   2.566148731479e-09   4.002561750800e-02
2
Properties=species:S:1:pos:R:3:forces:R:3 energy=-7.567617314774e+01 dipole="-5.0594514867e-09 7.2898871814e-08 -6.4066240543e-01" quadrupole="-5.0950400014e+00 1.6842512393e-01 3.1364040907e-08 1.6842512393e-01 -4.1201721470e+00 -6.5771549479e-08 3.1364040907e-08 -6.5771549479e-08 -3.5534506714e+00" polarizability="7.3418359034e+00 -2.2162667605e-01 -2.1683792728e-08 -2.2162716458e-01 6.0590159697e+00 -1.9151696000e-07 1.6920699084e-07 -3.1945994026e-07 7.7664079016e+00" dipole_derivatives="-3.7709391930e-01 -2.0191161792e-08 1.8868486919e-09 2.0255542545e-08 -3.7709391937e-01 -2.6467454031e-08 -2.9010563396e-07 -1.2984596731e-07 -1.4493444118e-01 3.7709569451e-01 9.8830071950e-08 -1.8106167530e-09 -9.8833623007e-08 3.7709569454e-01 2.6472978476e-08 2.9011057445e-07 1.2984333053e-07 1.4493587584e-01" charge=0 multiplicity=2 method=b3lyp basis=def2-svpd config_type=oh_q0_m2 sample_index=15 temperature=500.0 units=atomic
O         0.0000000004      -0.0000000061       0.0532905905   7.721836732483e-10  -1.112545148606e-08   9.777446254534e-02
H        -0.0000000067       0.0000000962      -0.8457603429  -7.721451224885e-10   1.112537814781e-08  -9.777400284743e-02
2
Properties=species:S:1:pos:R:3:forces:R:3 energy=-7.568254728213e+01 dipole="-1.0943929846e-09 1.5868684401e-08 -6.5689051104e-01" quadrupole="-5.1749235060e+00 -6.9544350751e-02 1.1571212315e-09 -6.9544350751e-02 -4.1452621895e+00 -1.6210782975e-08 1.1571212315e-09 -1.6210782975e-08 -3.4681381683e+00" polarizability="7.5430848214e+00 9.5488413736e-02 3.9591834269e-09 9.5489101002e-02 6.1292978163e+00 -5.8266188937e-08 1.0371228473e-07 7.3896962798e-07 8.5438648653e+00" dipole_derivatives="-3.6195642916e-01 -1.5440666811e-06 3.7601897963e-10 1.5440657767e-06 -3.6195642904e-01 -5.4974749551e-09 1.4334933240e-07 -4.9436954530e-08 -1.3497327604e-01 3.6195600457e-01 -3.9346383837e-07 -3.7830350976e-10 3.9346384379e-07 3.6195600446e-01 5.4843019834e-09 -1.4333972898e-07 4.9446002848e-08 1.3497039309e-01" charge=0 multiplicity=2 method=b3lyp basis=def2-svpd config_type=oh_q0_m2 sample_index=16 temperature=500.0 units=atomic
O         0.0000000001      -0.0000000014       0.0569254120   2.955767068066e-11  -4.286736907124e-10   1.774627961169e-02
H        -0.0000000015       0.0000000218      -0.9034475979  -2.956581726231e-11   4.287142697061e-10  -1.774676783736e-02
2
Properties=species:S:1:pos:R:3:forces:R:3 energy=-7.568000899538e+01 dipole="3.5128782814e-09 -5.1068097415e-08 -6.7595564160e-01" quadrupole="-4.2088561438e+00 -9.3561499673e-02 2.5526369776e-09 -9.3561499673e-02 -5.2387523617e+00 1.4253670503e-07 2.5526369776e-09 1.4253670503e-07 -3.3448552563e+00" polarizability="6.2821716531e+00 1.3371923634e-01 -2.7746541602e-08 1.3371807846e-01 7.7541117838e+00 1.4456577196e-07 4.4433679231e-07 1.3807008237e-07 9.6588294096e+00" dipole_derivatives="-3.4425871646e-01 1.1274988232e-07 -1.0981744298e-09 -1.1273312155e-07 -3.4425871642e-01 1.6751562745e-08 4.3208756018e-08 -2.6391130947e-07 -1.2146290215e-01 3.4425901574e-01 1.1179571308e-09 1.0964675568e-09 -1.1194108679e-09 3.4425901572e-01 -1.6746419696e-08 -4.3226811020e-08 2.6393766339e-07 1.2144166010e-01" charge=0 multiplicity=2 method=b3lyp basis=def2-svpd config_type=oh_q0_m2 sample_index=17 temperature=500.0 units=atomic
O        -0.0000000003       0.0000000047       0.0615891753   2.393673901011e-10  -3.480321150220e-09  -4.606676486700e-02
H         0.0000000051      -0.0000000738      -0.9774649056  -2.394102649437e-10   3.480319323719e-09   4.606675084191e-02
2
Properties=species:S:1:pos:R:3:forces:R:3 energy=-7.568137708766e+01 dipole="-2.4274030862e-09 3.4954557803e-08 -6.5144503701e-01" quadrupole="-4.1376850585e+00 1.1809975570e-01 8.7272754268e-09 1.1809975570e-01 -5.1469744367e+00 -8.8869619953e-08 8.7272754268e-09 -8.8869619953e-08 -3.4986317829e+00" polarizability="6.1052535703e+00 -1.5998484624e-01 1.6850186470e-06 -1.5998387565e-01 7.4724390633e+00 -2.1195641673e-07 -9.3765769752e-08 -8.4779110276e-07 8.2677966260e+00" dipole_derivatives="-3.6700881523e-01 -1.5359588002e-06 8.7135796477e-10 1.5359413850e-06 -3.6700881526e-01 -1.2275544835e-08 1.7362641880e-07 8.0234818789e-08 -1.3848016523e-01 3.6700822470e-01 -4.3628414269e-07 -8.5084306452e-10 4.3628427604e-07 3.6700822472e-01 1.2261158951e-08 -1.7363707694e-07 -8.0226686405e-08 1.3849667913e-01" charge=0 multiplicity=2 method=b3lyp basis=def2-svpd config_type=oh_q0_m2 sample_index=18 temperature=500.0 units=atomic
O         0.0000000002      -0.0000000030       0.0556763542   1.549523705245e-10  -2.231940132552e-09   4.159537486443e-02
H        -0.0000000033       0.0000000474      -0.8836241438  -1.549943473828e-10   2.231902798145e-09  -4.159576726419e-02
2
Properties=species:S:1:pos:R:3:forces:R:3 energy=-7.567815296147e+01 dipole="-4.3119655597e-09 6.1569364013e-08 -6.4388076704e-01" quadrupole="-5.1340941179e+00 -1.8073962965e-02 8.9148714124e-09 -1.8073962965e-02 -4.1017336913e+00 -5.3754883707e-08 8.9148714124e-09 -5.3754883707e-08 -3.5378356653e+00" polarizability="7.4116688543e+00 2.4000745600e-02 5.6209529219e-09 2.4000836857e-02 6.0407857818e+00 -1.7806143185e-07 1.9637729834e-07 -2.6198943604e-07 7.9102163373e+00" dipole_derivatives="-3.7406824359e-01 8.3940810786e-09 1.5336690795e-09 -8.4890621961e-09 -3.7406823901e-01 -2.1604355935e-08 -3.0171781740e-08 -3.3546007638e-07 -1.4310332921e-01 3.7406992352e-01 5.1757108391e-08 -1.5376710857e-09 -5.1683093411e-08 3.7406991894e-01 2.1602964802e-08 3.0190405731e-08 3.3546870837e-07 1.4309811593e-01" charge=0 multiplicity=2 method=b3lyp basis=def2-svpd config_type=oh_q0_m2 sample_index=19 temperature=500.0 units=atomic
O         0.0000000004      -0.0000000052       0.0539914971   5.334790211264e-10  -7.617678673077e-09   7.966423925944e-02
H        -0.0000000057       0.0000000819      -0.8568842394  -5.334968987801e-10   7.617640151743e-09  -7.966386163794e-02
2
Properties=species:S:1:pos:R:3:forces:R:3 energy=-7.568279817046e+01 dipole="-4.0748659315e-10 6.1122695603e-09 -6.5966363618e-01" quadrupole="-5.1865301816e+00 5.3785919009e-02 1.6142424121e-09 5.3785919009e-02 -4.1518825839e+00 -6.5613287056e-09 1.6142424121e-09 -6.5613287056e-09 -3.4518441344e+00" polarizability="7.5758816562e+00 -7.4325092350e-02 8.5442493817e-08 -7.4325694055e-02 6.1460450603e+00 1.5869757991e-06 4.3276822049e-08 3.3167595585e-07 8.6910190557e+00" dipole_derivatives="-3.5938762198e-01 -1.6393128503e-06 1.7511402767e-10 1.6393118803e-06 -3.5938762200e-01 -1.7536092757e-09 -5.3935939048e-08 2.8048696699e-07 -1.3310023771e-01 3.5938729320e-01 -3.7275365466e-07 -1.6027125271e-10 3.7275397132e-07 3.5938729325e-01 1.7330057550e-09 5.3932525113e-08 -2.8048052769e-07 1.3310713124e-01" charge=0 multiplicity=2 method=b3lyp basis=def2-svpd config_type=oh_q0_m2 sample_index=20 temperature=500.0 units=atomic
O         0.0000000000      -0.0000000005       0.0575743343   4.080923268338e-12  -6.155376947631e-11   6.646310333234e-03
H        -0.0000000006       0.0000000085      -0.9137464660  -4.109223641490e-12   6.155055646743e-11  -6.646816916051e-03
2
Properties=species:S:1:pos:R:3:forces:R:3 energy=-7.567777633265e+01 dipole="-4.4607409000e-09 6.3866621894e-08 -6.4321835937e-01" quadrupole="-5.1318104356e+00 -1.8021313086e-02 9.2099569941e-09 -1.8021313086e-02 -4.0997669755e+00 -5.5402859199e-08 9.2099569941e-09 -5.5402859199e-08 -3.5411004831e+00" polarizability="7.4048528829e+00 2.3886768432e-02 5.6553693869e-09 2.3886858516e-02 6.0369095109e+00 -1.8230370756e-07 1.9614052545e-07 -2.6422885395e-07 7.8802301850e+00" dipole_derivatives="-3.7468967992e-01 2.2294511386e-09 1.6436345987e-09 -2.2327990136e-09 -3.7468967991e-01 -2.5472572212e-08 9.7947872035e-08 -1.5353529559e-07 -1.4348703105e-01 3.7469138119e-01 6.0894036039e-08 -1.6729447637e-09 -6.0883246123e-08 3.7469138119e-01 2.5471098851e-08 -9.7944041766e-08 1.5355297589e-07 1.4348180329e-01" charge=0 multiplicity=2 method=b3lyp basis=def2-svpd config_type=oh_q0_m2 sample_index=21 temperature=500.0 units=atomic
O         0.0000000004      -0.0000000053       0.0538464990   5.776106639839e-10  -8.270432147262e-09   8.329377654849e-02
H        -0.0000000059       0.0000000849      -0.8545830147  -5.776427195079e-10   8.270384498950e-09  -8.329338774270e-02
2
Properties=species:S:1:pos:R:3:forces:R:3 energy=-7.568205731940e+01 dipole="-1.7911016965e-09 2.5696896106e-08 -6.5407616779e-01" quadrupole="-4.1974156552e+00 -2.5218006664e-01 -8.0109118625e-09 -2.5218006664e-01 -5.1043682451e+00 -6.2977326780e-08 -8.0109118625e-09 -6.2977326780e-08 -3.4841423201e+00" polarizability="6.1931052048e+00 3.4385344096e-01 1.1548006289e-06 3.4385348288e-01 7.4297609849e+00 -2.8044878574e-07 1.4285800367e-07 -2.3141799535e-08 8.3991211547e+00" dipole_derivatives="-3.6456568412e-01 -1.5157663920e-06 4.4982913321e-10 1.5157793224e-06 -3.6456568399e-01 -8.9006311177e-09 -6.2699123671e-08 -3.2087743573e-07 -1.3677352811e-01 3.6456517068e-01 -4.1532041940e-07 -4.7633658541e-10 4.1532043972e-07 3.6456517053e-01 8.9428794259e-09 6.2701788206e-08 3.2088079416e-07 1.3681476275e-01" charge=0 multiplicity=2 method=b3lyp basis=def2-svpd config_type=oh_q0_m2 sample_index=22 temperature=500.0 units=atomic
O         0.0000000002      -0.0000000022       0.0562758471   8.142246831687e-11  -1.167690922456e-09   2.972153838216e-02
H        -0.0000000024       0.0000000351      -0.8931385318  -8.139656022182e-11   1.167702114675e-09  -2.972206769141e-02
2
Properties=species:S:1:pos:R:3:forces:R:3 energy=-7.568090461413e+01 dipole="2.9478870351e-09 -4.1991063489e-08 -6.7338231952e-01" quadrupole="-4.1924119772e+00 1.6513394651e-02 -4.6179004651e-09 1.6513394651e-02 -5.2376853563e+00 1.1696745698e-07 -4.6179004651e-09 1.1696745698e-07 -3.3631055719e+00" polarizability="6.2484948599e+00 -2.3493267407e-02 -1.2762356289e-08 -2.3493048546e-02 7.7355345389e+00 1.0946533423e-07 3.3546267146e-07 1.0428356096e-07 9.4930442650e+00" dipole_derivatives="-3.4665973416e-01 1.1917220900e-07 -1.0089584428e-09 -1.1806340023e-07 -3.4665982041e-01 1.3917034482e-08 2.0496521147e-07 9.3875740514e-09 -1.2335606890e-01 3.4666015372e-01 -4.9647094244e-09 1.0150458407e-09 3.6099789357e-09 3.4666023995e-01 -1.3924298745e-08 -2.0526788602e-07 -9.3662300138e-09 1.2335180184e-01" charge=0 multiplicity=2 method=b3lyp basis=def2-svpd config_type=oh_q0_m2 sample_index=23 temperature=500.0 units=atomic
O        -0.0000000003       0.0000000038       0.0609297228   1.708873922352e-10  -2.434540176635e-09  -3.904131711891e-02
H         0.0000000042      -0.0000000603      -0.9669989162  -1.708826529164e-10   2.434568584493e-09   3.904154133784e-02
2
Properties=species:S:1:pos:R:3:forces:R:3 energy=-7.568022032736e+01 dipole="-3.2174636548e-09 4.6363385686e-08 -6.4817430517e-01" quadrupole="-4.1222536054e+00 -9.0842669916e-02 -3.5227822029e-09 -9.0842669916e-02 -5.1412235885e+00 -1.1583493357e-07 -3.5227822029e-09 -1.1583493357e-07 -3.5160224442e+00" polarizability="6.0769924802e+00 1.2200393771e-01 1.8709538077e-08 1.2200312981e-01 7.4455275366e+00 -4.8135555695e-08 -8.7847583228e-08 -7.0447877115e-07 8.1096623090e+00" dipole_derivatives="-3.7005428972e-01 3.5261330829e-08 -1.0755284175e-08 -3.5308111469e-08 -3.7005428898e-01 -1.5528844189e-08 2.6243454632e-07 2.1065701961e-07 -1.4053312298e-01 3.7005581569e-01 1.9637552590e-08 1.0723788644e-08 -1.9625767042e-08 3.7005581498e-01 1.5524697630e-08 -2.6243707207e-07 -2.1066298705e-07 1.4053471511e-01" charge=0 multiplicity=2 method=b3lyp basis=def2-svpd config_type=oh_q0_m2 sample_index=24 temperature=500.0 units=atomic
O         0.0000000003      -0.0000000039       0.0549410628   2.844732580089e-10  -4.099704231028e-09   5.731524411601e-02
H        -0.0000000043       0.0000000624      -0.8719545358  -2.844456941982e-10   4.099726113891e-09  -5.731550537861e-02
2
Properties=species:S:1:pos:R:3:forces:R:3 energy=-7.568230108744e+01 dipole="-1.4422196734e-09 2.1358580992e-08 -6.5530568083e-01" quadrupole="-4.1727788907e+00 1.9254882018e-01 7.8369343098e-09 1.9254882018e-01 -5.1370332638e+00 -5.4576494971e-08 7.8369343098e-09 -5.4576494971e-08 -3.4772152931e+00" polarizability="6.1627715928e+00 -2.6335205638e-01 7.1314228898e-07 -2.6335202830e-01 7.4816202521e+00 4.3715594454e-08 1.0024558405e-07 -1.0413361568e-06 8.4618038454e+00" dipole_derivatives="-3.6342526317e-01 -1.6307788002e-06 5.4574631421e-10 1.6307705136e-06 -3.6342526336e-01 -7.3953051153e-09 3.0738467327e-09 2.5713739471e-07 -1.3601502844e-01 3.6342481540e-01 -4.1403329903e-07 -5.0074873129e-10 4.1403322543e-07 3.6342481561e-01 7.4120194573e-09 -3.0855595856e-09 -2.5713309260e-07 1.3601437296e-01" charge=0 multiplicity=2 method=b3lyp basis=def2-svpd config_type=oh_q0_m2 sample_index=25 temperature=500.0 units=atomic
O         0.0000000001      -0.0000000018       0.0565585519   5.369810104396e-11  -7.952719641695e-10   2.439939243416e-02
H        -0.0000000020       0.0000000293      -0.8976252625  -5.369069724418e-11   7.952776644709e-10  -2.439994344161e-02
2
Properties=species:S:1:pos:R:3:forces:R:3 energy=-7.567620570011e+01 dipole="-5.0584766847e-09 7.2747446346e-08 -6.4071066993e-01" quadrupole="-4.1543182252e+00 -2.4568606694e-01 -2.3124346088e-08 -2.4568606694e-01 -5.0612046668e+00 -1.6922128794e-07 -2.3124346088e-08 -1.6922128794e-07 -3.5532212387e+00" polarizability="6.1040338214e+00 3.2323956368e-01 4.9525393677e-08 3.2323955549e-01 7.2971704605e+00 -5.6037420257e-08 2.0909820747e-07 -5.0907517788e-07 7.7685314965e+00" dipole_derivatives="-3.7704842499e-01 -1.9928228376e-08 2.3690448083e-09 1.9933850837e-08 -3.7704842505e-01 -2.6442624229e-08 1.5610276960e-07 -4.8680243170e-07 -1.4490369492e-01 3.7705019888e-01 9.8535297423e-08 -2.3887691265e-09 -9.8532598527e-08 3.7705019893e-01 2.6445351027e-08 -1.5609724624e-07 4.8679987819e-07 1.4490911060e-01" charge=0 multiplicity=2 method=b3lyp basis=def2-svpd config_type=oh_q0_m2 sample_index=26 temperature=500.0 units=atomic
O         0.0000000004      -0.0000000061       0.0533010350   7.697778207152e-10  -1.106960482727e-08   9.749345566730e-02
H        -0.0000000067       0.0000000960      -0.8459261043  -7.698049528610e-10   1.106959866599e-08  -9.749342835496e-02
2
Properties=species:S:1:pos:R:3:forces:R:3 energy=-7.568085541004e+01 dipole="-2.7861156681e-09 4.0452618884e-08 -6.4984589104e-01" quadrupole="-5.1266878284e+00 1.6904650949e-01 1.7511456906e-08 1.6904650949e-01 -4.1475992679e+00 -4.0647445015e-08 1.7511456906e-08 -4.0647445015e-08 -3.5072195257e+00" polarizability="7.4360258494e+00 -2.2808925206e-01 -1.8231678261e-08 -2.2808981343e-01 6.1148825260e+00 -1.8001807867e-07 1.6387782340e-07 -3.3592343842e-07 8.1897841340e+00" dipole_derivatives="-3.6849718800e-01 4.3908098612e-08 9.4775257262e-10 -4.3941343320e-08 -3.6849718797e-01 -1.4778069796e-08 3.9141967445e-08 2.6567137379e-08 -1.3950318502e-01 3.6849864856e-01 1.4105045958e-08 -9.4261956483e-10 -1.4072285711e-08 3.6849864853e-01 1.4784852198e-08 -3.9142772357e-08 -2.6557089861e-08 1.3950462713e-01" charge=0 multiplicity=2 method=b3lyp basis=def2-svpd config_type=oh_q0_m2 sample_index=27 temperature=500.0 units=atomic
O         0.0000000002      -0.0000000034       0.0553155037   2.108009719269e-10  -3.058891014726e-09   4.914512044471e-02
H        -0.0000000038       0.0000000547      -0.8778971852  -2.107816739956e-10   3.058920734659e-09  -4.914560354365e-02
2
Properties=species:S:1:pos:R:3:forces:R:3 energy=-7.567915959944e+01 dipole="4.0748365770e-09 -5.8473948783e-08 -6.7805562587e-01" quadrupole="-4.2354410724e+00 -1.6957800570e-01 9.2138106295e-09 -1.6957800570e-01 -5.2265342843e+00 1.6251817182e-07 9.2138106295e-09 1.6251817182e-07 -3.3295619060e+00" polarizability="6.3291015583e+00 2.4331770826e-01 -4.1977483379e-08 2.4331743208e-01 7.7511752038e+00 1.7796990746e-07 -8.8904182781e-07 1.6911169174e-07 9.7981206319e+00" dipole_derivatives="-3.4229396922e-01 1.1657979020e-07 -1.3152564888e-09 -1.1657573665e-07 -3.4229396925e-01 1.9154459573e-08 -4.3090198076e-08 -2.8634949967e-07 -1.1976863923e-01 3.4229417564e-01 7.6242823488e-10 1.3289873739e-09 -7.5904068225e-10 3.4229417568e-01 -1.9145040859e-08 4.3080067291e-08 2.8633642679e-07 1.1984519378e-01" charge=0 multiplicity=2 method=b3lyp basis=def2-svpd config_type=oh_q0_m2 sample_index=28 temperature=500.0 units=atomic
O        -0.0000000004       0.0000000054       0.0621351314   3.093250374662e-10  -4.438761562318e-09  -5.147130351170e-02
H         0.0000000059      -0.0000000850      -0.9861296259  -3.093369180502e-10   4.438767816565e-09   5.147133029981e-02
2
Properties=species:S:1:pos:R:3:forces:R:3 energy=-7.568284088851e+01 dipole="-7.0164677481e-11 8.0869367946e-10 -6.6118435988e-01" quadrupole="-4.7603648792e+00 5.1325948589e-01 7.7233702652e-10 5.1325948589e-01 -4.5880821417e+00 -1.4227409613e-09 7.7233702652e-10 -1.4227409613e-09 -3.4426837857e+00" polarizability="6.9943577673e+00 -7.1186278743e-01 -6.9701735404e-10 -7.1186278626e-01 6.7554111013e+00 -2.4108393669e-09 7.7067472288e-09 -1.0230165999e-07 8.7736987192e+00" dipole_derivatives="-3.5797988065e-01 -5.9112633084e-07 5.7865911903e-12 5.9109769914e-07 -3.5797988055e-01 -3.0634872885e-10 4.3008430151e-08 -2.9809432700e-08 -1.3211751308e-01 3.5797942850e-01 -2.5811833850e-07 2.8526512136e-12 2.5811848879e-07 3.5797942839e-01 2.9854282315e-10 -4.3008596684e-08 2.9834329451e-08 1.3207020091e-01" charge=0 multiplicity=2 method=b3lyp basis=def2-svpd config_type=oh_q0_m2 sample_index=29 temperature=500.0 units=atomic
O         0.0000000000      -0.0000000001       0.0579340578  -6.875733641454e-14  -1.030447383689e-12   8.435683656216e-04
H        -0.0000000001       0.0000000011      -0.9194555389   1.147633355762e-14   1.055753963459e-12  -8.440405844894e-04
2
Properties=species:S:1:pos:R:3:forces:R:3 energy=-7.566224530250e+01 dipole="-8.6451954152e-09 1.2447063310e-07 -6.2625372198e-01" quadrupole="-4.4525874618e+00 5.0021227593e-01 1.1095832888e-07 5.0021227593e-01 -4.6712543456e+00 -2.1662326958e-07 1.1095832888e-07 -2.1662326958e-07 -3.6160260781e+00" polarizability="6.4531837534e+00 -6.2922674599e-01 -1.1426978035e-07 -6.2922679947e-01 6.7282363068e+00 -7.9670112474e-08 2.7253801360e-08 -2.6832221054e-07 7.1757503839e+00" dipole_derivatives="-3.9091202312e-01 -1.6701850658e-07 3.2524105870e-09 1.6298087975e-07 -3.9091200568e-01 -4.7478687014e-08 -2.8821631193e-07 4.0390760181e-07 -1.5232259473e-01 3.9091421294e-01 3.7087629123e-07 -3.2597943049e-09 -3.6677125276e-07 3.9091419552e-01 4.7491361915e-08 2.8757679571e-07 -4.0346803676e-07 1.5220806601e-01" charge=0 multiplicity=2 method=b3lyp basis=def2-svpd config_type=oh_q0_m2 sample_index=30 temperature=500.0 units=atomic
O         0.0000000007      -0.0000000100       0.0502508185   2.693995234828e-09  -3.879840641345e-08   1.952052349713e-01
H        -0.0000000110       0.0000001585      -0.7975169561  -2.694010815043e-09   3.879831294245e-08  -1.952045500605e-01
2
Properties=species:S:1:pos:R:3:forces:R:3 energy=-7.565530807670e+01 dipole="-9.8727479549e-09 1.4255651292e-07 -6.2131036745e-01" quadrupole="-5.0285871347e+00 1.6815713378e-01 6.0708828889e-08 1.6815713378e-01 -4.0641670931e+00 -1.0117258506e-07 6.0708828889e-08 -1.0117258506e-07 -3.6348557968e+00" polarizability="7.1517509467e+00 -2.0801173152e-01 -4.9980612070e-08 -2.0801209087e-01 5.9586980493e+00 -2.3180727090e-07 -1.4363847081e-07 -3.0996408147e-07 6.9908383402e+00" dipole_derivatives="-3.9579486143e-01 -2.5912824499e-07 3.7794047873e-09 2.4584636074e-07 -3.9579472060e-01 -5.5518525281e-08 -5.2472654000e-07 7.2393016581e-07 -1.5403703833e-01 3.9579723104e-01 6.1105438777e-07 -3.8079937049e-09 -6.0227931247e-07 3.9579708994e-01 5.5452862367e-08 5.2899268299e-07 -7.2454967026e-07 1.5431804918e-01" charge=0 multiplicity=2 method=b3lyp basis=def2-svpd config_type=oh_q0_m2 sample_index=31 temperature=500.0 units=atomic
O         0.0000000008      -0.0000000113       0.0492391683   3.746025220200e-09  -5.409043778128e-08   2.357444607615e-01
H        -0.0000000124       0.0000001793      -0.7814613331  -3.745991275379e-09   5.409023529745e-08  -2.357435063024e-01
2
Properties=species:S:1:pos:R:3:forces:R:3 energy=-7.567380058176e+01 dipole="6.4809470763e-09 -9.3438861861e-08 -6.8793350615e-01" quadrupole="-5.2903843001e+00 -1.8210072536e-02 -1.6738597128e-08 -1.8210072536e-02 -4.2401959281e+00 1.3398008450e-07 -1.6738597128e-08 1.3398008450e-07 -3.2525404014e+00" polarizability="7.9144592692e+00 2.6549445953e-02 -2.8032387859e-08 2.6549645250e-02 6.3833215745e+00 5.6111799392e-07 -6.5945707753e-10 5.7881367949e-07 1.0506005657e+01" dipole_derivatives="-3.3297054607e-01 1.2098399228e-07 -2.0353290064e-09 -1.2092063857e-07 -3.3297054671e-01 2.9725987854e-08 -3.3793479126e-07 8.0036588468e-08 -1.1222747388e-01 3.3297034825e-01 -1.2533896938e-10 2.0701379774e-09 1.3175349420e-10 3.3297034891e-01 -2.9724359138e-08 3.3794562981e-07 -8.0013648485e-08 1.1222390267e-01" charge=0 multiplicity=2 method=b3lyp basis=def2-svpd config_type=oh_q0_m2 sample_index=32 temperature=500.0 units=atomic
O        -0.0000000006       0.0000000088       0.0648054537   6.896963687681e-10  -9.943521308372e-09  -7.320812506985e-02
H         0.0000000097      -0.0000001397      -1.0285095788  -6.896929329094e-10   9.943630218790e-09   7.320888742789e-02
2
Properties=species:S:1:pos:R:3:forces:R:3 energy=-7.568242327665e+01 dipole="-1.3023282118e-09 1.8782874007e-08 -6.5603172292e-01" quadrupole="-4.9084962271e+00 4.5450976722e-01 1.5878406023e-08 4.5450976722e-01 -4.4060631571e+00 -2.7644305840e-08 1.5878406023e-08 -2.7644305840e-08 -3.4730779219e+00" polarizability="7.1729546896e+00 -6.2285917824e-01 -1.5079372648e-08 -6.2285943265e-01 6.4844236517e+00 -5.6262486020e-08 1.0599631092e-07 -8.7712927461e-07 8.4992136135e+00" dipole_derivatives="-3.6275231895e-01 -1.5281715862e-06 5.4781177998e-10 1.5281739306e-06 -3.6275231902e-01 -6.4411119090e-09 2.2379209597e-08 -3.4446456798e-07 -1.3541386979e-01 3.6275186645e-01 -3.9996292601e-07 -5.3630878562e-10 3.9996285408e-07 3.6275186653e-01 6.4448963929e-09 -2.2373436437e-08 3.4447705799e-07 1.3554824812e-01" charge=0 multiplicity=2 method=b3lyp basis=def2-svpd config_type=oh_q0_m2 sample_index=33 temperature=500.0 units=atomic
O         0.0000000001      -0.0000000016       0.0567262569   4.238318887286e-11  -6.105524903080e-10   2.132300525730e-02
H        -0.0000000018       0.0000000258      -0.9002868627  -4.233507891935e-11   6.105106509463e-10  -2.132362430455e-02
2
Properties=species:S:1:pos:R:3:forces:R:3 energy=-7.568047280575e+01 dipole="3.2639925955e-09 -4.6544512451e-08 -6.7468101739e-01" quadrupole="-5.2264690399e+00 -1.2892400084e-01 -1.6010713923e-10 -1.2892400084e-01 -4.2124533754e+00 5.8634893641e-08 -1.6010713923e-10 5.8634893641e-08 -3.3539617046e+00" polarizability="7.7279738050e+00 1.8382514911e-01 -2.1690380613e-08 1.8382614305e-01 6.2821397298e+00 2.2865634789e-07 -8.4608455654e-07 3.8133915869e-07 9.5760502187e+00" dipole_derivatives="-3.4544889501e-01 1.1328861085e-07 -1.0824369756e-09 -1.1328013163e-07 -3.4544889494e-01 1.5556486263e-08 1.5327211722e-07 -7.6109438196e-08 -1.2220500062e-01 3.4544925338e-01 1.5337600958e-09 1.0674816979e-09 -1.5365864499e-09 3.4544925335e-01 -1.5548600987e-08 -1.5327120129e-07 7.6127118498e-08 1.2239001436e-01" charge=0 multiplicity=2 method=b3lyp basis=def2-svpd config_type=oh_q0_m2 sample_index=34 temperature=500.0 units=atomic
O        -0.0000000003       0.0000000042       0.0612612445   2.062675897640e-10  -2.941838159152e-09  -4.264308003027e-02
H         0.0000000047      -0.0000000671      -0.9722604061  -2.063010331440e-10   2.941852801912e-09   4.264337018110e-02
2
Properties=species:S:1:pos:R:3:forces:R:3 energy=-7.568014257377e+01 dipole="-3.2875046281e-09 4.7085054852e-08 -6.4798526016e-01" quadrupole="-4.1139676241e+00 1.8058190779e-02 4.3153781199e-09 1.8058190779e-02 -5.1482866179e+00 -1.1861324031e-07 4.3153781199e-09 -1.1861324031e-07 -3.5170072315e+00" polarizability="6.0654651413e+00 -2.4247652760e-02 8.5322474647e-09 -2.4247409885e-02 7.4542929981e+00 -4.6882414797e-08 -1.0121184976e-07 -6.8088930422e-07 8.1006918053e+00" dipole_derivatives="-3.7023065658e-01 3.7188953962e-08 1.2530746123e-09 -3.7191525092e-08 -3.7023065663e-01 -1.6685638454e-08 4.2959191759e-08 -2.8243807293e-07 -1.4065511215e-01 3.7023218989e-01 1.7717784596e-08 -1.2764293203e-09 -1.7711738623e-08 3.7023218988e-01 1.6676686547e-08 -4.2930714539e-08 2.8242005956e-07 1.4065002016e-01" charge=0 multiplicity=2 method=b3lyp basis=def2-svpd config_type=oh_q0_m2 sample_index=35 temperature=500.0 units=atomic
O         0.0000000003      -0.0000000040       0.0548988797   2.956613844115e-10  -4.233260511107e-09   5.825824579126e-02
H        -0.0000000044       0.0000000633      -0.8712850605  -2.956421160139e-10   4.233242681999e-09  -5.825795699277e-02
2
Properties=species:S:1:pos:R:3:forces:R:3 energy=-7.566940187173e+01 dipole="-7.0538022301e-09 1.0180744480e-07 -6.3253949355e-01" quadrupole="-4.0966273933e+00 -1.6879095808e-01 -2.1549055592e-08 -1.6879095808e-01 -5.0669108908e+00 -2.3579839914e-07 -2.1549055592e-08 -2.3579839914e-07 -3.5901659419e+00" polarizability="6.0145546627e+00 2.1674964525e-01 5.0254848028e-08 2.1674889114e-01 7.2605496768e+00 -2.8625038519e-08 -6.1477287623e-08 -3.2661707814e-07 7.4233806920e+00" dipole_derivatives="-3.8481917112e-01 -1.7646774668e-07 2.7977120700e-09 1.7645326006e-07 -3.8481917113e-01 -3.7928358842e-08 3.4912439606e-07 2.3676705041e-07 -1.4923701640e-01 3.8482120424e-01 4.5152591600e-07 -2.7814199358e-09 -4.5151964055e-07 3.8482120423e-01 3.7925519597e-08 -3.4910227487e-07 -2.3675703065e-07 1.4923256335e-01" charge=0 multiplicity=2 method=b3lyp basis=def2-svpd config_type=oh_q0_m2 sample_index=36 temperature=500.0 units=atomic
O         0.0000000006      -0.0000000083       0.0515587501   1.663534593353e-09  -2.400998268326e-08   1.491763752038e-01
H        -0.0000000091       0.0000001317      -0.8182747800  -1.663548689586e-09   2.400993982474e-08  -1.491760724746e-01
2
Properties=species:S:1:pos:R:3:forces:R:3 energy=-7.567530843993e+01 dipole="5.9552749243e-09 -8.4894497906e-08 -6.8552529628e-01" quadrupole="-5.2815535751e+00 -1.8403801025e-02 -1.5121739229e-08 -1.8403801025e-02 -4.2321396424e+00 1.1878288047e-07 -1.5121739229e-08 1.1878288047e-07 -3.2721192599e+00" polarizability="7.8836882932e+00 2.6734970623e-02 -2.4529468091e-08 2.6735162258e-02 6.3592027271e+00 4.9217765147e-07 6.7173043358e-09 5.1357399812e-07 1.0324934359e+01" dipole_derivatives="-3.3525793310e-01 1.2236350790e-07 -1.9291879011e-09 -1.2242643481e-07 -3.3525792956e-01 2.7182330469e-08 -3.4811194205e-07 -8.4590390248e-08 -1.1411546302e-01 3.3525783332e-01 -1.8450010501e-10 1.9087189187e-09 2.8236545741e-10 3.3525782975e-01 -2.7174729047e-08 3.4811345473e-07 8.4685300439e-08 1.1411173465e-01" charge=0 multiplicity=2 method=b3lyp basis=def2-svpd config_type=oh_q0_m2 sample_index=37 temperature=500.0 units=atomic
O        -0.0000000006       0.0000000079       0.0641380001   5.945720932968e-10  -8.475624771604e-09  -6.844280904070e-02
H         0.0000000088      -0.0000001261      -1.0179166058  -5.945936359493e-10   8.475696002604e-09   6.844343665470e-02
2
Properties=species:S:1:pos:R:3:forces:R:3 energy=-7.568257551427e+01 dipole="-1.0254185795e-09 1.5039415573e-08 -6.5711068899e-01" quadrupole="-4.1675631338e+00 1.6321813829e-01 4.8152711452e-09 1.6321813829e-01 -5.1540669173e+00 -3.8875038665e-08 4.8152711452e-09 -3.8875038665e-08 -3.4668633651e+00" polarizability="6.1605227389e+00 -2.2422639975e-01 -1.3733946420e-09 -2.2422637636e-01 7.5157411873e+00 -2.3454569567e-08 7.9814567525e-08 -1.0040295214e-06 8.5553841463e+00" dipole_derivatives="-3.6175234142e-01 -1.5847095238e-06 3.5177245376e-10 1.5847156624e-06 -3.6175234153e-01 -5.2213498889e-09 2.4021618028e-09 1.3359505169e-07 -1.3481919113e-01 3.6175193312e-01 -3.9443956821e-07 -3.5380140261e-10 3.9443957321e-07 3.6175193325e-01 5.1938545759e-09 -2.4070745397e-09 -1.3359657824e-07 1.3482219609e-01" charge=0 multiplicity=2 method=b3lyp basis=def2-svpd config_type=oh_q0_m2 sample_index=38 temperature=500.0 units=atomic
O         0.0000000001      -0.0000000013       0.0569766205   2.632373360513e-11  -3.854087353103e-10   1.683966701474e-02
H        -0.0000000014       0.0000000207      -0.9042603139  -2.627938234046e-11   3.854251225473e-10  -1.684023582981e-02
2
Properties=species:S:1:pos:R:3:forces:R:3 energy=-7.567486764600e+01 dipole="6.0693888367e-09 -8.7502039077e-08 -6.8625060137e-01" quadrupole="-4.4252814434e+00 -4.0515937601e-01 4.1450272279e-08 -4.0515937601e-01 -5.0934879166e+00 2.2940409303e-07 4.1450272279e-08 2.2940409303e-07 -3.2662786016e+00" polarizability="6.6437108104e+00 5.8913196745e-01 -1.0883831037e-07 5.8913195041e-01 7.6153251049e+00 3.5778192797e-07 -1.9362552744e-08 3.4725374480e-07 1.0378861316e+01" dipole_derivatives="-3.3457011953e-01 1.2173273790e-07 -2.0458702393e-09 -1.2221323502e-07 -3.3457014260e-01 2.8443665547e-08 5.1534616852e-07 -1.4163513834e-06 -1.1361592978e-01 3.3456998975e-01 -6.0398522549e-10 2.0509507233e-09 1.7795808755e-10 3.3457001278e-01 -2.8452385157e-08 -5.1463996953e-07 1.4146334798e-06 1.1354952063e-01" charge=0 multiplicity=2 method=b3lyp basis=def2-svpd config_type=oh_q0_m2 sample_index=39 temperature=500.0 units=atomic
O        -0.0000000006       0.0000000082       0.0643378592   6.182296438382e-10  -8.914045003970e-09  -6.991311455238e-02
H         0.0000000090      -0.0000001302      -1.0210885136  -6.182061292278e-10   8.914108314437e-09   6.991353183683e-02
2
Properties=species:S:1:pos:R:3:forces:R:3 energy=-7.565968495029e+01 dipole="-9.1301122816e-09 1.3153297997e-07 -6.2432688195e-01" quadrupole="-5.0521182037e+00 -1.2395151355e-01 -5.1880551850e-09 -1.2395151355e-01 -4.0595953542e+00 -9.0063340256e-08 -5.1880551850e-09 -9.0063340256e-08 -3.6235212081e+00" polarizability="7.1967506983e+00 1.5488465694e-01 3.1036079538e-08 1.5488501405e-01 5.9565061468e+00 -2.4198555292e-07 1.7701442175e-07 -3.1454702883e-07 7.1026870305e+00" dipole_derivatives="-3.9280521774e-01 -1.4183299044e-07 3.7531116550e-09 1.4214466300e-07 -3.9280522879e-01 -5.1351043981e-08 -1.1608775052e-07 1.5433410105e-07 -1.5264481407e-01 3.9280757746e-01 3.1873571918e-07 -3.7164468369e-09 -3.1903904731e-07 3.9280758855e-01 5.1260703681e-08 1.1561004931e-07 -1.5430942635e-07 1.5302568866e-01" charge=0 multiplicity=2 method=b3lyp basis=def2-svpd config_type=oh_q0_m2 sample_index=40 temperature=500.0 units=atomic
O         0.0000000007      -0.0000000105       0.0498548334   3.078757545545e-09  -4.435377470631e-08   2.105271673124e-01
H        -0.0000000116       0.0000001667      -0.7912323841  -3.078727667174e-09   4.435366826687e-08  -2.105266301287e-01
2
Properties=species:S:1:pos:R:3:forces:R:3 energy=-7.568225463931e+01 dipole="1.5287145334e-09 -2.2864285060e-08 -6.6793383936e-01" quadrupole="-4.1876226222e+00 1.1476703820e-01 -5.7770685190e-09 1.1476703820e-01 -5.2057404650e+00 6.2123962104e-08 -5.7770685190e-09 6.2123962104e-08 -3.4000272452e+00" polarizability="6.2218380471e+00 -1.6149762317e-01 -1.1719242697e-09 -1.6149647207e-01 7.6544620280e+00 5.1102424220e-08 1.3225813590e-07 3.6004797205e-08 9.1587930854e+00" dipole_derivatives="-3.5172466751e-01 -1.5148753890e-06 -5.1097124710e-10 1.5149049922e-06 -3.5172466761e-01 7.6931264797e-09 6.3727967348e-08 1.5476564474e-07 -1.2731238579e-01 3.5172445920e-01 -2.6946592580e-07 5.1365020041e-10 2.6946573863e-07 3.5172445929e-01 -7.6815184250e-09 -6.3729438393e-08 -1.5475901116e-07 1.2732257164e-01" charge=0 multiplicity=2 method=b3lyp basis=def2-svpd config_type=oh_q0_m2 sample_index=41 temperature=500.0 units=atomic
O        -0.0000000001       0.0000000020       0.0595662851   5.178326925771e-11  -7.745352538512e-10  -2.262697288023e-02
H         0.0000000022      -0.0000000324      -0.9453601701  -5.178556950102e-11   7.745385637035e-10   2.262657074138e-02
2
Properties=species:S:1:pos:R:3:forces:R:3 energy=-7.568162984262e+01 dipole="2.3084974817e-09 -3.3044311678e-08 -6.7083502321e-01" quadrupole="-5.2284577855e+00 2.0057319978e-02 -7.3561421175e-09 2.0057319978e-02 -4.1844102731e+00 3.9622405420e-08 -7.3561421175e-09 3.9622405420e-08 -3.3806527184e+00" polarizability="7.7054242762e+00 -2.8394855224e-02 -4.1969794733e-09 -2.8395031124e-02 6.2275913376e+00 1.5327678681e-07 -4.5490049447e-07 2.4147177212e-07 9.3340249402e+00" dipole_derivatives="-3.4903017141e-01 -1.3268314555e-06 -8.1264604709e-10 1.3267558876e-06 -3.4903017128e-01 1.0616620199e-08 7.0823624743e-08 2.6663898867e-07 -1.2522539146e-01 3.4902995347e-01 -2.2343583609e-07 8.0869413016e-10 2.2343582266e-07 3.4902995336e-01 -1.0619527920e-08 -7.0801448038e-08 -2.6664170871e-07 1.2522307197e-01" charge=0 multiplicity=2 method=b3lyp basis=def2-svpd config_type=oh_q0_m2 sample_index=42 temperature=500.0 units=atomic
O        -0.0000000002       0.0000000030       0.0602869081   1.089007606904e-10  -1.558276284461e-09  -3.163505032598e-02
H         0.0000000033      -0.0000000471      -0.9567969802  -1.088623081593e-10   1.558277516453e-09   3.163471019799e-02
2
Properties=species:S:1:pos:R:3:forces:R:3 energy=-7.568273789660e+01 dipole="6.7132414982e-10 -9.5327502589e-09 -6.6413205091e-01" quadrupole="-5.1969470124e+00 -9.1549568699e-02 -4.2648891367e-10 -9.1549568699e-02 -4.1710397990e+00 1.0675947202e-08 -4.2648891367e-10 1.0675947202e-08 -3.4244611872e+00" polarizability="7.6180714734e+00 1.2779253781e-01 -3.1781478486e-09 1.2779349642e-01 6.1860385119e+00 3.9738221166e-08 -9.6150468952e-08 -6.4563860965e-07 8.9381472352e+00" dipole_derivatives="-3.5524943121e-01 -1.3988885256e-06 -2.0380191406e-10 1.3988700857e-06 -3.5524943115e-01 3.2625313185e-09 -1.5428566758e-07 -5.5922821929e-08 -1.3001757409e-01 3.5524912877e-01 -3.0756217658e-07 2.2750947339e-10 3.0756212656e-07 3.5524912874e-01 -3.2331670675e-09 1.5428719413e-07 5.5915938546e-08 1.3002207941e-01" charge=0 multiplicity=2 method=b3lyp basis=def2-svpd config_type=oh_q0_m2 sample_index=43 temperature=500.0 units=atomic
O        -0.0000000001       0.0000000008       0.0586395780   9.985231695846e-12  -1.413917219698e-10  -9.854587574038e-03
H         0.0000000009      -0.0000000134      -0.9306526560  -9.960558904367e-12   1.414443675158e-10   9.854236095586e-03
2
Properties=species:S:1:pos:R:3:forces:R:3 energy=-7.568146252545e+01 dipole="-2.3563154824e-09 3.3889423521e-08 -6.5173393596e-01" quadrupole="-4.1254404968e+00 -2.3174492306e-02 1.0687215049e-09 -2.3174492306e-02 -5.1610959148e+00 -8.6442220464e-08 1.0687215049e-09 -8.6442220464e-08 -3.4970626209e+00" polarizability="6.0893420681e+00 3.1421561646e-02 9.5161797668e-09 3.1421262861e-02 7.4933880995e+00 -4.1148890656e-08 -8.4265305498e-08 -8.2442749822e-07 8.2820343801e+00" dipole_derivatives="-3.6674028664e-01 -1.5307387197e-06 8.2357291125e-10 1.5306997911e-06 -3.6674028630e-01 -1.1885347477e-08 -1.3755774297e-08 1.0718534393e-07 -1.3832055504e-01 3.6673970400e-01 -4.3388123688e-07 -8.2588342506e-10 4.3388105751e-07 3.6673970366e-01 1.1877810249e-08 1.3743089999e-08 -1.0717540744e-07 1.3831735763e-01" charge=0 multiplicity=2 method=b3lyp basis=def2-svpd config_type=oh_q0_m2 sample_index=44 temperature=500.0 units=atomic
O         0.0000000002      -0.0000000029       0.0557418343   1.455419129648e-10  -2.093365969288e-09   4.025834892707e-02
H        -0.0000000032       0.0000000460      -0.8846633605  -1.455537284646e-10   2.093412999485e-09  -4.025881860417e-02
2
Properties=species:S:1:pos:R:3:forces:R:3 energy=-7.567217155834e+01 dipole="7.1234844693e-09 -1.0204389251e-07 -6.9033587539e-01" quadrupole="-4.3300090222e+00 2.8198769193e-01 -5.2976809004e-08 2.8198769193e-01 -5.2175274252e+00 2.9630971075e-07 -5.2976809004e-08 2.9630971075e-07 -3.2324695653e+00" polarizability="6.5276900806e+00 -4.1246795268e-01 1.8273600065e-08 -4.1246797280e-01 7.8258839675e+00 4.1944711233e-07 7.0737021046e-08 4.1140914783e-07 1.0692521213e+01" dipole_derivatives="-3.3067787732e-01 1.2254483370e-07 -1.7815002031e-09 -1.2253572098e-07 -3.3067787757e-01 3.2759917583e-08 -1.9756847547e-07 8.7452156627e-08 -1.1034079762e-01 3.3067758986e-01 -4.0548815217e-10 1.7929052428e-09 4.1085669188e-10 3.3067759010e-01 -3.2766548343e-08 1.9756772607e-07 -8.7452753372e-08 1.1031989742e-01" charge=0 multiplicity=2 method=b3lyp basis=def2-svpd config_type=oh_q0_m2 sample_index=45 temperature=500.0 units=atomic
O        -0.0000000007       0.0000000097       0.0654826314   8.011429563150e-10  -1.147640178290e-08  -7.763894885612e-02
H         0.0000000107      -0.0000001536      -1.0392568791  -8.011415033790e-10   1.147651014783e-08   7.763957087323e-02
2
Properties=species:S:1:pos:R:3:forces:R:3 energy=-7.568207761152e+01 dipole="-1.7942828951e-09 2.5346537302e-08 -6.5417015841e-01" quadrupole="-4.1340400753e+00 -4.2477831778e-02 7.7814751209e-11 -4.2477831778e-02 -5.1683567453e+00 -6.5137357211e-08 7.7814751209e-11 -6.5137357211e-08 -3.4836160527e+00" polarizability="6.1069271736e+00 5.7935952315e-02 8.4905444270e-09 5.7935457667e-02 7.5177050182e+00 -3.4514046174e-08 -7.1307594236e-08 -9.2413668160e-07 8.4038862319e+00" dipole_derivatives="-3.6447846178e-01 -1.4599513437e-06 4.2724933222e-10 1.4599558469e-06 -3.6447846187e-01 -8.8328839891e-09 9.7015839806e-08 -1.4707715601e-07 -1.3675811942e-01 3.6447793898e-01 -4.0985048755e-07 -4.4056572015e-10 4.0985066051e-07 3.6447793908e-01 8.8142555528e-09 -9.7022834211e-08 1.4708198548e-07 1.3675616540e-01" charge=0 multiplicity=2 method=b3lyp basis=def2-svpd config_type=oh_q0_m2 sample_index=46 temperature=500.0 units=atomic
O         0.0000000002      -0.0000000022       0.0562974116   8.019202174328e-11  -1.135651689700e-09   2.930944969810e-02
H        -0.0000000024       0.0000000346      -0.8934807760  -8.023533743148e-11   1.135640255794e-09  -2.930998122813e-02
2
Properties=species:S:1:pos:R:3:forces:R:3 energy=-7.568266636988e+01 dipole="-8.8729031991e-10 1.2269549875e-08 -6.5791517426e-01" quadrupole="-5.1816066866e+00 4.0499539286e-02 3.0451253541e-09 4.0499539286e-02 -4.1453033482e+00 -1.2764124419e-08 3.0451253541e-09 -1.2764124419e-08 -3.4621786449e+00" polarizability="7.5584345072e+00 -5.5737114376e-02 3.4697352608e-10 -5.5737560360e-02 6.1321132982e+00 -4.6249795603e-08 8.5456768304e-08 6.0841599805e-07 8.5977046981e+00" dipole_derivatives="-3.6100716189e-01 -1.3511498926e-06 3.1757187562e-10 1.3511583656e-06 -3.6100716177e-01 -3.8670794874e-09 9.8542063398e-08 -3.8683195536e-08 -1.3428874465e-01 3.6100672291e-01 -3.6817255774e-07 -3.2209560076e-10 3.6817296651e-07 3.6100672279e-01 3.8770021058e-09 -9.8535346549e-08 3.8676756242e-08 1.3428673533e-01" charge=0 multiplicity=2 method=b3lyp basis=def2-svpd config_type=oh_q0_m2 sample_index=47 temperature=500.0 units=atomic
O         0.0000000001      -0.0000000011       0.0571641485   1.829210998636e-11  -2.531889155885e-10   1.356542519055e-02
H        -0.0000000012       0.0000000169      -0.9072365192  -1.828688331729e-11   2.531997837938e-10  -1.356592630901e-02
2
Properties=species:S:1:pos:R:3:forces:R:3 energy=-7.566997930069e+01 dipole="7.8053933624e-09 -1.1274468728e-07 -6.9331809966e-01" quadrupole="-4.8025792561e+00 5.2588958394e-01 -1.0354506377e-07 5.2588958394e-01 -4.7661606922e+00 2.5948501998e-07 -1.0354506377e-07 2.5948501998e-07 -3.2067800864e+00" polarizability="7.2393139144e+00 -7.7236573991e-01 8.4556429758e-08 -7.7236573966e-01 7.1858273101e+00 6.0104634866e-07 2.0149260018e-07 5.9237274792e-07 1.0932656325e+01" dipole_derivatives="-3.2781518117e-01 1.2062686594e-07 -2.4865189804e-09 -1.2333000262e-07 -3.2781517216e-01 3.5487043783e-08 1.3105190544e-07 1.7696115406e-07 -1.0792971147e-01 3.2781479294e-01 2.3901837947e-10 2.4731406446e-09 2.4127711086e-09 3.2781478395e-01 -3.5508062998e-08 -1.3108143737e-07 -1.7694276599e-07 1.0793093404e-01" charge=0 multiplicity=2 method=b3lyp basis=def2-svpd config_type=oh_q0_m2 sample_index=48 temperature=500.0 units=atomic
O        -0.0000000007       0.0000000108       0.0663397945   9.310884374111e-10  -1.344936597397e-08  -8.270629781598e-02
H         0.0000000119      -0.0000001712      -1.0528606807  -9.311174217552e-10   1.344949277260e-08   8.270699067779e-02
2
Properties=species:S:1:pos:R:3:forces:R:3 energy=-7.568250284551e+01 dipole="1.2016320126e-09 -1.7286488795e-08 -6.6635103996e-01" quadrupole="-4.2044378981e+00 1.8670680438e-01 -6.2835812060e-09 1.8670680438e-01 -5.1783359425e+00 4.6246751482e-08 -6.2835812060e-09 4.6246751482e-08 -3.4103292809e+00" polarizability="6.2400409695e+00 -2.6185939615e-01 1.7445353609e-09 -2.6185945565e-01 7.6059692362e+00 3.7383380327e-08 -1.6498059404e-07 1.1170667394e-08 9.0657273037e+00" dipole_derivatives="-3.5319284299e-01 -1.4166671767e-06 -4.1172126445e-10 1.4166810351e-06 -3.5319284308e-01 5.8559814670e-09 3.5713515478e-08 3.1458052829e-07 -1.2844827461e-01 3.5319258237e-01 -2.8299891550e-07 4.0515546814e-10 2.8299909545e-07 3.5319258245e-01 -5.8299674323e-09 -3.5712932611e-08 -3.1458563532e-07 1.2845474229e-01" charge=0 multiplicity=2 method=b3lyp basis=def2-svpd config_type=oh_q0_m2 sample_index=49 temperature=500.0 units=atomic
O        -0.0000000001       0.0000000015       0.0591781096   3.136101736899e-11  -4.526158130587e-10  -1.744614881989e-02
H         0.0000000017      -0.0000000244      -0.9391995441  -3.138989178193e-11   4.525868889602e-10   1.744572218449e-02
2
Properties=species:S:1:pos:R:3:forces:R:3 energy=-7.566293829849e+01 dipole="-8.4835570915e-09 1.2245822549e-07 -6.2679958628e-01" quadrupole="-4.5054592013e+00 5.0885105283e-01 1.1146028456e-07 5.0885105283e-01 -4.6218213461e+00 -2.0385882187e-07 1.1146028456e-07 -2.0385882187e-07 -3.6138662260e+00" polarizability="6.5213717623e+00 -6.4125670320e-01 6.0928700546e-07 -6.4125676228e-01 6.6680218105e+00 1.2182666137e-07 2.8964868075e-08 -2.8113906029e-07 7.1966924256e+00" dipole_derivatives="-3.9037810735e-01 -1.6536608976e-07 3.3192688142e-09 1.6543753109e-07 -3.9037812102e-01 -4.5261707688e-08 -2.3941762461e-07 3.2669339456e-08 -1.5179086909e-01 3.9038027866e-01 3.8156607413e-07 -3.3222583073e-09 -3.8162604861e-07 3.9038029238e-01 4.5225208606e-08 2.3929974668e-07 -3.2803787464e-08 1.5193850187e-01" charge=0 multiplicity=2 method=b3lyp basis=def2-svpd config_type=oh_q0_m2 sample_index=50 temperature=500.0 units=atomic
O         0.0000000007      -0.0000000098       0.0503633959   2.584629790582e-09  -3.731072756259e-08   1.909721102494e-01
H        -0.0000000108       0.0000001562      -0.7993036413  -2.584648794623e-09   3.731058843555e-08  -1.909714430776e-01
2
Properties=species:S:1:pos:R:3:forces:R:3 energy=-7.567236737451e+01 dipole="7.0669169119e-09 -1.0106315853e-07 -6.9005638458e-01" quadrupole="-4.2473672784e+00 1.8376321257e-02 -1.3021382777e-08 1.8376321257e-02 -5.2981894943e+00 3.0235219472e-07 -1.3021382777e-08 3.0235219472e-07 -3.2348326291e+00" polarizability="6.4052591836e+00 -2.6875871151e-02 -3.9793834304e-08 -2.6875671585e-02 7.9419833190e+00 3.9924663755e-07 -2.5400076479e-07 3.9753110705e-07 1.0670512935e+01" dipole_derivatives="-3.3094521381e-01 1.2220362683e-07 -1.7980009233e-09 -1.2235428062e-07 -3.3094521355e-01 3.2160231161e-08 5.8247610901e-07 -4.7020329297e-07 -1.1074335966e-01 3.3094493628e-01 -6.9041942717e-10 1.7848844622e-09 6.8677048166e-10 3.3094493601e-01 -3.2195402679e-08 -5.8349183818e-07 4.7105752632e-07 1.1053801458e-01" charge=0 multiplicity=2 method=b3lyp basis=def2-svpd config_type=oh_q0_m2 sample_index=51 temperature=500.0 units=atomic
O        -0.0000000007       0.0000000096       0.0654032507   7.899597295098e-10  -1.129756718030e-08  -7.713946177945e-02
H         0.0000000106      -0.0000001520      -1.0379970512  -7.899981891432e-10   1.129769560156e-08   7.714035081635e-02
2
Properties=species:S:1:pos:R:3:forces:R:3 energy=-7.567551167921e+01 dipole="5.7706249202e-09 -8.3644239920e-08 -6.8518433123e-01" quadrupole="-5.1987894041e+00 -2.8148199673e-01 1.8107288231e-08 -2.8148199673e-01 -4.3125224919e+00 1.2432807202e-07 1.8107288231e-08 1.2432807202e-07 -3.2748485784e+00" polarizability="7.7607599495e+00 4.0862347448e-01 -7.1619469770e-08 4.0862344511e-01 6.4741896586e+00 4.7158448078e-07 5.9249578323e-08 4.6603120207e-07 1.0299756192e+01" dipole_derivatives="-3.3558100274e-01 1.2069834684e-07 -1.8898236809e-09 -1.2073237389e-07 -3.3558100283e-01 2.7005620029e-08 -1.0482870128e-07 -2.4371997476e-07 -1.1432027891e-01 3.3558091703e-01 -6.9695443629e-10 1.8829252903e-09 7.2451760646e-10 3.3558091713e-01 -2.7010149205e-08 1.0479118961e-07 2.4373002228e-07 1.1437163610e-01" charge=0 multiplicity=2 method=b3lyp basis=def2-svpd config_type=oh_q0_m2 sample_index=52 temperature=500.0 units=atomic
O        -0.0000000005       0.0000000078       0.0640443879   5.704937305797e-10  -8.269604000119e-09  -6.774145705894e-02
H         0.0000000086      -0.0000001241      -1.0164309109  -5.705347554889e-10   8.269639320308e-09   6.774182203287e-02
2
Properties=species:S:1:pos:R:3:forces:R:3 energy=-7.567749589130e+01 dipole="4.9323270326e-09 -7.0972330965e-08 -6.8159021296e-01" quadrupole="-5.2672236930e+00 -1.8208801248e-02 -1.2262022810e-08 -1.8208801248e-02 -4.2191026604e+00 9.5222471151e-08 -1.2262022810e-08 9.5222471151e-08 -3.3029851977e+00" polarizability="7.8344555951e+00 2.6286008016e-02 -1.8715236119e-08 2.6286266830e-02 6.3213978917e+00 3.8824169278e-07 -1.5171436286e-06 4.1770758045e-07 1.0041094854e+01" dipole_derivatives="-3.3897468628e-01 1.1790684883e-07 -1.6178826051e-09 -1.1790793681e-07 -3.3897468605e-01 2.3158129634e-08 -2.3836889407e-07 -1.6644643996e-07 -1.1716328786e-01 3.3897474770e-01 1.4832022844e-09 1.6069521125e-09 -1.4907479158e-09 3.3897474747e-01 -2.3152019070e-08 2.3838277186e-07 1.6646434231e-07 1.1715937614e-01" charge=0 multiplicity=2 method=b3lyp basis=def2-svpd config_type=oh_q0_m2 sample_index=53 temperature=500.0 units=atomic
O        -0.0000000005       0.0000000066       0.0630706281   4.336234131490e-10  -6.240315521466e-09  -5.992780243478e-02
H         0.0000000072      -0.0000001042      -1.0009766364  -4.336711551701e-10   6.240380266132e-09   5.992831433991e-02
2
Properties=species:S:1:pos:R:3:forces:R:3 energy=-7.568283797994e+01 dipole="-1.2607892096e-10 1.7598157268e-09 -6.6090381709e-01" quadrupole="-4.1541630380e+00 -3.5966247503e-02 6.4749270935e-11 -3.5966247503e-02 -5.1924317322e+00 -4.5907463191e-09 6.4749270935e-11 -4.5907463191e-09 -3.4443854728e+00" polarizability="6.1527664082e+00 4.9841167707e-02 6.7401044420e-10 4.9840740607e-02 7.5917091256e+00 -3.1151688130e-09 -7.9202412945e-09 -2.0121246042e-07 8.7583395139e+00" dipole_derivatives="-3.5823945676e-01 -1.0396734797e-06 1.4056953017e-10 1.0396820110e-06 -3.5823945657e-01 -6.0993520674e-10 -6.9052513707e-08 -4.1422754116e-08 -1.3215465197e-01 3.5823903641e-01 -3.1056198152e-07 -1.6252229038e-10 3.1056208863e-07 3.5823903621e-01 6.1997125248e-10 6.9049654883e-08 4.1412373530e-08 1.3225592922e-01" charge=0 multiplicity=2 method=b3lyp basis=def2-svpd config_type=oh_q0_m2 sample_index=54 temperature=500.0 units=atomic
O         0.0000000000      -0.0000000002       0.0578675000   2.154565617468e-13  -5.052127011878e-12   1.899007923633e-03
H        -0.0000000002       0.0000000024      -0.9183992188  -2.250747360596e-13   5.045280004175e-12  -1.899486140475e-03
2
Properties=species:S:1:pos:R:3:forces:R:3 energy=-7.568073561733e+01 dipole="3.0743122459e-09 -4.3829139723e-08 -6.7390564632e-01" quadrupole="-4.3384666338e+00 3.6106807561e-01 -2.7923757661e-08 3.6106807561e-01 -5.0951835379e+00 1.1449861900e-07 -2.7923757661e-08 1.1449861900e-07 -3.3594367646e+00" polarizability="6.4585026896e+00 -5.1416336321e-01 1.9647112443e-08 -5.1416339491e-01 7.5360812271e+00 1.2713265336e-07 -7.1363409333e-07 1.1044332994e-07 9.5263372699e+00" dipole_derivatives="-3.4617204894e-01 1.1224580104e-07 -1.0498989543e-09 -1.1227081579e-07 -3.4617204902e-01 1.4524312997e-08 -2.0036444726e-08 -1.1734643812e-07 -1.2289802327e-01 3.4617244378e-01 1.7527499532e-09 1.0232409826e-09 -1.7450470242e-09 3.4617244386e-01 -1.4514237588e-08 2.0002555168e-08 1.1735772076e-07 1.2295852023e-01" charge=0 multiplicity=2 method=b3lyp basis=def2-svpd config_type=oh_q0_m2 sample_index=55 temperature=500.0 units=atomic
O        -0.0000000003       0.0000000040       0.0610630169   1.848297564573e-10  -2.634479206389e-09  -4.050720506911e-02
H         0.0000000044      -0.0000000630      -0.9691143899  -1.848102389209e-10   2.634473221837e-09   4.050707904431e-02
2
Properties=species:S:1:pos:R:3:forces:R:3 energy=-7.568282783222e+01 dipole="-2.0334682242e-10 3.4568332139e-09 -6.6042501060e-01" quadrupole="-5.1618336833e+00 1.7456090328e-01 1.4637938018e-09 1.7456090328e-01 -4.1815983072e+00 -3.9002325847e-09 1.4637938018e-09 -3.9002325847e-09 -3.4472783874e+00" polarizability="7.5464918913e+00 -2.4168068295e-01 -9.0853871513e-10 -2.4168076307e-01 6.1893613269e+00 -1.3282222464e-08 2.2599219876e-08 -3.1356147133e-07 8.7322284491e+00" dipole_derivatives="-3.5868241586e-01 -1.9401606935e-06 8.8498846454e-11 1.9401506601e-06 -3.5868241576e-01 -1.1924907044e-09 -1.6233120403e-07 -1.4848183794e-07 -1.3242796863e-01 3.5868222682e-01 -3.7720767496e-07 -8.9958490837e-11 3.7720795636e-07 3.5868222672e-01 1.1726924722e-09 1.6234386058e-07 1.4847961749e-07 1.3258397790e-01" charge=0 multiplicity=2 method=b3lyp basis=def2-svpd config_type=oh_q0_m2 sample_index=56 temperature=500.0 units=atomic
O         0.0000000000      -0.0000000003       0.0577540633   1.110012687592e-12  -1.944515444093e-11   3.716866502744e-03
H        -0.0000000003       0.0000000048      -0.9165988951  -1.144736220364e-12   1.945767829017e-11  -3.717281031104e-03
2
Properties=species:S:1:pos:R:3:forces:R:3 energy=-7.568068063801e+01 dipole="-2.9282045001e-09 4.2250944404e-08 -6.4936076054e-01" quadrupole="-5.1250642947e+00 1.6885467183e-01 1.8330609662e-08 1.6885467183e-01 -4.1460821120e+00 -4.2152016679e-08 1.8330609662e-08 -4.2152016679e-08 -3.5097925284e+00" polarizability="7.4310427094e+00 -2.2754421730e-01 -1.8012936493e-08 -2.2754477598e-01 6.1117099648e+00 -1.8027424524e-07 1.6734333341e-07 -3.3290297461e-07 8.1663836061e+00" dipole_derivatives="-3.6894881471e-01 4.1581650230e-08 1.0480598779e-09 -4.1524970387e-08 -3.6894881475e-01 -1.4847327714e-08 -1.5183354574e-08 -3.3348759865e-07 -1.3979942965e-01 3.6895029446e-01 1.5774159453e-08 -1.0463454290e-09 -1.5784438788e-08 3.6895029449e-01 1.4858605097e-08 1.5163953426e-08 3.3349115136e-07 1.3980461321e-01" charge=0 multiplicity=2 method=b3lyp basis=def2-svpd config_type=oh_q0_m2 sample_index=57 temperature=500.0 units=atomic
O         0.0000000002      -0.0000000036       0.0552065481   2.321957588711e-10  -3.350010480769e-09   5.148656391494e-02
H        -0.0000000040       0.0000000570      -0.8761679802  -2.321774937204e-10   3.350009931832e-09  -5.148703147216e-02
2
Properties=species:S:1:pos:R:3:forces:R:3 energy=-7.568267046402e+01 dipole="-8.8701217739e-10 1.2141901971e-08 -6.5795613869e-01" quadrupole="-4.1453640678e+00 -3.9661352118e-02 1.6064563728e-10 -3.9661352118e-02 -5.1818150671e+00 -3.1629231997e-08 1.6064563728e-10 -3.1629231997e-08 -3.4619389218e+00" polarizability="6.1323085733e+00 5.4590823562e-02 4.3135373018e-09 5.4590352197e-02 7.5589706143e+00 -1.9292441723e-08 -4.3229511030e-08 -8.8917356033e-07 8.5998700235e+00" dipole_derivatives="-3.6096923505e-01 -1.3015613652e-06 1.4749527725e-09 1.3015830500e-06 -3.6096923513e-01 -4.4874104748e-09 1.5004181231e-07 -1.0435644016e-07 -1.3425807121e-01 3.6096878812e-01 -3.6337666252e-07 -1.4830678090e-09 3.6337647765e-07 3.6096878818e-01 4.4833911204e-09 -1.5005216514e-07 1.0434400566e-07 1.3425910371e-01" charge=0 multiplicity=2 method=b3lyp basis=def2-svpd config_type=oh_q0_m2 sample_index=58 temperature=500.0 units=atomic
O         0.0000000001      -0.0000000011       0.0571737178   1.806114883939e-11  -2.472784480121e-10   1.340040811120e-02
H        -0.0000000012       0.0000000167      -0.9073883908  -1.806489714316e-11   2.472994781193e-10  -1.340074802054e-02
2
Properties=species:S:1:pos:R:3:forces:R:3 energy=-7.568000844557e+01 dipole="-3.3608747362e-09 4.8172983707e-08 -6.4766548558e-01" quadrupole="-5.1063060162e+00 -2.0229882022e-01 -6.8271579210e-09 -2.0229882022e-01 -4.1538832100e+00 -4.6170781858e-08 -6.8271579210e-09 -4.6170781858e-08 -3.5186670702e+00" polarizability="7.3961346379e+00 2.7141185585e-01 2.3622392879e-08 2.7141240058e-01 6.1183224704e+00 -1.4705342243e-07 2.1152984316e-07 -3.5094479334e-07 8.0855520182e+00" dipole_derivatives="-3.7052885049e-01 3.4222927186e-08 1.1692128936e-09 -3.4190682991e-08 -3.7052884877e-01 -1.6988310077e-08 6.3860020050e-07 -1.0209538770e-07 -1.4077974724e-01 3.7053039594e-01 2.0651624420e-08 -1.1866391667e-09 -2.0652476202e-08 3.7053039420e-01 1.7000053667e-08 -6.3857344412e-07 1.0201819944e-07 1.4084716477e-01" charge=0 multiplicity=2 method=b3lyp basis=def2-svpd config_type=oh_q0_m2 sample_index=59 temperature=500.0 units=atomic
O         0.0000000003      -0.0000000041       0.0548276213   3.106243879838e-10  -4.452404198356e-09   5.986003047556e-02
H        -0.0000000045       0.0000000647      -0.8701541373  -3.106330077706e-10   4.452396043015e-09  -5.986026477421e-02
2
Properties=species:S:1:pos:R:3:forces:R:3 energy=-7.568233483799e+01 dipole="-1.4415152107e-09 2.0730371666e-08 -6.5549708232e-01" quadrupole="-4.2294018459e+00 2.9661342655e-01 1.1067386528e-08 2.9661342655e-01 -5.0816598461e+00 -5.1415595334e-08 1.1067386528e-08 -5.1415595334e-08 -3.4761284863e+00" polarizability="6.2407770723e+00 -4.0591796688e-01 -7.8605625158e-09 -4.0591798953e-01 7.4071007796e+00 -3.2769600810e-08 1.0327051911e-07 -1.1039431266e-06 8.4716299244e+00" dipole_derivatives="-3.6324799803e-01 -1.5199336870e-06 2.2415237249e-10 1.5199499373e-06 -3.6324799806e-01 -7.2614941315e-09 7.3499928366e-08 1.4932360903e-08 -1.3572352491e-01 3.6324752809e-01 -4.0395023202e-07 -2.2341251293e-10 4.0395006305e-07 3.6324752811e-01 7.2371288563e-09 -7.3502731679e-08 -1.4943823956e-08 1.3588277726e-01" charge=0 multiplicity=2 method=b3lyp basis=def2-svpd config_type=oh_q0_m2 sample_index=60 temperature=500.0 units=atomic
O         0.0000000001      -0.0000000018       0.0566026769   5.190389402124e-11  -7.458505045564e-10   2.358419620209e-02
H        -0.0000000020       0.0000000284      -0.8983255584  -5.186583524367e-11   7.458780958963e-10  -2.358476674380e-02
2
Properties=species:S:1:pos:R:3:forces:R:3 energy=-7.568262278261e+01 dipole="-9.5644540141e-10 1.3658283632e-08 -6.5750813772e-01" quadrupole="-4.1442406944e+00 -4.2787594208e-02 7.8338726930e-11 -4.2787594208e-02 -5.1799970085e+00 -3.5554267083e-08 7.8338726930e-11 -3.5554267083e-08 -3.4645544237e+00" polarizability="6.1295495296e+00 5.8831646175e-02 4.7577784296e-09 5.8831141983e-02 7.5537466502e+00 -2.1336856155e-08 -4.5359461910e-08 -9.2248871088e-07 8.5762445219e+00" dipole_derivatives="-3.6138416714e-01 -1.4828413495e-06 3.3650057828e-10 1.4828535535e-06 -3.6138416719e-01 -4.6858206862e-09 2.5759164246e-07 9.5465330086e-08 -1.3445235223e-01 3.6138374483e-01 -3.8297440678e-07 -3.2997236443e-10 3.8297428642e-07 3.6138374489e-01 4.7116783025e-09 -2.5758639666e-07 -9.5463387195e-08 1.3455555870e-01" charge=0 multiplicity=2 method=b3lyp basis=def2-svpd config_type=oh_q0_m2 sample_index=61 temperature=500.0 units=atomic
O         0.0000000001      -0.0000000012       0.0570691736   2.216914118726e-11  -3.161021706985e-10   1.521501846148e-02
H        -0.0000000013       0.0000000188      -0.9057291994  -2.212534953251e-11   3.160647120439e-10  -1.521536076711e-02
2
Properties=species:S:1:pos:R:3:forces:R:3 energy=-7.567745505231e+01 dipole="4.9953040335e-09 -7.1214912279e-08 -6.8166994507e-01" quadrupole="-4.2193709315e+00 1.8380555907e-02 -8.5915113008e-09 1.8380555907e-02 -5.2675071992e+00 2.0542351545e-07 -8.5915113008e-09 2.0542351545e-07 -3.3023733400e+00" polarizability="6.3221529342e+00 -2.6537495988e-02 -2.4557980461e-08 -2.6537213640e-02 7.8354326085e+00 2.3076616447e-07 9.0087616986e-07 2.2794739686e-07 1.0046703399e+01" dipole_derivatives="-3.3889962030e-01 1.2061385232e-07 -1.6355340337e-09 -1.2058657137e-07 -3.3889962012e-01 2.3501297147e-08 -9.8892782852e-08 -2.2229465491e-07 -1.1710196177e-01 3.3889967857e-01 9.4687397647e-11 1.6707420145e-09 -9.3741868533e-11 3.3889967837e-01 -2.3500269114e-08 9.8887592559e-08 2.2225059293e-07 1.1709805729e-01" charge=0 multiplicity=2 method=b3lyp basis=def2-svpd config_type=oh_q0_m2 sample_index=62 temperature=500.0 units=atomic
O        -0.0000000005       0.0000000066       0.0630919788   4.405403306442e-10  -6.279745573386e-09  -6.010982127006e-02
H         0.0000000073      -0.0000001046      -1.0013154883  -4.404883857820e-10   6.279776901612e-09   6.011008556243e-02
2
Properties=species:S:1:pos:R:3:forces:R:3 energy=-7.568282281380e+01 dipole="2.6962812499e-10 -4.1118295872e-09 -6.6256502394e-01" quadrupole="-5.1310917999e+00 2.5804542193e-01 -2.3216078186e-09 2.5804542193e-01 -4.2264943796e+00 4.9736163097e-09 -2.3216078186e-09 4.9736163097e-09 -3.4342256236e+00" polarizability="7.5165647460e+00 -3.5893242815e-01 1.5081901832e-07 -3.5893252155e-01 6.2582974132e+00 5.6512864389e-07 -3.4624355845e-08 4.4128211884e-07 8.8500255551e+00" dipole_derivatives="-3.5670079023e-01 -1.6552999752e-06 -1.1912748741e-10 1.6553028919e-06 -3.5670079012e-01 1.3495900498e-09 1.2136924799e-07 -1.6913825895e-07 -1.3115963115e-01 3.5670052787e-01 -3.4165585343e-07 1.0119692810e-10 3.4165583068e-07 3.5670052776e-01 -1.3527643759e-09 -1.2137763017e-07 1.6913076495e-07 1.3111645533e-01" charge=0 multiplicity=2 method=b3lyp basis=def2-svpd config_type=oh_q0_m2 sample_index=63 temperature=500.0 units=atomic
O        -0.0000000000       0.0000000004       0.0582631506   1.659880756653e-12  -2.642749633779e-11  -4.256352501565e-03
H         0.0000000004      -0.0000000057      -0.9246784811  -1.699419549898e-12   2.642299212820e-11   4.255982398374e-03
2
Properties=species:S:1:pos:R:3:forces:R:3 energy=-7.567544337273e+01 dipole="-5.2870931794e-09 7.6662936864e-08 -6.3961148729e-01" quadrupole="-5.1193962421e+00 -1.7763584978e-02 1.0820800450e-08 -1.7763584978e-02 -4.0891033400e+00 -6.3412329130e-08 1.0820800450e-08 -6.3412329130e-08 -3.5584166131e+00" polarizability="7.3680072401e+00 2.3304780194e-02 5.6910105666e-09 2.3304864255e-02 6.0163158627e+00 -2.0339117681e-07 1.9218347374e-07 -2.7619900160e-07 7.7204630275e+00" dipole_derivatives="-3.7808567471e-01 -2.4548549524e-08 1.8888078000e-09 2.4558253411e-08 -3.7808567462e-01 -2.7877922905e-08 -9.1756297005e-08 6.0983135208e-08 -1.4552464472e-01 3.7808747883e-01 9.9394469866e-08 -1.9223886406e-09 -9.9400464267e-08 3.7808747874e-01 2.7885076528e-08 9.1767204946e-08 -6.0965898996e-08 1.4551937634e-01" charge=0 multiplicity=2 method=b3lyp basis=def2-svpd config_type=oh_q0_m2 sample_index=64 temperature=500.0 units=atomic
O         0.0000000004      -0.0000000064       0.0530636159   8.592765634520e-10  -1.245974296155e-08   1.039535634196e-01
H        -0.0000000070       0.0000001009      -0.8421580917  -8.592876079439e-10   1.245966619819e-08  -1.039530554426e-01
2
Properties=species:S:1:pos:R:3:forces:R:3 energy=-7.568278749907e+01 dipole="-4.7564811980e-10 6.7949412062e-09 -6.5946173313e-01" quadrupole="-5.1849479592e+00 6.1609096357e-02 1.9356681685e-09 6.1609096357e-02 -4.1521346500e+00 -7.2386145427e-09 1.9356681685e-09 -7.2386145427e-09 -3.4530483258e+00" polarizability="7.5724240274e+00 -8.5093568029e-02 5.8696440075e-08 -8.5094240149e-02 6.1458218758e+00 9.4230641951e-07 4.9951137221e-08 3.6415987728e-07 8.6801485240e+00" dipole_derivatives="-3.5957470787e-01 -1.4688507615e-06 1.8200148487e-10 1.4688298137e-06 -3.5957470793e-01 -2.3568640665e-09 -1.2579298714e-07 5.6850246732e-08 -1.3324735264e-01 3.5957433029e-01 -3.6291727830e-07 -1.6207325461e-10 3.6291757997e-07 3.5957433034e-01 2.3543230966e-09 1.2580131381e-07 -5.6846666263e-08 1.3324515043e-01" charge=0 multiplicity=2 method=b3lyp basis=def2-svpd config_type=oh_q0_m2 sample_index=65 temperature=500.0 units=atomic
O         0.0000000000      -0.0000000006       0.0575267802   5.331352965752e-12  -7.654702320082e-11   7.431711753365e-03
H        -0.0000000007       0.0000000094      -0.9129917477  -5.360221046931e-12   7.659023114442e-11  -7.432223084306e-03
2
Properties=species:S:1:pos:R:3:forces:R:3 energy=-7.568266766081e+01 dipole="-8.8700350457e-10 1.2210941474e-08 -6.5792830800e-01" quadrupole="-4.2385019208e+00 2.9917011410e-01 6.5706234405e-09 2.9917011410e-01 -5.0884927420e+00 -3.0540169336e-08 6.5706234405e-09 -3.0540169336e-08 -3.4621023747e+00" polarizability="6.2604351194e+00 -4.1180713321e-01 -4.4502783280e-09 -4.1180715191e-01 7.4304445073e+00 -2.1119860272e-08 7.5171553853e-08 -1.0062427195e-06 8.5983910932e+00" dipole_derivatives="-3.6099513490e-01 -1.3267065899e-06 4.9141620435e-10 1.3266799608e-06 -3.6099513476e-01 -4.1144356998e-09 1.0432760211e-07 -3.0257979455e-07 -1.3439771688e-01 3.6099469172e-01 -3.6588984904e-07 -4.7521161738e-10 3.6589006281e-07 3.6099469160e-01 4.1376484705e-09 -1.0431672193e-07 3.0257091277e-07 1.3428174556e-01" charge=0 multiplicity=2 method=b3lyp basis=def2-svpd config_type=oh_q0_m2 sample_index=66 temperature=500.0 units=atomic
O         0.0000000001      -0.0000000011       0.0571671837   1.821056259417e-11  -2.508172631536e-10   1.351318037329e-02
H        -0.0000000012       0.0000000168      -0.9072846905  -1.819867118235e-11   2.508131403030e-10  -1.351352074532e-02
2
Properties=species:S:1:pos:R:3:forces:R:3 energy=-7.567795631055e+01 dipole="-4.3865051796e-09 6.2755266056e-08 -6.4353137132e-01" quadrupole="-5.0139989561e+00 3.3001357799e-01 4.2192629015e-08 3.3001357799e-01 -4.2195867865e+00 -6.8512045378e-08 4.2192629015e-08 -6.8512045378e-08 -3.5395608448e+00" polarizability="7.2502192826e+00 -4.3775299706e-01 -3.7994168350e-08 -4.3775339095e-01 6.1964375779e+00 -1.6180785912e-07 1.5849950681e-07 -3.9531436119e-07 7.8943751000e+00" dipole_derivatives="-3.7439590835e-01 5.0765612095e-09 2.1619365593e-09 -5.0763022171e-09 -3.7439590833e-01 -2.0317234747e-08 -2.3227966772e-07 -4.2848197213e-08 -1.4313126392e-01 3.7439759960e-01 5.6512481879e-08 -2.1475567668e-09 -5.6513312766e-08 3.7439759962e-01 2.0302101971e-08 2.3228136081e-07 4.2857828397e-08 1.4331153844e-01" charge=0 multiplicity=2 method=b3lyp basis=def2-svpd config_type=oh_q0_m2 sample_index=67 temperature=500.0 units=atomic
O         0.0000000004      -0.0000000053       0.0539149745   5.560121385125e-10  -7.954559121672e-09   8.157150839402e-02
H        -0.0000000058       0.0000000834      -0.8556697707  -5.560263748831e-10   7.954590827035e-09  -8.157189775811e-02
2
Properties=species:S:1:pos:R:3:forces:R:3 energy=-7.568132262829e+01 dipole="2.5642143072e-09 -3.7085662580e-08 -6.7198491536e-01" quadrupole="-4.3321266095e+00 3.6071525004e-01 -2.3607809819e-08 3.6071525004e-01 -5.0885065466e+00 9.6118142922e-08 -2.3607809819e-08 9.6118142922e-08 -3.3727944525e+00" polarizability="6.4414042663e+00 -5.1177281716e-01 1.7123831303e-08 -5.1177287412e-01 7.5145446821e+00 1.0242438578e-07 -5.3549322128e-07 8.3394439243e-08 9.4051990213e+00" dipole_derivatives="-3.4796118352e-01 1.0789066737e-07 -9.0841576447e-10 -1.0787004919e-07 -3.4796118361e-01 1.2339049712e-08 -3.7249259233e-08 -1.2737297328e-08 -1.2435574771e-01 3.4796166859e-01 2.1676758736e-09 9.0763235809e-10 -2.1753699266e-09 3.4796166867e-01 -1.2321336424e-08 3.7255337704e-08 1.2742043531e-08 1.2437536404e-01" charge=0 multiplicity=2 method=b3lyp basis=def2-svpd config_type=oh_q0_m2 sample_index=68 temperature=500.0 units=atomic
O        -0.0000000002       0.0000000033       0.0605758940   1.336945057127e-10  -1.933564163184e-09  -3.503551243895e-02
H         0.0000000037      -0.0000000531      -0.9613833973  -1.337006137672e-10   1.933555416009e-09   3.503528952539e-02
2
Properties=species:S:1:pos:R:3:forces:R:3 energy=-7.568122964979e+01 dipole="2.6278445796e-09 -3.8170327280e-08 -6.7231032211e-01" quadrupole="-5.1706231434e+00 2.4967936485e-01 -2.1258600054e-08 2.4967936485e-01 -4.2522122328e+00 5.1087577953e-08 -2.1258600054e-08 5.1087577953e-08 -3.3705523170e+00" polarizability="7.6329060411e+00 -3.5440125531e-01 1.3246764892e-08 -3.5440240140e-01 6.3292884813e+00 1.7488160435e-07 -6.1447928010e-07 6.0898075705e-07 9.4255163389e+00" dipole_derivatives="-3.4765835748e-01 1.0732773512e-07 -9.6815874620e-10 -1.0730818231e-07 -3.4765835750e-01 1.2291033089e-08 1.4835051243e-07 -2.4177709834e-07 -1.2405834583e-01 3.4765882731e-01 2.6850998839e-09 9.3364637350e-10 -2.6848897598e-09 3.4765882735e-01 -1.2285648699e-08 -1.4836654127e-07 2.4177590485e-07 1.2415046625e-01" charge=0 multiplicity=2 method=b3lyp basis=def2-svpd config_type=oh_q0_m2 sample_index=69 temperature=500.0 units=atomic
O        -0.0000000002       0.0000000034       0.0606580139   1.406632778798e-10  -2.042791112209e-09  -3.598063541006e-02
H         0.0000000038      -0.0000000547      -0.9626866981  -1.406396562789e-10   2.042777587489e-09   3.598030954590e-02
2
Properties=species:S:1:pos:R:3:forces:R:3 energy=-7.568186193051e+01 dipole="2.0499479538e-09 -2.9690167044e-08 -6.6986920284e-01" quadrupole="-5.2230481844e+00 4.9512017857e-02 -7.7920605005e-09 4.9512017857e-02 -4.1833129142e+00 3.5390102335e-08 -7.7920605005e-09 3.5390102335e-08 -3.3871739628e+00" polarizability="7.6914164758e+00 -6.9942346997e-02 -1.7098615385e-09 -6.9942758606e-02 6.2225558689e+00 1.3573814532e-07 -3.8588670961e-07 2.5339233948e-07 9.2750080548e+00" dipole_derivatives="-3.4992778307e-01 -1.3822316813e-06 -6.7488465115e-10 1.3822343175e-06 -3.4992778307e-01 9.8732124181e-09 -8.4463797068e-08 -1.4373585655e-08 -1.2594500771e-01 3.4992756711e-01 -2.3838345283e-07 6.9036240924e-10 2.3838364934e-07 3.4992756712e-01 -9.8581418266e-09 8.4461604377e-08 1.4392764758e-08 1.2592811389e-01" charge=0 multiplicity=2 method=b3lyp basis=def2-svpd config_type=oh_q0_m2 sample_index=70 temperature=500.0 units=atomic
O        -0.0000000002       0.0000000027       0.0600456738   8.779693943745e-11  -1.272268473408e-09  -2.870508727106e-02
H         0.0000000029      -0.0000000422      -0.9529684173  -8.784175029771e-11   1.272284718804e-09   2.870473409095e-02
2
Properties=species:S:1:pos:R:3:forces:R:3 energy=-7.568283282582e+01 dipole="2.0316220794e-10 -2.7665590986e-09 -6.6219894823e-01" quadrupole="-4.2779378215e+00 -3.3371593436e-01 1.1147884970e-09 -3.3371593436e-01 -5.0772218691e+00 6.8058545455e-09 1.1147884970e-09 6.8058545455e-09 -3.4364812631e+00" polarizability="6.3286486284e+00 4.6389162891e-01 1.1659206264e-07 4.6389164055e-01 7.4397018868e+00 -3.2111746743e-08 -2.6844190324e-08 3.7018074647e-07 8.8296721138e+00" dipole_derivatives="-3.5704003567e-01 -1.2652102424e-06 -8.1661681287e-11 1.2652457208e-06 -3.5704003579e-01 9.4193678582e-10 -8.1615075809e-08 4.7512604961e-08 -1.3131639963e-01 3.5703967279e-01 -3.1830479017e-07 6.9306980693e-11 3.1830465993e-07 3.5703967293e-01 -9.4282930107e-10 8.1614937031e-08 -4.7491482968e-08 1.3135615542e-01" charge=0 multiplicity=2 method=b3lyp basis=def2-svpd config_type=oh_q0_m2 sample_index=71 temperature=500.0 units=atomic
O        -0.0000000000       0.0000000002       0.0581756662   8.942998560264e-13  -1.217248660584e-11  -2.919622228492e-03
H         0.0000000003      -0.0000000039      -0.9232900395  -8.913578264101e-13   1.219429278385e-11   2.919234033335e-03
2
Properties=species:S:1:pos:R:3:forces:R:3 energy=-7.568241891262e+01 dipole="-1.3021431935e-09 1.8921960145e-08 -6.5600398556e-01" quadrupole="-4.9798336013e+00 4.0692088192e-01 1.4743951468e-08 4.0692088192e-01 -4.3345460023e+00 -2.5695220103e-08 1.4743951468e-08 -2.5695220103e-08 -3.4732368048e+00" polarizability="7.2702717997e+00 -5.5745556048e-01 -1.3532431224e-08 -5.5745586982e-01 6.3862604295e+00 -5.9588964907e-08 1.0740424775e-07 -7.9134432940e-07 8.4977787596e+00" dipole_derivatives="-3.6277803957e-01 -1.5561968626e-06 2.6625271473e-10 1.5561693357e-06 -3.6277803959e-01 -6.7851159899e-09 -2.9628174913e-07 -2.2616172823e-07 -1.3531423350e-01 3.6277759298e-01 -4.0238258636e-07 -2.6760188985e-10 4.0238264919e-07 3.6277759299e-01 6.7620271667e-09 2.9627991727e-07 2.2616594708e-07 1.3554898787e-01" charge=0 multiplicity=2 method=b3lyp basis=def2-svpd config_type=oh_q0_m2 sample_index=72 temperature=500.0 units=atomic
O         0.0000000001      -0.0000000016       0.0567198324   4.262194760974e-11  -6.184001252352e-10   2.143990265573e-02
H        -0.0000000018       0.0000000260      -0.9001849004  -4.257232800899e-11   6.184039601351e-10  -2.144036122638e-02
2
Properties=species:S:1:pos:R:3:forces:R:3 energy=-7.568072454154e+01 dipole="3.0743028305e-09 -4.3955828552e-08 -6.7393929326e-01" quadrupole="-5.2396221714e+00 -1.8280031568e-02 -7.3583552969e-09 -1.8280031568e-02 -4.1942560306e+00 5.4359496752e-08 -7.3583552969e-09 5.4359496752e-08 -3.3592005393e+00" polarizability="7.7420225149e+00 2.6033314879e-02 -9.8537530397e-09 2.6033494398e-02 6.2532791297e+00 2.1419624489e-07 -7.0977050878e-07 2.7492494870e-07 9.5284812471e+00" dipole_derivatives="-3.4614073909e-01 1.1197018632e-07 -1.1852061100e-09 -1.1199351131e-07 -3.4614073831e-01 1.3747025159e-08 -2.4395752085e-07 6.5088434642e-08 -1.2293844636e-01 3.4614113230e-01 1.7040475573e-09 1.1712910084e-09 -1.7217755448e-09 3.4614113157e-01 -1.3754123162e-08 2.4400401144e-07 -6.5103103464e-08 1.2293962930e-01" charge=0 multiplicity=2 method=b3lyp basis=def2-svpd config_type=oh_q0_m2 sample_index=73 temperature=500.0 units=atomic
O        -0.0000000003       0.0000000040       0.0610715834   1.852288477521e-10  -2.647927112305e-09  -4.060058567912e-02
H         0.0000000044      -0.0000000632      -0.9692503466  -1.852201599859e-10   2.647907096062e-09   4.060046150658e-02
2
Properties=species:S:1:pos:R:3:forces:R:3 energy=-7.568275456640e+01 dipole="6.0455865987e-10 -8.7324670135e-09 -6.6390226730e-01" quadrupole="-5.2022975848e+00 4.4965111026e-02 -2.1504938211e-09 4.4965111026e-02 -4.1641624632e+00 9.7144106754e-09 -2.1504938211e-09 9.7144106754e-09 -3.4259038045e+00" polarizability="7.6241106581e+00 -6.2730395574e-02 -3.5010662541e-10 -6.2730935389e-02 6.1757192992e+00 3.6297654341e-08 -8.1750855035e-08 -5.9071351857e-07 8.9251266896e+00" dipole_derivatives="-3.5546223844e-01 -1.4634756396e-06 -1.7379227842e-10 1.4634851865e-06 -3.5546223844e-01 2.8889798852e-09 -2.0059662265e-07 8.2555323688e-08 -1.3018693794e-01 3.5546194703e-01 -3.1462462699e-07 2.0638491361e-10 3.1462457949e-07 3.5546194701e-01 -2.9003947993e-09 2.0060539341e-07 -8.2555601244e-08 1.3018466742e-01" charge=0 multiplicity=2 method=b3lyp basis=def2-svpd config_type=oh_q0_m2 sample_index=74 temperature=500.0 units=atomic
O        -0.0000000001       0.0000000008       0.0585841910   8.247829273398e-12  -1.190230664412e-10  -9.046154696256e-03
H         0.0000000008      -0.0000000122      -0.9297736243  -8.242301577016e-12   1.189654886920e-10   9.045921952840e-03
2
Properties=species:S:1:pos:R:3:forces:R:3 energy=-7.568191598432e+01 dipole="1.9850869153e-09 -2.8849431297e-08 -6.6962878600e-01" quadrupole="-4.9540577540e+00 4.5751236169e-01 -2.4322977138e-08 4.5751236169e-01 -4.4506844036e+00 4.7086022920e-08 -2.4322977138e-08 4.7086022920e-08 -3.3887863720e+00" polarizability="7.3101461596e+00 -6.4610405648e-01 2.2209279661e-08 -6.4610414123e-01 6.5992802658e+00 1.1297358246e-07 -3.9706751613e-07 9.5635020565e-08 9.2604204969e+00" dipole_derivatives="-3.5015115095e-01 -1.3973555452e-06 -6.0375687586e-10 1.3973633464e-06 -3.5015115083e-01 9.7816493182e-09 -2.4275220722e-07 3.2923033744e-07 -1.2618750665e-01 3.5015093566e-01 -2.4218379632e-07 5.9089894955e-10 2.4218352671e-07 3.5015093557e-01 -9.7908456389e-09 2.4274487975e-07 -3.2923866411e-07 1.2609354934e-01" charge=0 multiplicity=2 method=b3lyp basis=def2-svpd config_type=oh_q0_m2 sample_index=76 temperature=500.0 units=atomic
O        -0.0000000002       0.0000000026       0.0599858262   8.304482879625e-11  -1.204533736406e-09  -2.796509944945e-02
H         0.0000000028      -0.0000000410      -0.9520185927  -8.306695255806e-11   1.204507123564e-09   2.796467684404e-02
2
Properties=species:S:1:pos:R:3:forces:R:3 energy=-7.568233803658e+01 dipole="1.4626140535e-09 -2.1165037197e-08 -6.6744707866e-01" quadrupole="-4.7668979377e+00 5.1676653010e-01 -1.9415193127e-08 5.1676653010e-01 -4.6232036741e+00 3.9797911087e-08 -1.9415193127e-08 3.9797911087e-08 -3.4032156441e+00" polarizability="7.0345848444e+00 -7.2653224559e-01 1.8551937135e-08 -7.2653232016e-01 6.8325620849e+00 7.1367748677e-08 -2.4983028397e-07 4.3949194032e-08 9.1299845232e+00" dipole_derivatives="-3.5217640555e-01 -1.4156358402e-06 -4.7316575473e-10 1.4156145283e-06 -3.5217640551e-01 7.1732374500e-09 -7.3797634670e-09 -1.8087040199e-07 -1.2767322863e-01 3.5217616259e-01 -2.6982342402e-07 4.6716544726e-10 2.6982335507e-07 3.5217616252e-01 -7.1640835098e-09 7.3868411388e-09 1.8086879217e-07 1.2767445127e-01" charge=0 multiplicity=2 method=b3lyp basis=def2-svpd config_type=oh_q0_m2 sample_index=77 temperature=500.0 units=atomic
O        -0.0000000001       0.0000000019       0.0594465283   4.619975979100e-11  -6.675798020807e-10  -2.105374301638e-02
H         0.0000000021      -0.0000000299      -0.9434595430  -4.619526899797e-11   6.675512982179e-10   2.105349237053e-02
2
Properties=species:S:1:pos:R:3:forces:R:3 energy=-7.568274036747e+01 dipole="-6.8306315503e-10 9.3267584243e-09 -6.5874904511e-01" quadrupole="-4.2105501448e+00 -2.5039600340e-01 -2.8173055788e-09 -2.5039600340e-01 -5.1218412564e+00 -2.3322111876e-08 -2.8173055788e-09 -2.3322111876e-08 -3.4572764585e+00" polarizability="6.2243694178e+00 3.4527678623e-01 4.2996517898e-07 3.4527679019e-01 7.4809742148e+00 -1.0365305425e-07 6.9842722300e-08 -8.6736786027e-07 8.6419745376e+00" dipole_derivatives="-3.6023485554e-01 -1.3000535231e-06 4.3339911026e-10 1.3000510798e-06 -3.6023485547e-01 -3.2229289150e-09 9.9968922029e-08 -4.8655968143e-08 -1.3372103866e-01 3.6023442763e-01 -3.5584664614e-07 -4.3113246196e-10 3.5584645646e-07 3.6023442755e-01 3.2096542939e-09 -9.9975888679e-08 4.8658077567e-08 1.3372702262e-01" charge=0 multiplicity=2 method=b3lyp basis=def2-svpd config_type=oh_q0_m2 sample_index=78 temperature=500.0 units=atomic
O         0.0000000001      -0.0000000008       0.0573593118   1.066948741022e-11  -1.448653562912e-10   1.023233822842e-02
H        -0.0000000009       0.0000000129      -0.9103339027  -1.069611220368e-11   1.448901701653e-10  -1.023286516984e-02
2
Properties=species:S:1:pos:R:3:forces:R:3 energy=-7.567889331379e+01 dipole="4.1974144179e-09 -6.0636476816e-08 -6.7866549667e-01" quadrupole="-5.2157942153e+00 -2.0353113433e-01 6.5098186938e-09 -2.0353113433e-01 -4.2503675787e+00 8.1371305786e-08 6.5098186938e-09 8.1371305786e-08 -3.3250518597e+00" polarizability="7.7399321924e+00 2.9234731106e-01 -3.9232348412e-08 2.9234872860e-01 6.3532039215e+00 3.1388129742e-07 -1.4158623049e-06 5.5259364725e-07 9.8392676936e+00" dipole_derivatives="-3.4172240424e-01 1.1606329971e-07 -1.3807316885e-09 -1.1607337446e-07 -3.4172240416e-01 2.0002950704e-08 2.7093507993e-08 1.9559009967e-07 -1.1938747705e-01 3.4172258481e-01 9.1700426676e-10 1.3928872652e-09 -9.1905117524e-10 3.4172258476e-01 -2.0007503700e-08 -2.7097019073e-08 -1.9558824005e-07 1.1939233698e-01" charge=0 multiplicity=2 method=b3lyp basis=def2-svpd config_type=oh_q0_m2 sample_index=79 temperature=500.0 units=atomic
O        -0.0000000004       0.0000000056       0.0622950375   3.277324883234e-10  -4.734242953588e-09  -5.298702642776e-02
H         0.0000000061      -0.0000000883      -0.9886674520  -3.277141765637e-10   4.734218368129e-09   5.298701911796e-02
2
Properties=species:S:1:pos:R:3:forces:R:3 energy=-7.568237897482e+01 dipole="-1.3719599081e-09 1.9756218284e-08 -6.5575724856e-01" quadrupole="-5.1734383090e+00 -4.7738543015e-02 2.1389148120e-09 -4.7738543015e-02 -4.1393259903e+00 -1.9933957015e-08 2.1389148120e-09 -1.9933957015e-08 -3.4746462775e+00" polarizability="7.5341244941e+00 6.5362560585e-02 3.9462190964e-09 6.5362826761e-02 6.1181804317e+00 -7.1163383305e-08 1.2074233976e-07 -2.7492391181e-07 8.4850361299e+00" dipole_derivatives="-3.6300672739e-01 -1.5239225823e-06 4.7810011055e-10 1.5238792197e-06 -3.6300672759e-01 -6.8388987720e-09 -4.5418779848e-08 -4.0444009253e-08 -1.3574044457e-01 3.6300626597e-01 -4.0202237831e-07 -4.7607286934e-10 4.0202250899e-07 3.6300626613e-01 6.8487469056e-09 4.5418446781e-08 4.0436654025e-08 1.3572301165e-01" charge=0 multiplicity=2 method=b3lyp basis=def2-svpd config_type=oh_q0_m2 sample_index=80 temperature=500.0 units=atomic
O         0.0000000001      -0.0000000017       0.0566627854   4.702468458406e-11  -6.772433316192e-10   2.248043562991e-02
H        -0.0000000019       0.0000000271      -0.8992795234  -4.703462801906e-11   6.772906668021e-10  -2.248095299908e-02
2
Properties=species:S:1:pos:R:3:forces:R:3 energy=-7.568160512007e+01 dipole="-2.2148845233e-09 3.2185002181e-08 -6.5223784819e-01" quadrupole="-5.1491588075e+00 -1.2054397894e-01 -3.4147120770e-10 -1.2054397894e-01 -4.1406524008e+00 -3.1430673219e-08 -3.4147120770e-10 -3.1430673219e-08 -3.4943132263e+00" polarizability="7.4800568012e+00 1.6362467984e-01 3.8149375953e-09 1.6362520195e-01 6.1111787896e+00 -6.6519340834e-08 1.6811768757e-07 -3.0977110649e-07 8.3069727274e+00" dipole_derivatives="-3.6627215177e-01 -1.5713365836e-06 7.7262239678e-10 1.5713140665e-06 -3.6627215164e-01 -1.1274529440e-08 5.2056831068e-08 7.9475898085e-08 -1.3800803320e-01 3.6627159445e-01 -4.3371218852e-07 -7.7468894984e-10 4.3371223396e-07 3.6627159435e-01 1.1264016289e-08 -5.2071041923e-08 -7.9473982950e-08 1.3799927071e-01" charge=0 multiplicity=2 method=b3lyp basis=def2-svpd config_type=oh_q0_m2 sample_index=81 temperature=500.0 units=atomic
O         0.0000000002      -0.0000000028       0.0558562249   1.288682297658e-10  -1.872493535138e-09   3.794678378639e-02
H        -0.0000000030       0.0000000437      -0.8864788221  -1.288624062992e-10   1.872522936967e-09  -3.794719446145e-02
2
Properties=species:S:1:pos:R:3:forces:R:3 energy=-7.567535262332e+01 dipole="-5.2887942794e-09 7.7116642816e-08 -6.3948487628e-01" quadrupole="-5.1189641976e+00 -1.7663884510e-02 1.0817961996e-08 -1.7663884510e-02 -4.0887272015e+00 -6.3727642632e-08 1.0817961996e-08 -6.3727642632e-08 -3.5590104502e+00" polarizability="7.3667261396e+00 2.3165586761e-02 5.6578619825e-09 2.3165670083e-02 6.0156042389e+00 -2.0405408444e-07 1.9101968353e-07 -2.7658228782e-07 7.7149598548e+00" dipole_derivatives="-3.7820530428e-01 -2.4513556101e-08 1.7879554888e-09 2.4507990275e-08 -3.7820530440e-01 -2.8056338574e-08 2.1364485181e-07 1.2000678229e-09 -1.4559439135e-01 3.7820711203e-01 9.7812074242e-08 -1.8058784553e-09 -9.7797822197e-08 3.7820711215e-01 2.8061256418e-08 -2.1363058544e-07 -1.2140011219e-09 1.4558912235e-01" charge=0 multiplicity=2 method=b3lyp basis=def2-svpd config_type=oh_q0_m2 sample_index=82 temperature=500.0 units=atomic
O         0.0000000004      -0.0000000064       0.0530363323   8.659332612727e-10  -1.262675142894e-08   1.047070478427e-01
H        -0.0000000070       0.0000001015      -0.8417250812  -8.659572258866e-10   1.262664608247e-08  -1.047065332290e-01
2
Properties=species:S:1:pos:R:3:forces:R:3 energy=-7.567705229375e+01 dipole="-4.7576391289e-09 6.8107182453e-08 -6.4201618413e-01" quadrupole="-4.1038423083e+00 -9.0231094575e-02 -5.4481282506e-09 -9.0231094575e-02 -5.1200332022e+00 -1.6618934297e-07 -5.4481282506e-09 -1.6618934297e-07 -3.5469577440e+00" polarizability="6.0400283931e+00 1.1915422882e-01 2.5727138488e-08 1.1915349717e-01 7.3819724118e+00 -4.8053299079e-08 -9.2749222959e-08 -5.1516587776e-07 7.8263261224e+00" dipole_derivatives="-3.7581913876e-01 -8.2322248349e-09 1.9901613218e-09 8.1347373675e-09 -3.7581913873e-01 -2.4588220874e-08 1.6826343097e-07 -5.0076845448e-07 -1.4417035023e-01 3.7582087642e-01 7.8969993749e-08 -1.9819237278e-09 -7.9002485242e-08 3.7582087641e-01 2.4593315529e-08 -1.6775927869e-07 5.0078552416e-07 1.4417178109e-01" charge=0 multiplicity=2 method=b3lyp basis=def2-svpd config_type=oh_q0_m2 sample_index=83 temperature=500.0 units=atomic
O         0.0000000004      -0.0000000057       0.0535843420   6.670283399515e-10  -9.548406420111e-09   9.000860686319e-02
H        -0.0000000063       0.0000000902      -0.8504223927  -6.669682842376e-10   9.548417103513e-09  -9.000877276281e-02
2
Properties=species:S:1:pos:R:3:forces:R:3 energy=-7.568284107609e+01 dipole="-6.7583962910e-11 6.7748248954e-10 -6.6121585332e-01" quadrupole="-5.1946297157e+00 1.2239814434e-02 1.9916814954e-10 1.2239814434e-02 -4.1540268867e+00 -6.7822715642e-10 1.9916814954e-10 -6.7822715642e-10 -3.4424918934e+00" polarizability="7.5966869467e+00 -1.6971741052e-02 1.0300202418e-10 -1.6971875159e-02 6.1534900348e+00 -2.6947799109e-09 7.8853649628e-09 4.0062993867e-08 8.7754288145e+00" dipole_derivatives="-3.5795081430e-01 6.9809993924e-07 2.9842373581e-11 -6.9811463320e-07 -3.5795081414e-01 -9.4606774899e-11 5.5465881887e-08 -4.5936282556e-08 -1.3204190879e-01 3.5795041296e-01 -7.3010489172e-08 -1.5414244751e-11 7.3010417630e-08 3.5795041281e-01 1.0767555816e-10 -5.5478205363e-08 4.5940945492e-08 1.3203967622e-01" charge=0 multiplicity=2 method=b3lyp basis=def2-svpd config_type=oh_q0_m2 sample_index=84 temperature=500.0 units=atomic
O         0.0000000000      -0.0000000001       0.0579415583   1.007383519418e-13  -7.244297021855e-13   7.251427756571e-04
H        -0.0000000001       0.0000000009      -0.9195745770  -7.504538964289e-14   7.439843725944e-13  -7.256143447651e-04
2
Properties=species:S:1:pos:R:3:forces:R:3 energy=-7.568281480592e+01 dipole="3.3683723188e-10 -4.8504206538e-09 -6.6278964615e-01" quadrupole="-5.1939079978e+00 -8.1442358868e-02 -3.3611070368e-10 -8.1442358868e-02 -4.1651662065e+00 5.3514683129e-09 -3.3611070368e-10 5.3514683129e-09 -3.4328367777e+00" polarizability="7.6054759552e+00 1.1335055308e-01 -1.4725201410e-09 1.1335143484e-01 6.1736796290e+00 1.9788247003e-08 -4.4526957714e-08 -3.0778025236e-07 8.8625595040e+00" dipole_derivatives="-3.5649287637e-01 -1.4659561428e-06 -8.8956737099e-11 1.4659028831e-06 -3.5649287644e-01 1.5980324845e-09 -6.0442428840e-08 2.3642124369e-07 -1.3106963371e-01 3.5649256549e-01 -3.2735656937e-07 9.9408574792e-11 3.2735673143e-07 3.5649256553e-01 -1.6009044683e-09 6.0422666870e-08 -2.3642923730e-07 1.3096253042e-01" charge=0 multiplicity=2 method=b3lyp basis=def2-svpd config_type=oh_q0_m2 sample_index=85 temperature=500.0 units=atomic
O        -0.0000000000       0.0000000004       0.0583169156   2.519848825893e-12  -3.699329930742e-11  -5.071206170966e-03
H         0.0000000005      -0.0000000068      -0.9255317692  -2.534272401072e-12   3.703974956413e-11   5.070728205895e-03
2
Properties=species:S:1:pos:R:3:forces:R:3 energy=-7.568253667824e+01 dipole="-1.0946208721e-09 1.6077170320e-08 -6.5681058769e-01" quadrupole="-5.1724096047e+00 -8.4449950076e-02 7.6596386883e-10 -8.4449950076e-02 -4.1472522327e+00 -1.6462312202e-08 7.6596386883e-10 -1.6462312202e-08 -3.4685999844e+00" polarizability="7.5390993616e+00 1.1592824992e-01 4.4865526190e-09 1.1592864609e-01 6.1318163506e+00 -5.8906990410e-08 1.0419149542e-07 -3.3083639799e-07 8.5396915203e+00" dipole_derivatives="-3.6203046055e-01 -1.5918795039e-06 3.5806341750e-10 1.5918912318e-06 -3.6203046064e-01 -5.5671670523e-09 1.1347062179e-07 1.7754253623e-07 -1.3503912282e-01 3.6203004588e-01 -3.9775293205e-07 -3.7854288258e-10 3.9775278497e-07 3.6203004596e-01 5.5578357242e-09 -1.1346590334e-07 -1.7755472093e-07 1.3502565595e-01" charge=0 multiplicity=2 method=b3lyp basis=def2-svpd config_type=oh_q0_m2 sample_index=86 temperature=500.0 units=atomic
O         0.0000000001      -0.0000000014       0.0569068427   3.014590386156e-11  -4.424448336016e-10   1.807633101973e-02
H        -0.0000000015       0.0000000221      -0.9031528892  -3.012537043087e-11   4.424775602192e-10  -1.807681555535e-02
2
Properties=species:S:1:pos:R:3:forces:R:3 energy=-7.567364147421e+01 dipole="-5.8931605297e-09 8.5023988917e-08 -6.3724086937e-01" quadrupole="-4.0821419867e+00 1.7848800603e-02 7.1069276331e-09 1.7848800603e-02 -5.1112462969e+00 -2.0590344424e-07 7.1069276331e-09 -2.0590344424e-07 -3.5693800549e+00" polarizability="6.0032508054e+00 -2.3254527001e-02 1.1776936210e-08 -2.3254327469e-02 7.3440435714e+00 -3.6466144873e-08 -1.0832625786e-07 -4.0281764840e-07 7.6185692943e+00" dipole_derivatives="-3.8033069811e-01 -2.3906039689e-08 1.0929755069e-09 2.4025278813e-08 -3.8033069907e-01 -3.1160690919e-08 -3.2378433268e-07 -1.4505704971e-07 -1.4681132495e-01 3.8033258368e-01 7.4878337853e-08 -1.0893201845e-09 -7.4978428670e-08 3.8033258465e-01 3.1159752737e-08 3.2368344116e-07 1.4500725620e-07 1.4680604374e-01" charge=0 multiplicity=2 method=b3lyp basis=def2-svpd config_type=oh_q0_m2 sample_index=87 temperature=500.0 units=atomic
O         0.0000000005      -0.0000000070       0.0525549057   1.095001349502e-09  -1.579641145567e-08   1.183913621799e-01
H        -0.0000000077       0.0000001113      -0.8340844914  -1.094991492815e-09   1.579629721379e-08  -1.183907055215e-01
2
Properties=species:S:1:pos:R:3:forces:R:3 energy=-7.568137782369e+01 dipole="2.5002818052e-09 -3.6381393460e-08 -6.7178724704e-01" quadrupole="-4.3415272530e+00 3.7093228258e-01 -2.3720326428e-08 3.7093228258e-01 -5.0777707221e+00 9.3613925836e-08 -2.3720326428e-08 9.3613925836e-08 -3.3741528886e+00" polarizability="6.4538858744e+00 -5.2598337231e-01 -5.1366560565e-07 -5.2598343223e-01 7.4978849844e+00 -9.8792643448e-08 -5.1852103712e-07 8.1241576588e-08 9.3928892558e+00" dipole_derivatives="-3.4814450877e-01 -1.3623232470e-06 -8.9929695208e-10 1.3623297269e-06 -3.4814450890e-01 1.2063036794e-08 3.4221264711e-08 3.9634684423e-08 -1.2428384157e-01 3.4814430909e-01 -2.1372281421e-07 8.9233320224e-10 2.1372262068e-07 3.4814430924e-01 -1.2038026752e-08 -3.4245356550e-08 -3.9634406868e-08 1.2453593234e-01" charge=0 multiplicity=2 method=b3lyp basis=def2-svpd config_type=oh_q0_m2 sample_index=88 temperature=500.0 units=atomic
O        -0.0000000002       0.0000000033       0.0605260714   1.282387692390e-10  -1.866136722729e-09  -3.445753965658e-02
H         0.0000000036      -0.0000000520      -0.9605926752  -1.282288093919e-10   1.866082305320e-09   3.445736664706e-02
2
Properties=species:S:1:pos:R:3:forces:R:3 energy=-7.567563525496e+01 dipole="5.7107276515e-09 -8.2932573835e-08 -6.8497481324e-01" quadrupole="-5.2795537906e+00 -1.8063019599e-02 -1.4555937982e-08 -1.8063019599e-02 -4.2302942959e+00 1.1538749017e-07 -1.4555937982e-08 1.1538749017e-07 -3.2765202531e+00" polarizability="7.8767420602e+00 2.6217701034e-02 -2.3257537573e-08 2.6217886616e-02 6.3537785405e+00 4.7692623077e-07 9.5768517335e-09 4.9922299006e-07 1.0284345840e+01" dipole_derivatives="-3.3577939049e-01 1.1967957004e-07 -2.0096719790e-09 -1.1963248993e-07 -3.3577939212e-01 2.7700126761e-08 -4.2485867602e-07 3.6290886962e-08 -1.1433406911e-01 3.3577931349e-01 -3.7789151127e-10 2.0155295937e-09 3.5964026599e-10 3.3577931508e-01 -2.7668111391e-08 4.2484131491e-07 -3.6394470770e-08 1.1454977475e-01" charge=0 multiplicity=2 method=b3lyp basis=def2-svpd config_type=oh_q0_m2 sample_index=89 temperature=500.0 units=atomic
O        -0.0000000005       0.0000000077       0.0639869778   5.610886793933e-10  -8.149110153481e-09  -6.730678436246e-02
H         0.0000000085      -0.0000001230      -1.0155197715  -5.611522726212e-10   8.149184405177e-09   6.730738772145e-02
2
Properties=species:S:1:pos:R:3:forces:R:3 energy=-7.567480163882e+01 dipole="6.1324430149e-09 -8.7854759722e-08 -6.8635765268e-01" quadrupole="-4.2349156064e+00 1.8314968059e-02 -1.0971887293e-08 1.8314968059e-02 -5.2846021500e+00 2.5867351913e-07 -1.0971887293e-08 2.5867351913e-07 -3.2654124537e+00" polarizability="6.3674497874e+00 -2.6640149563e-02 -3.2536704228e-08 -2.6639974307e-02 7.8942694204e+00 3.1874642397e-07 -2.9953909725e-07 3.1662397859e-07 1.0386867131e+01" dipole_derivatives="-3.3446852403e-01 1.2291484650e-07 -2.0025159512e-09 -1.2234050938e-07 -3.3446852594e-01 2.8289188947e-08 1.0555795127e-07 5.0566661969e-08 -1.1345995937e-01 3.3446838984e-01 -1.5935984213e-09 1.9980693348e-09 1.3770247044e-09 3.3446839173e-01 -2.8290154702e-08 -1.0438061526e-07 -4.9772796995e-08 1.1346111438e-01" charge=0 multiplicity=2 method=b3lyp basis=def2-svpd config_type=oh_q0_m2 sample_index=90 temperature=500.0 units=atomic
O        -0.0000000006       0.0000000082       0.0643674368   6.264297025620e-10  -8.976417361909e-09  -7.012758646208e-02
H         0.0000000091      -0.0000001308      -1.0215579323  -6.264162351581e-10   8.976474112647e-09   7.012792483295e-02
2
Properties=species:S:1:pos:R:3:forces:R:3 energy=-7.568105690594e+01 dipole="-2.6377879572e-09 3.8449531030e-08 -6.5043386600e-01" quadrupole="-4.2434191279e+00 -3.3443788450e-01 -1.6735518680e-08 -3.3443788450e-01 -5.0346789155e+00 -8.9097607623e-08 -1.6735518680e-08 -8.9097607623e-08 -3.5040810882e+00" polarizability="6.2457554892e+00 4.5191900957e-01 -1.4832009941e-06 4.5191904658e-01 7.3149689714e+00 4.4825842223e-07 1.8753452817e-07 -4.4461407997e-08 8.2183152282e+00" dipole_derivatives="-3.6794902768e-01 -1.5787573775e-06 2.3469214869e-10 1.5787928510e-06 -3.6794902764e-01 -1.2822332888e-08 -1.5909637496e-07 -2.1789239857e-07 -1.3910682127e-01 3.6794841519e-01 -4.4641899929e-07 -2.1917000484e-10 4.4641890180e-07 3.6794841522e-01 1.2815629877e-08 1.5909248918e-07 2.1788346127e-07 1.3914050781e-01" charge=0 multiplicity=2 method=b3lyp basis=def2-svpd config_type=oh_q0_m2 sample_index=91 temperature=500.0 units=atomic
O         0.0000000002      -0.0000000033       0.0554478830   1.882851590730e-10  -2.739420892570e-09   4.633930410225e-02
H        -0.0000000036       0.0000000520      -0.8799981401  -1.882635827074e-10   2.739429071866e-09  -4.633969559869e-02
2
Properties=species:S:1:pos:R:3:forces:R:3 energy=-7.567904614893e+01 dipole="4.1367798720e-09 -5.9337000002e-08 -6.7831790850e-01" quadrupole="-5.2144824850e+00 -2.0365249982e-01 6.3341363956e-09 -2.0365249982e-01 -4.2492925493e+00 7.9435281040e-08 6.3341363956e-09 7.9435281040e-08 -3.3276261213e+00" polarizability="7.7356719390e+00 2.9234360656e-01 -3.8384772964e-08 2.9234500611e-01 6.3501265984e+00 3.0554034420e-07 -1.3706466310e-06 5.4772361782e-07 9.8157776003e+00" dipole_derivatives="-3.4204822123e-01 1.1718892824e-07 -1.3103000177e-09 -1.1714832407e-07 -3.4204822127e-01 1.9202999222e-08 1.6057716268e-07 -2.2088521290e-07 -1.1965487594e-01 3.4204841647e-01 4.6199319767e-10 1.3275825798e-09 -4.5762469513e-10 3.4204841654e-01 -1.9213871548e-08 -1.6060154595e-07 2.2085877571e-07 1.1965602421e-01" charge=0 multiplicity=2 method=b3lyp basis=def2-svpd config_type=oh_q0_m2 sample_index=92 temperature=500.0 units=atomic
O        -0.0000000004       0.0000000054       0.0622038255   3.179065228385e-10  -4.559823815431e-09  -5.212611278083e-02
H         0.0000000060      -0.0000000864      -0.9872198505  -3.178974579328e-10   4.559823566466e-09   5.212609385127e-02
2
Properties=species:S:1:pos:R:3:forces:R:3 energy=-7.566902785023e+01 dipole="-7.2053653510e-09 1.0313924889e-07 -6.3216829618e-01" quadrupole="-4.0673411992e+00 1.8063462924e-02 8.3524582905e-09 1.8063462924e-02 -5.0938468047e+00 -2.4527350420e-07 8.3524582905e-09 -2.4527350420e-07 -3.5917544002e+00" polarizability="5.9764437875e+00 -2.3169633957e-02 1.2470747857e-08 -2.3169450835e-02 7.2933476545e+00 -1.8556092108e-08 -1.0456027302e-07 -3.0995026239e-07 7.4083493888e+00" dipole_derivatives="-3.8517582570e-01 -1.8866773527e-07 2.6639773007e-09 1.8864951310e-07 -3.8517582590e-01 -3.8532931366e-08 3.5935057707e-07 1.1060277694e-07 -1.4906232234e-01 3.8517785470e-01 4.7792361239e-07 -2.6759095880e-09 -4.7795703351e-07 3.8517785489e-01 3.8469056143e-08 -3.5934988318e-07 -1.1058948202e-07 1.4939867924e-01" charge=0 multiplicity=2 method=b3lyp basis=def2-svpd config_type=oh_q0_m2 sample_index=93 temperature=500.0 units=atomic
O         0.0000000006      -0.0000000084       0.0514807744   1.729529942320e-09  -2.475581433564e-08   1.517349704404e-01
H        -0.0000000093       0.0000001333      -0.8170372483  -1.729577413760e-09   2.475573444133e-08  -1.517346527971e-01
2
Properties=species:S:1:pos:R:3:forces:R:3 energy=-7.567113900683e+01 dipole="-6.5877540664e-09 9.5340898659e-08 -6.3434628823e-01" quadrupole="-4.0812876524e+00 -8.9899643450e-02 -8.2827800822e-09 -8.9899643450e-02 -5.0937072117e+00 -2.2623142802e-07 -8.2827800822e-09 -2.2623142802e-07 -3.5823261710e+00" polarizability="5.9975747594e+00 1.1605171740e-01 3.2810291217e-08 1.1605106628e-01 7.3045446945e+00 -3.0218436719e-08 -8.3074159452e-08 -3.5085023949e-07 7.4973425876e+00" dipole_derivatives="-3.8308825347e-01 -8.9611893076e-08 2.5856515535e-09 8.9502326033e-08 -3.8308825276e-01 -3.5306974284e-08 -1.2718992526e-07 2.1496660008e-07 -1.4843260468e-01 3.8309026799e-01 2.2950233463e-07 -2.6114887620e-09 -2.2941157798e-07 3.8309026732e-01 3.5309044221e-08 1.2724965526e-07 -2.1483151369e-07 1.4831388656e-01" charge=0 multiplicity=2 method=b3lyp basis=def2-svpd config_type=oh_q0_m2 sample_index=94 temperature=500.0 units=atomic
O         0.0000000005      -0.0000000078       0.0519396717   1.422694068438e-09  -2.059008252933e-08   1.369950364279e-01
H        -0.0000000086       0.0000001239      -0.8243202817  -1.422685921729e-09   2.058999846927e-08  -1.369946345802e-01
2
Properties=species:S:1:pos:R:3:forces:R:3 energy=-7.568094891169e+01 dipole="2.8831885850e-09 -4.1548156555e-08 -6.7324169197e-01" quadrupole="-4.2000641145e+00 -9.3146384109e-02 2.2177717048e-09 -9.3146384109e-02 -5.2290809317e+00 1.1464311673e-07 2.2177717048e-09 1.1464311673e-07 -3.3640876355e+00" polarizability="6.2588327954e+00 1.3245188817e-01 -2.2065792115e-08 1.3245078414e-01 7.7220742873e+00 1.0928804123e-07 3.1255364437e-07 1.0149274261e-07 9.4841327216e+00" dipole_derivatives="-3.4679094306e-01 1.1059180653e-07 -1.0733778230e-09 -1.1055555018e-07 -3.4679094310e-01 1.3799603060e-08 4.0718955985e-08 -3.3430860857e-07 -1.2345475813e-01 3.4679136919e-01 1.5038132889e-09 1.0980993709e-09 -1.5117740448e-09 3.4679136922e-01 -1.3793853727e-08 -4.0712627714e-08 3.3428318447e-07 1.2345594178e-01" charge=0 multiplicity=2 method=b3lyp basis=def2-svpd config_type=oh_q0_m2 sample_index=95 temperature=500.0 units=atomic
O        -0.0000000003       0.0000000038       0.0608939825   1.654582138876e-10  -2.384909594978e-09  -3.864473359272e-02
H         0.0000000041      -0.0000000596      -0.9664316926  -1.655020393396e-10   2.384896273806e-09   3.864457172767e-02
2
Properties=species:S:1:pos:R:3:forces:R:3 energy=-7.568057572516e+01 dipole="3.2003767800e-09 -4.5471549347e-08 -6.7438258083e-01" quadrupole="-4.2366930346e+00 2.0379775241e-01 -1.7910378827e-08 2.0379775241e-01 -5.2001978792e+00 1.2534279546e-07 -1.7910378827e-08 1.2534279546e-07 -3.3560748103e+00" polarizability="6.3154946962e+00 -2.9047317660e-01 4.2673489825e-09 -2.9047310328e-01 7.6887840181e+00 1.2456225254e-07 -6.5099238067e-07 1.1236794186e-07 9.5568575322e+00" dipole_derivatives="-3.4572730234e-01 1.1327003923e-07 -1.1483409421e-09 -1.1328525997e-07 -3.4572730230e-01 1.5030367493e-08 -5.3973006620e-08 1.9453773314e-07 -1.2256573850e-01 3.4572767475e-01 1.6532221718e-09 1.1453084033e-09 -1.6549067908e-09 3.4572767471e-01 -1.5025883671e-08 5.3978571612e-08 -1.9452341127e-07 1.2262087218e-01" charge=0 multiplicity=2 method=b3lyp basis=def2-svpd config_type=oh_q0_m2 sample_index=96 temperature=500.0 units=atomic
O        -0.0000000003       0.0000000041       0.0611848375   1.985195495849e-10  -2.820199098440e-09  -4.182607766287e-02
H         0.0000000046      -0.0000000655      -0.9710477712  -1.985476958316e-10   2.820186065561e-09   4.182597439876e-02
2
Properties=species:S:1:pos:R:3:forces:R:3 energy=-7.568259187988e+01 dipole="-1.0250659745e-09 1.4624244232e-08 -6.5724403011e-01" quadrupole="-5.1643816963e+00 -1.2972587723e-01 -2.5156124601e-10 -1.2972587723e-01 -4.1581226775e+00 -1.5156837456e-08 -2.5156124601e-10 -1.5156837456e-08 -3.4660900685e+00" polarizability="7.5306235119e+00 1.7826449922e-01 2.8780503796e-09 1.7826496274e-01 6.1479160920e+00 -4.6133768841e-08 1.0255517812e-07 -4.0356566479e-07 8.5623725140e+00" dipole_derivatives="-3.6162888181e-01 -1.4791706908e-06 4.5174586906e-10 1.4792242216e-06 -3.6162888163e-01 -5.1794970273e-09 -1.9653700889e-07 3.6658531766e-07 -1.3491014708e-01 3.6162845169e-01 -3.8513361690e-07 -4.2799723510e-10 3.8513344624e-07 3.6162845154e-01 5.1819307634e-09 1.9651921757e-07 -3.6658903690e-07 1.3473959368e-01" charge=0 multiplicity=2 method=b3lyp basis=def2-svpd config_type=oh_q0_m2 sample_index=97 temperature=500.0 units=atomic
O         0.0000000001      -0.0000000013       0.0570076441   2.539138774666e-11  -3.624872030795e-10   1.629329467157e-02
H        -0.0000000014       0.0000000201      -0.9047526814  -2.540708660757e-11   3.625316751316e-10  -1.629364470040e-02
2
Properties=species:S:1:pos:R:3:forces:R:3 energy=-7.567711209780e+01 dipole="-4.6859076076e-09 6.7806811224e-08 -6.4211236171e-01" quadrupole="-4.0964856434e+00 1.7836587240e-02 5.8867052218e-09 1.7836587240e-02 -5.1280037048e+00 -1.6708937426e-07 5.8867052218e-09 -1.6708937426e-07 -3.5464927070e+00" polarizability="6.0304990581e+00 -2.3568840032e-02 1.0600477226e-08 -2.3568621599e-02 7.3935124692e+00 -4.6032005077e-08 -1.0855370416e-07 -5.0970606504e-07 7.8306156746e+00" dipole_derivatives="-3.7572874851e-01 -6.4950578697e-09 1.7567771507e-09 6.3453034246e-09 -3.7572874388e-01 -2.4455917626e-08 3.3341054917e-07 6.2393396005e-08 -1.4412194499e-01 3.7573048339e-01 7.6392111406e-08 -1.8196925155e-09 -7.6299469888e-08 3.7573047876e-01 2.4455765212e-08 -3.3340291639e-07 -6.2601951401e-08 1.4411669854e-01" charge=0 multiplicity=2 method=b3lyp basis=def2-svpd config_type=oh_q0_m2 sample_index=98 temperature=500.0 units=atomic
O         0.0000000004      -0.0000000057       0.0536052601   6.529254016147e-10  -9.447593278045e-09   8.946602940693e-02
H        -0.0000000062       0.0000000898      -0.8507543774  -6.529542708829e-10   9.447532330705e-09  -8.946561683406e-02
2
Properties=species:S:1:pos:R:3:forces:R:3 energy=-7.568237548368e+01 dipole="-1.3720256963e-09 1.9825880396e-08 -6.5573619624e-01" quadrupole="-4.1377213939e+00 2.6144980242e-02 2.2005987988e-09 2.6144980242e-02 -5.1749053864e+00 -5.1473776228e-08 2.2005987988e-09 -5.1473776228e-08 -3.4747662806e+00" polarizability="6.1159286869e+00 -3.5789903172e-02 -9.9314326245e-07 -3.5789571465e-02 7.5359766525e+00 -3.0677934277e-07 -6.2309963084e-08 -9.5360239000e-07 8.4839521515e+00" dipole_derivatives="-3.6302622349e-01 -1.5374531198e-06 4.7585017142e-10 1.5374359488e-06 -3.6302622330e-01 -6.8841354784e-09 -1.8871973428e-07 -3.2500069302e-07 -1.3573701065e-01 3.6302576466e-01 -4.0327754478e-07 -4.7562107928e-10 4.0327756691e-07 3.6302576444e-01 6.8718781910e-09 1.8872844953e-07 3.2498093105e-07 1.3573321554e-01" charge=0 multiplicity=2 method=b3lyp basis=def2-svpd config_type=oh_q0_m2 sample_index=99 temperature=500.0 units=atomic
O         0.0000000001      -0.0000000017       0.0566579238   4.723989987058e-11  -6.823539898693e-10   2.256940286370e-02
H        -0.0000000019       0.0000000272      -0.8992023664  -4.722367061688e-11   6.823918782998e-10  -2.256994108085e-02
2
Properties=species:S:1:pos:R:3:forces:R:3 energy=-7.567277649873e+01 dipole="-6.1251254627e-09 8.8776513382e-08 -6.3619517951e-01" quadrupole="-5.1076604247e+00 -1.7742180021e-02 1.2293223209e-08 -1.7742180021e-02 -4.0790754848e+00 -7.0296899177e-08 1.2293223209e-08 -7.0296899177e-08 -3.5741125168e+00" polarizability="7.3335585949e+00 2.3043831374e-02 5.5158780033e-09 2.3043911301e-02 5.9975940285e+00 -2.1904092828e-07 1.8607820746e-07 -2.8556790484e-07 7.5743786207e+00" dipole_derivatives="-3.8132472663e-01 -3.1747165980e-08 2.3228795037e-09 3.1683885562e-08 -3.8132472671e-01 -3.1771164143e-08 -2.0678475599e-07 1.1164680291e-09 -1.4769655904e-01 3.8132665772e-01 8.8642183624e-08 -2.2842080070e-09 -8.8627159194e-08 3.8132665779e-01 3.1815801648e-08 2.0684401414e-07 -1.1565193248e-09 1.4737684834e-01" charge=0 multiplicity=2 method=b3lyp basis=def2-svpd config_type=oh_q0_m2 sample_index=100 temperature=500.0 units=atomic
O         0.0000000005      -0.0000000073       0.0523319126   1.203310978969e-09  -1.744093994721e-08   1.249853469513e-01
H        -0.0000000080       0.0000001159      -0.8305454284  -1.203278824135e-09   1.744090603016e-08  -1.249852496824e-01
2
Properties=species:S:1:pos:R:3:forces:R:3 energy=-7.567518972053e+01 dipole="-5.3632541109e-09 7.7874505237e-08 -6.3925963808e-01" quadrupole="-4.1288318337e+00 2.0160784756e-01 2.9385494883e-08 2.0160784756e-01 -5.0774217643e+00 -1.8648130093e-07 2.9385494883e-08 -1.8648130093e-07 -3.5600641070e+00" polarizability="6.0677594197e+00 -2.6421538438e-01 -1.8293115596e-08 -2.6421536200e-01 7.3109366438e+00 -4.5830737004e-08 1.3546680535e-07 -4.6365509401e-07 7.7051826145e+00" dipole_derivatives="-3.7841819063e-01 -2.3348859098e-08 1.7275973678e-09 2.3299164404e-08 -3.7841818901e-01 -2.8410660994e-08 1.7992718426e-08 1.5569562306e-07 -1.4560557326e-01 3.7842000504e-01 9.4799731488e-08 -1.7586348084e-09 -9.4777161761e-08 3.7842000347e-01 2.8380058137e-08 -1.7991913515e-08 -1.5568984990e-07 1.4572027618e-01" charge=0 multiplicity=2 method=b3lyp basis=def2-svpd config_type=oh_q0_m2 sample_index=101 temperature=500.0 units=atomic
O         0.0000000004      -0.0000000065       0.0529878309   8.897542790267e-10  -1.291919211739e-08   1.060517701488e-01
H        -0.0000000071       0.0000001024      -0.8409553289  -8.897899274366e-10   1.291918608069e-08  -1.060516807821e-01
2
Properties=species:S:1:pos:R:3:forces:R:3 energy=-7.568283600638e+01 dipole="1.3500699599e-10 -2.2271051341e-09 -6.6203876054e-01" quadrupole="-5.1949526109e+00 5.3125156812e-02 -5.5193688165e-10 5.3125156812e-02 -4.1591474212e+00 2.4334669203e-09 -5.5193688165e-10 2.4334669203e-09 -3.4374651799e+00" polarizability="7.6022407503e+00 -7.3811132699e-02 2.5273070853e-12 -7.3811753238e-02 6.1630365974e+00 8.9742830489e-09 -1.6396383917e-08 -1.3693501751e-07 8.8207916183e+00" dipole_derivatives="-3.5718796619e-01 -1.8580445953e-06 -6.1507606476e-12 1.8580501841e-06 -3.5718796607e-01 7.2403577263e-10 -2.3268126315e-07 -1.7294823906e-07 -1.3147879941e-01 3.5718777303e-01 -3.5637657531e-07 5.1147131384e-11 3.5637650907e-07 3.5718777291e-01 -7.3745619869e-10 2.3268736937e-07 1.7294873866e-07 1.3148046719e-01" charge=0 multiplicity=2 method=b3lyp basis=def2-svpd config_type=oh_q0_m2 sample_index=103 temperature=500.0 units=atomic
O        -0.0000000000       0.0000000002       0.0581374436   4.683274520043e-13  -7.808904487357e-12  -2.331178931563e-03
H         0.0000000002      -0.0000000031      -0.9226834191  -4.751955204001e-13   7.841778933728e-12   2.330925724845e-03
2
Properties=species:S:1:pos:R:3:forces:R:3 energy=-7.568272421037e+01 dipole="7.3811766954e-10 -1.0132316822e-08 -6.6430684212e-01" quadrupole="-4.2013428544e+00 1.9500650800e-01 -3.7950678287e-09 1.9500650800e-01 -5.1678068132e+00 2.6817551539e-08 -3.7950678287e-09 2.6817551539e-08 -3.4233608195e+00" polarizability="6.2289052103e+00 -2.7230177696e-01 -5.6321197047e-07 -2.7230175596e-01 7.5784716611e+00 -2.5900203129e-08 -9.0638338852e-08 1.1755509002e-06 8.9480785365e+00" dipole_derivatives="-3.5508753244e-01 -1.2637639817e-06 -2.6213943757e-10 1.2637300388e-06 -3.5508753244e-01 3.4320129099e-09 3.0886987412e-07 -1.0136058659e-09 -1.2994124735e-01 3.5508720586e-01 -2.9546101832e-07 2.8322881839e-10 2.9546080826e-07 3.5508720586e-01 -3.4264716904e-09 -3.0888588909e-07 1.0241807402e-09 1.2990404895e-01" charge=0 multiplicity=2 method=b3lyp basis=def2-svpd config_type=oh_q0_m2 sample_index=104 temperature=500.0 units=atomic
O        -0.0000000001       0.0000000009       0.0586817697   1.159095308318e-11  -1.596245498914e-10  -1.046672793347e-02
H         0.0000000010      -0.0000000142      -0.9313222699  -1.162947391898e-11   1.596397478039e-10   1.046649813113e-02
2
Properties=species:S:1:pos:R:3:forces:R:3 energy=-7.568082425079e+01 dipole="3.0118977542e-09 -4.2879215426e-08 -6.7363387293e-01" quadrupole="-4.2012876727e+00 -9.2972420793e-02 2.1980306716e-09 -9.2972420793e-02 -5.2305182394e+00 1.1854148270e-07 2.1980306716e-09 1.1854148270e-07 -3.3613449609e+00" polarizability="6.2620954543e+00 1.3230326754e-01 -2.3016716990e-08 1.3230215800e-01 7.7267339418e+00 1.1401672568e-07 3.3385701703e-07 1.0644749702e-07 9.5090164689e+00" dipole_derivatives="-3.4642545665e-01 1.1194425352e-07 -9.3943347190e-10 -1.1195920919e-07 -3.4642545650e-01 1.4209331100e-08 2.9344768282e-07 6.2170713022e-08 -1.2311680590e-01 3.4642586430e-01 1.8539717563e-09 9.2680450753e-10 -1.8597302462e-09 3.4642586416e-01 -1.4198631214e-08 -2.9344024433e-07 -6.2173793891e-08 1.2317687277e-01" charge=0 multiplicity=2 method=b3lyp basis=def2-svpd config_type=oh_q0_m2 sample_index=105 temperature=500.0 units=atomic
O        -0.0000000003       0.0000000039       0.0609937368   1.777158196301e-10  -2.530131861623e-09  -3.974844667546e-02
H         0.0000000043      -0.0000000616      -0.9680148655  -1.776876140454e-10   2.530117935628e-09   3.974830578457e-02
2
Properties=species:S:1:pos:R:3:forces:R:3 energy=-7.567497661239e+01 dipole="-5.5103203286e-09 7.8862851010e-08 -6.3896912191e-01" quadrupole="-5.1171793945e+00 -1.7991730394e-02 1.1143233278e-08 -1.7991730394e-02 -4.0872212270e+00 -6.4777660283e-08 1.1143233278e-08 -6.4777660283e-08 -3.5614197592e+00" polarizability="7.3614810941e+00 2.3560234107e-02 5.7470051414e-09 2.3560318708e-02 6.0127495162e+00 -2.0644461043e-07 1.9351070730e-07 -2.7802094710e-07 7.6926146675e+00" dipole_derivatives="-3.7869295187e-01 -2.3948480135e-08 2.0038995085e-09 2.3944309701e-08 -3.7869295145e-01 -2.8242408557e-08 -1.2042847275e-07 1.4644174762e-08 -1.4587742614e-01 3.7869477526e-01 9.2745090785e-08 -1.9967584497e-09 -9.2734146507e-08 3.7869477486e-01 2.8248170500e-08 1.2043904762e-07 -1.4637790979e-08 1.4587215468e-01" charge=0 multiplicity=2 method=b3lyp basis=def2-svpd config_type=oh_q0_m2 sample_index=106 temperature=500.0 units=atomic
O         0.0000000005      -0.0000000065       0.0529253268   9.296078358408e-10  -1.330425761825e-08   1.077967072375e-01
H        -0.0000000072       0.0000001037      -0.8399633430  -9.296011202926e-10   1.330418317650e-08  -1.077961638578e-01
2
Properties=species:S:1:pos:R:3:forces:R:3 energy=-7.568278871655e+01 dipole="4.7088209835e-10 -6.7941453734e-09 -6.6335081018e-01" quadrupole="-5.2014350420e+00 2.9919706794e-02 -1.6163750311e-09 2.9919706794e-02 -4.1613624024e+00 7.5169537094e-09 -1.6163750311e-09 7.5169537094e-09 -3.4293510114e+00" polarizability="7.6194790524e+00 -4.1695171080e-02 -4.7520287212e-10 -4.1695537218e-02 6.1701042645e+00 2.7942948708e-08 -6.1746971400e-08 -4.4818908836e-07 8.8940160630e+00" dipole_derivatives="-3.5597306925e-01 -1.4663997302e-06 -1.5287932549e-10 1.4663962966e-06 -3.5597306913e-01 2.2954131219e-09 -1.9304730037e-07 -2.6364566086e-07 -1.3058114230e-01 3.5597276867e-01 -3.2109199731e-07 1.5987455234e-10 3.2109208198e-07 3.5597276855e-01 -2.3090389127e-09 1.9305873566e-07 2.6364663230e-07 1.3056891026e-01" charge=0 multiplicity=2 method=b3lyp basis=def2-svpd config_type=oh_q0_m2 sample_index=107 temperature=500.0 units=atomic
O        -0.0000000000       0.0000000006       0.0584515262   5.023923078309e-12  -7.257872074761e-11  -7.088790581898e-03
H         0.0000000007      -0.0000000095      -0.9276681381  -5.030791715912e-12   7.259976597910e-11   7.088344671897e-03
2
Properties=species:S:1:pos:R:3:forces:R:3 energy=-7.568283629591e+01 dipole="-1.3546573489e-10 2.1668835255e-09 -6.6079864629e-01" quadrupole="-4.4664218375e+00 4.7761609492e-01 1.7903111774e-09 4.7761609492e-01 -4.8794783957e+00 -4.7888983167e-09 1.7903111774e-09 -4.7888983167e-09 -3.4450226010e+00" polarizability="6.5850726141e+00 -6.6170314579e-01 -1.7438941666e-09 -6.6170315488e-01 7.1573388835e+00 -5.1052999278e-09 1.4201743662e-08 -2.7053274496e-07 8.7525884173e+00" dipole_derivatives="-3.5833651074e-01 -1.8072584690e-06 2.9610790146e-11 1.8072599720e-06 -3.5833651090e-01 -7.3679923990e-10 -5.3674648059e-08 2.2912866049e-08 -1.3232350400e-01 3.5833626651e-01 -3.6912597588e-07 -3.1379286521e-11 3.6912602769e-07 3.5833626667e-01 7.3052521942e-10 5.3680587753e-08 -2.2908813735e-08 1.3233769760e-01" charge=0 multiplicity=2 method=b3lyp basis=def2-svpd config_type=oh_q0_m2 sample_index=108 temperature=500.0 units=atomic
O         0.0000000000      -0.0000000002       0.0578425449   5.079940937391e-13  -7.480124625155e-12   2.296826462179e-03
H        -0.0000000002       0.0000000030      -0.9180031630  -4.818743623587e-13   7.523679791206e-12  -2.297345434654e-03
2
Properties=species:S:1:pos:R:3:forces:R:3 energy=-7.567584355002e+01 dipole="5.6529570121e-09 -8.1681746694e-08 -6.8461792510e-01" quadrupole="-5.2782475882e+00 -1.8152853400e-02 -1.4374835175e-08 -1.8152853400e-02 -4.2291105927e+00 1.1319478213e-07 -1.4374835175e-08 1.1319478213e-07 -3.2793588822e+00" polarizability="7.8722363710e+00 2.6333071993e-02 -2.2853522158e-08 2.6333257199e-02 6.3502988002e+00 4.6727843073e-07 1.0533752710e-08 4.9023480559e-07 1.0258187771e+01" dipole_derivatives="-3.3611716784e-01 1.2061374333e-07 -1.8150851769e-09 -1.2065081908e-07 -3.3611716870e-01 2.6036720682e-08 2.8184390932e-07 3.0113009308e-07 -1.1482239840e-01 3.3611710565e-01 -3.8056312328e-10 1.8151707352e-09 3.3459744087e-10 3.3611710652e-01 -2.6056101440e-08 -2.8171454058e-07 -3.0107812077e-07 1.1481865682e-01" charge=0 multiplicity=2 method=b3lyp basis=def2-svpd config_type=oh_q0_m2 sample_index=109 temperature=500.0 units=atomic
O        -0.0000000005       0.0000000076       0.0638893692   5.496124076493e-10  -7.941415593167e-09  -6.656083443799e-02
H         0.0000000084      -0.0000001210      -1.0139706530  -5.496038220692e-10   7.941476623342e-09   6.656142366168e-02
2
Properties=species:S:1:pos:R:3:forces:R:3 energy=-7.567641533498e+01 dipole="5.4141783722e-09 -7.8091384584e-08 -6.8361215525e-01" quadrupole="-4.2665191288e+00 2.0347816337e-01 -3.1004323035e-08 2.0347816337e-01 -5.2338344563e+00 2.2392863179e-07 -3.1004323035e-08 2.2392863179e-07 -3.2872972859e+00" polarizability="6.3995740641e+00 -2.9469783848e-01 3.7939039053e-09 -2.9469725273e-01 7.8005461082e+00 2.7002552019e-07 -1.3638319641e-06 2.6193602199e-07 1.0185119638e+01" dipole_derivatives="-3.3706797543e-01 1.2040182061e-07 -1.7862829322e-09 -1.2037680432e-07 -3.3706797549e-01 2.5309821643e-08 6.1716076694e-08 -2.6850506540e-07 -1.1559586217e-01 3.3706795479e-01 -2.6704465348e-10 1.7854865993e-09 2.7031191451e-10 3.3706795484e-01 -2.5295800266e-08 -6.1702587484e-08 2.6849222845e-07 1.1559946153e-01" charge=0 multiplicity=2 method=b3lyp basis=def2-svpd config_type=oh_q0_m2 sample_index=110 temperature=500.0 units=atomic
O        -0.0000000005       0.0000000073       0.0636155597   5.102135867013e-10  -7.358716269782e-09  -6.441860376719e-02
H         0.0000000080      -0.0000001153      -1.0096250975  -5.102291067301e-10   7.358779372518e-09   6.441886563033e-02
2
Properties=species:S:1:pos:R:3:forces:R:3 energy=-7.568255565669e+01 dipole="-1.0942111455e-09 1.5592529004e-08 -6.5695462231e-01" quadrupole="-5.1797971175e+00 5.2889813915e-03 2.9706488485e-09 5.2889813915e-03 -4.1408094527e+00 -1.5922903381e-08 2.9706488485e-09 -1.5922903381e-08 -3.4677671397e+00" polarizability="7.5500954999e+00 -7.2701772421e-03 -4.5169017052e-09 -7.2702383309e-03 6.1233534749e+00 -8.5749347644e-08 9.9939406858e-08 7.3614302058e-07 8.5472144674e+00" dipole_derivatives="-3.6189701162e-01 -1.4762072547e-06 3.9401211805e-10 1.4762024769e-06 -3.6189701190e-01 -5.3791319618e-09 -1.2835815744e-08 3.4486580258e-09 -1.3492764763e-01 3.6189657300e-01 -3.8754514426e-07 -3.7815067395e-10 3.8754520345e-07 3.6189657328e-01 5.3881568606e-09 1.2834150409e-08 -3.4384162184e-09 1.3492710742e-01" charge=0 multiplicity=2 method=b3lyp basis=def2-svpd config_type=oh_q0_m2 sample_index=111 temperature=500.0 units=atomic
O         0.0000000001      -0.0000000014       0.0569403246   2.909862082925e-11  -4.149200730463e-10   1.748163937808e-02
H        -0.0000000015       0.0000000214      -0.9036842712  -2.911787122160e-11   4.149321865113e-10  -1.748220880751e-02
2
Properties=species:S:1:pos:R:3:forces:R:3 energy=-7.568271983300e+01 dipole="7.3801344490e-10 -1.0332159914e-08 -6.6436088973e-01" quadrupole="-5.1795325973e+00 -1.6354457581e-01 6.3590313975e-10 -1.6354457581e-01 -4.1899763244e+00 1.1762163426e-08 6.3590313975e-10 1.1762163426e-08 -3.4230201728e+00" polarizability="7.5952239878e+00 2.2841087702e-01 -5.0819239624e-09 2.2841138624e-01 6.2132106335e+00 4.2975438430e-08 -1.1192936748e-07 5.5882413857e-07 8.9511529965e+00" dipole_derivatives="-3.5503741243e-01 -1.3421675798e-06 -2.3740971473e-10 1.3421729335e-06 -3.5503741254e-01 3.4423329844e-09 2.0409685053e-07 1.2787595982e-07 -1.2988574681e-01 3.5503710187e-01 -3.0087040401e-07 2.4162953801e-10 3.0087019282e-07 3.5503710195e-01 -3.4542947701e-09 -2.0409468560e-07 -1.2787032544e-07 1.2987155760e-01" charge=0 multiplicity=2 method=b3lyp basis=def2-svpd config_type=oh_q0_m2 sample_index=112 temperature=500.0 units=atomic
O        -0.0000000001       0.0000000009       0.0586948233   1.184476793095e-11  -1.657329075605e-10  -1.065576502372e-02
H         0.0000000010      -0.0000000145      -0.9315294390  -1.183750814781e-11   1.657122651095e-10   1.065531556099e-02
2
Properties=species:S:1:pos:R:3:forces:R:3 energy=-7.567842833630e+01 dipole="4.4432464927e-09 -6.4201400765e-08 -6.7968585582e-01" quadrupole="-5.2521761706e+00 9.3800181214e-02 -2.1519452459e-08 9.3800181214e-02 -4.2210053989e+00 8.5974605365e-08 -2.1519452459e-08 8.5974605365e-08 -3.3174363001e+00" polarizability="7.7990630385e+00 -1.3494997654e-01 -9.7196991530e-10 -1.3495090752e-01 6.3155204725e+00 3.3924812802e-07 -1.3708462986e-06 4.1758148873e-07 9.9088248807e+00" dipole_derivatives="-3.4076512219e-01 1.1680058046e-07 -1.4639364455e-09 -1.1680208371e-07 -3.4076512215e-01 2.0630089760e-08 -1.3108553132e-07 -1.0415031337e-07 -1.1861609336e-01 3.4076526058e-01 9.4781126142e-10 1.4632822834e-09 -9.4573693173e-10 3.4076526052e-01 -2.0632987531e-08 1.3109736907e-07 1.0415690532e-07 1.1861712562e-01" charge=0 multiplicity=2 method=b3lyp basis=def2-svpd config_type=oh_q0_m2 sample_index=113 temperature=500.0 units=atomic
O        -0.0000000004       0.0000000059       0.0625639585   3.625868249038e-10  -5.239529185652e-09  -5.546956582292e-02
H         0.0000000065      -0.0000000938      -0.9929354230  -3.626162829233e-10   5.239540937523e-09   5.546969115491e-02
2
Properties=species:S:1:pos:R:3:forces:R:3 energy=-7.568115343220e+01 dipole="-2.5707713824e-09 3.7449858930e-08 -6.5072803562e-01" quadrupole="-4.7565110076e+00 -5.0484429919e-01 -2.4076305234e-08 -5.0484429919e-01 -4.5234939237e+00 -5.6758035379e-08 -2.4076305234e-08 -5.6758035379e-08 -3.5025025071e+00" polarizability="6.9404754775e+00 6.8276478144e-01 4.4107985778e-08 6.8276502634e-01 6.6253366515e+00 -9.4861666135e-08 2.1736594018e-07 -7.6274789399e-07 8.2326498255e+00" dipole_derivatives="-3.6767543415e-01 -1.5827550497e-06 1.0100538154e-09 1.5828139083e-06 -3.6767543409e-01 -1.3516775335e-08 2.7777904976e-07 -2.0599857931e-07 -1.3904621864e-01 3.6767483203e-01 -4.4487977591e-07 -9.9806044359e-10 4.4487973382e-07 3.6767483196e-01 1.3507807282e-08 -2.7778498946e-07 2.0598928119e-07 1.3895293507e-01" charge=0 multiplicity=2 method=b3lyp basis=def2-svpd config_type=oh_q0_m2 sample_index=114 temperature=500.0 units=atomic
O         0.0000000002      -0.0000000032       0.0555142359   1.775726972300e-10  -2.586867750660e-09   4.494911330239e-02
H        -0.0000000035       0.0000000507      -0.8810512097  -1.775825333669e-10   2.586867988756e-09  -4.494917765081e-02
2
Properties=species:S:1:pos:R:3:forces:R:3 energy=-7.567529984190e+01 dipole="5.9550443888e-09 -8.4890988292e-08 -6.8553970041e-01" quadrupole="-5.2734397945e+00 9.4041924352e-02 -2.8975569553e-08 9.4041924352e-02 -4.2403554619e+00 1.2078412632e-07 -2.8975569553e-08 1.2078412632e-07 -3.2720039292e+00" polarizability="7.8717441010e+00 -1.3659500275e-01 -4.3114970462e-09 -1.3659594778e-01 6.3712085130e+00 4.8943448943e-07 5.3754391746e-08 5.5045996158e-07 1.0325996018e+01" dipole_derivatives="-3.3524428922e-01 1.2220269824e-07 -1.9087254942e-09 -1.2216449693e-07 -3.3524428964e-01 2.7524445472e-08 2.9521995959e-08 2.4946117394e-07 -1.1405964506e-01 3.3524418884e-01 -7.9401305756e-11 1.8822085112e-09 7.3330585895e-11 3.3524418924e-01 -2.7516450565e-08 -2.9504718113e-08 -2.4948110244e-07 1.1410963158e-01" charge=0 multiplicity=2 method=b3lyp basis=def2-svpd config_type=oh_q0_m2 sample_index=115 temperature=500.0 units=atomic
O        -0.0000000006       0.0000000079       0.0641419563   5.948111020013e-10  -8.479023268100e-09  -6.847261608264e-02
H         0.0000000088      -0.0000001261      -1.0179793933  -5.948000107401e-10   8.479051775381e-09   6.847291058171e-02
2
Properties=species:S:1:pos:R:3:forces:R:3 energy=-7.567544115682e+01 dipole="5.8322320507e-09 -8.4123582810e-08 -6.8530310745e-01" quadrupole="-5.2807489049e+00 -1.8188130755e-02 -1.4905214823e-08 -1.8188130755e-02 -4.2313916431e+00 1.1733685426e-07 -1.4905214823e-08 1.1733685426e-07 -3.2738989125e+00" polarizability="7.8808855601e+00 2.6412648061e-02 -2.3913370037e-08 2.6412836355e-02 6.3570045831e+00 4.8611668472e-07 8.0779034703e-09 5.0785102763e-07 1.0308516445e+01" dipole_derivatives="-3.3546837088e-01 1.2249966794e-07 -1.9049852148e-09 -1.2253090061e-07 -3.3546837245e-01 2.7071687539e-08 4.1173984500e-06 -4.1660516148e-06 -1.1428393007e-01 3.3546828030e-01 -1.1077450530e-09 1.8866602233e-09 1.0831347733e-09 3.3546828186e-01 -2.7063645444e-08 -4.1163431969e-06 4.1650538990e-06 1.1428507279e-01" charge=0 multiplicity=2 method=b3lyp basis=def2-svpd config_type=oh_q0_m2 sample_index=116 temperature=500.0 units=atomic
O        -0.0000000005       0.0000000079       0.0640769753   5.785760393401e-10  -8.345597290858e-09  -6.798640031281e-02
H         0.0000000087      -0.0000001248      -1.0169480980  -5.785993448826e-10   8.345668608422e-09   6.798701778189e-02
2
Properties=species:S:1:pos:R:3:forces:R:3 energy=-7.568279425356e+01 dipole="4.0372484360e-10 -6.4595631170e-09 -6.6324602222e-01" quadrupole="-5.2013067526e+00 2.5376761685e-02 -1.3699369592e-09 2.5376761685e-02 -4.1607951435e+00 7.0940590189e-09 -1.3699369592e-09 7.0940590189e-09 -3.4300035931e+00" polarizability="7.6186322653e+00 -3.5359868541e-02 -4.2534305326e-10 -3.5360178881e-02 6.1689915223e+00 2.6564682567e-08 -5.2614289084e-08 -4.2410770299e-07 8.8881268101e+00" dipole_derivatives="-3.5606991559e-01 -1.7713156540e-06 -9.0796032138e-11 1.7713502860e-06 -3.5606991555e-01 2.2192206148e-09 2.3980817332e-11 -2.1198109934e-07 -1.3064394338e-01 3.5606970953e-01 -3.3898492191e-07 1.3706533563e-10 3.3898468742e-07 3.5606970953e-01 -2.1958319344e-09 -9.1315843775e-12 2.1200338707e-07 1.3064374866e-01" charge=0 multiplicity=2 method=b3lyp basis=def2-svpd config_type=oh_q0_m2 sample_index=117 temperature=500.0 units=atomic
O        -0.0000000000       0.0000000006       0.0584263608   4.154665295473e-12  -6.538524447296e-11  -6.714020374107e-03
H         0.0000000006      -0.0000000090      -0.9272687447  -4.087371410690e-12   6.538571794295e-11   6.713562036190e-03
2
Properties=species:S:1:pos:R:3:forces:R:3 energy=-7.567364523023e+01 dipole="-5.8933938384e-09 8.5022975074e-08 -6.3724542031e-01" quadrupole="-4.0897791963e+00 -9.0036075138e-02 -7.2166719370e-09 -9.0036075138e-02 -5.1036402077e+00 -2.0388985188e-07 -7.2166719370e-09 -2.0388985188e-07 -3.5693588454e+00" polarizability="6.0131936326e+00 1.1725446858e-01 3.0306413965e-08 1.1725378870e-01 7.3335889541e+00 -3.9167646236e-08 -8.7796070750e-08 -4.0686844223e-07 7.6187611728e+00" dipole_derivatives="-3.8032632788e-01 -2.3719878972e-08 1.2752358716e-09 2.3817450128e-08 -3.8032632896e-01 -3.1080975716e-08 -6.5928151827e-08 -1.4971965334e-07 -1.4680310541e-01 3.8032821326e-01 7.4674346637e-08 -1.2859373808e-09 -7.4789016016e-08 3.8032821435e-01 3.1082971082e-08 6.6223276862e-08 1.4977524776e-07 1.4680454784e-01" charge=0 multiplicity=2 method=b3lyp basis=def2-svpd config_type=oh_q0_m2 sample_index=118 temperature=500.0 units=atomic
O         0.0000000005      -0.0000000070       0.0525558899   1.094671419448e-09  -1.579216886035e-08   1.183619638245e-01
H        -0.0000000077       0.0000001113      -0.8341001110  -1.094640748345e-09   1.579216356383e-08  -1.183619327736e-01
2
Properties=species:S:1:pos:R:3:forces:R:3 energy=-7.568276203387e+01 dipole="-5.4417165928e-10 8.2306136789e-09 -6.5904942426e-01" quadrupole="-5.1839853376e+00 -5.7394628852e-02 7.6947887839e-10 -5.7394628852e-02 -4.1503815668e+00 -8.6521733167e-09 7.6947887839e-10 -8.6521733167e-09 -3.4554987906e+00" polarizability="7.5686413411e+00 7.9205612027e-02 1.8823653629e-09 7.9206238504e-02 6.1422415935e+00 -3.1369015623e-08 5.7760421988e-08 4.3176908662e-07 8.6580255585e+00" dipole_derivatives="-3.5995646869e-01 -1.6719142781e-06 1.7855222169e-10 1.6719379524e-06 -3.5995646852e-01 -2.7986698806e-09 2.1772744718e-07 -1.8312418248e-07 -1.3351735513e-01 3.5995613514e-01 -3.8116441184e-07 -1.8710047405e-10 3.8116442424e-07 3.5995613497e-01 2.8283260705e-09 -2.1773993719e-07 1.8312054650e-07 1.3352253886e-01" charge=0 multiplicity=2 method=b3lyp basis=def2-svpd config_type=oh_q0_m2 sample_index=119 temperature=500.0 units=atomic
O         0.0000000000      -0.0000000007       0.0574298169   7.491266813426e-12  -1.129603055649e-10   9.046685692738e-03
H        -0.0000000008       0.0000000114      -0.9114528702  -7.470426844802e-12   1.129866781710e-10  -9.047169394469e-03
2
Properties=species:S:1:pos:R:3:forces:R:3 energy=-7.568212571888e+01 dipole="-1.6520745055e-09 2.4574486828e-08 -6.5439846035e-01" quadrupole="-4.1407253075e+00 8.9257613318e-02 5.0662644129e-09 8.9257613318e-02 -5.1631603404e+00 -6.3364859572e-08 5.0662644129e-09 -6.3364859572e-08 -3.4823363076e+00" polarizability="6.1166203815e+00 -1.2181237020e-01 1.2376848120e-09 -1.2181149804e-01 7.5119506619e+00 -3.3642225870e-08 -7.2468801290e-08 -9.5136206398e-07 8.4154691608e+00" dipole_derivatives="-3.6426664364e-01 -1.6511652880e-06 5.5853946890e-10 1.6511479682e-06 -3.6426664350e-01 -8.5538845907e-09 1.1679357481e-07 2.5895843803e-07 -1.3661316836e-01 3.6426617404e-01 -4.2316679888e-07 -5.7453151871e-10 4.2316691081e-07 3.6426617389e-01 8.5490861559e-09 -1.1679460177e-07 -2.5895877109e-07 1.3660818755e-01" charge=0 multiplicity=2 method=b3lyp basis=def2-svpd config_type=oh_q0_m2 sample_index=120 temperature=500.0 units=atomic
O         0.0000000001      -0.0000000021       0.0563497865   7.150576324215e-11  -1.063196823463e-09   2.831290778562e-02
H        -0.0000000023       0.0000000336      -0.8943120037  -7.147903586860e-11   1.063246816260e-09  -2.831338781040e-02
2
Properties=species:S:1:pos:R:3:forces:R:3 energy=-7.567474142485e+01 dipole="-5.5855694864e-09 7.9997916205e-08 -6.3865334392e-01" quadrupole="-4.1014131235e+00 1.2516456565e-01 2.0343163413e-08 1.2516456565e-01 -5.1009758178e+00 -1.9378134617e-07 2.0343163413e-08 -1.9378134617e-07 -3.5628867567e+00" polarizability="6.0307660620e+00 -1.6368610246e-01 -6.0220829066e-09 -1.6368529806e-01 7.3379864084e+00 -4.1324667208e-08 -1.2433170144e-07 -4.3795724300e-07 7.6789888385e+00" dipole_derivatives="-3.7899176799e-01 -2.3621490651e-08 1.5815238837e-09 2.3570829049e-08 -3.7899176786e-01 -2.9220573331e-08 -1.2621106937e-07 -9.4569962972e-08 -1.4604398725e-01 3.7899360156e-01 8.7817526253e-08 -1.5823602608e-09 -8.7778221221e-08 3.7899360140e-01 2.9217830691e-08 1.2617770717e-07 9.4620727920e-08 1.4604543441e-01" charge=0 multiplicity=2 method=b3lyp basis=def2-svpd config_type=oh_q0_m2 sample_index=121 temperature=500.0 units=atomic
O         0.0000000005      -0.0000000066       0.0528574794   9.595510656798e-10  -1.374153478107e-08   1.097038021351e-01
H        -0.0000000073       0.0000001051      -0.8388865552  -9.595703452411e-10   1.374149899319e-08  -1.097036804451e-01
2
Properties=species:S:1:pos:R:3:forces:R:3 energy=-7.568212065610e+01 dipole="-1.6521509048e-09 2.4644860599e-08 -6.5437416166e-01" quadrupole="-4.2245814841e+00 2.9450753569e-01 1.3017709716e-08 2.9450753569e-01 -5.0791446572e+00 -6.0904164241e-08 1.3017709716e-08 -6.0904164241e-08 -3.4824729811e+00" polarizability="6.2310010516e+00 -4.0193088156e-01 -9.5407077983e-09 -4.0193092914e-01 7.3972707339e+00 -3.7280780490e-08 1.0923410333e-07 -1.9459469297e-08 8.4142294707e+00" dipole_derivatives="-3.6428925848e-01 -1.6611218354e-06 1.6925890341e-11 1.6610863521e-06 -3.6428925849e-01 -8.6772163055e-09 5.6195353926e-08 5.9495075533e-08 -1.3672219250e-01 3.6428879092e-01 -4.2407340895e-07 -2.5197984235e-11 4.2407339283e-07 3.6428879091e-01 8.6696556793e-09 -5.6194493503e-08 -5.9503429961e-08 1.3662419830e-01" charge=0 multiplicity=2 method=b3lyp basis=def2-svpd config_type=oh_q0_m2 sample_index=122 temperature=500.0 units=atomic
O         0.0000000001      -0.0000000021       0.0563441877   7.155867572679e-11  -1.070307330392e-09   2.841907815529e-02
H        -0.0000000023       0.0000000337      -0.8942231472  -7.158649288512e-11   1.070364782700e-09  -2.841961421230e-02
2
Properties=species:S:1:pos:R:3:forces:R:3 energy=-7.568101751213e+01 dipole="2.8842728733e-09 -4.0720530177e-08 -6.7302059323e-01" quadrupole="-4.2071394289e+00 1.2893021202e-01 -1.1358472654e-08 1.2893021202e-01 -5.2205065947e+00 1.1275597923e-07 -1.1358472654e-08 1.1275597923e-07 -3.3656284842e+00" polarizability="6.2680368856e+00 -1.8325824561e-01 -2.6110522446e-09 -1.8325813940e-01 7.7084157358e+00 1.0578132277e-07 -4.8530705149e-07 9.6034337241e-08 9.4701569755e+00" dipole_derivatives="-3.4699692752e-01 1.1248060873e-07 -9.4640085917e-10 -1.1246162630e-07 -3.4699692728e-01 1.3520063866e-08 1.5420477395e-07 -1.0521532257e-07 -1.2342850787e-01 3.4699736412e-01 1.6992221646e-09 9.6087509245e-10 -1.7091438808e-09 3.4699736388e-01 -1.3514591867e-08 -1.5420181798e-07 1.0520523341e-07 1.2361705124e-01" charge=0 multiplicity=2 method=b3lyp basis=def2-svpd config_type=oh_q0_m2 sample_index=123 temperature=500.0 units=atomic
O        -0.0000000003       0.0000000037       0.0608378478   1.629853275578e-10  -2.300212324633e-09  -3.801778287554e-02
H         0.0000000041      -0.0000000584      -0.9655407934  -1.629787417047e-10   2.300217673960e-09   3.801760950637e-02
2
Properties=species:S:1:pos:R:3:forces:R:3 energy=-7.566062268809e+01 dipole="-8.9727551032e-09 1.2900568477e-07 -6.2501715529e-01" quadrupole="-4.1933826308e+00 3.5897339327e-01 8.2326352103e-08 3.5897339327e-01 -4.9226717897e+00 -2.7387782221e-07 8.2326352103e-08 -2.7387782221e-07 -3.6208595520e+00" polarizability="6.1249393864e+00 -4.4971276515e-01 -7.7872180418e-08 -4.4971279786e-01 7.0386004793e+00 -1.1989734479e-08 5.2407862392e-08 -2.1532234058e-07 7.1287124581e+00" dipole_derivatives="-3.9212560124e-01 -1.3630255302e-07 4.6347828245e-09 1.3632504330e-07 -3.9212560091e-01 -4.9087815514e-08 -2.9431973525e-07 1.8216261832e-09 -1.5278305514e-01 3.9212788662e-01 2.9550969558e-07 -4.6134637998e-09 -2.9551978072e-07 3.9212788628e-01 4.9091796997e-08 2.9433119830e-07 -1.8229029397e-09 1.5275910705e-01" charge=0 multiplicity=2 method=b3lyp basis=def2-svpd config_type=oh_q0_m2 sample_index=124 temperature=500.0 units=atomic
O         0.0000000007      -0.0000000103       0.0499964213   2.940351924013e-09  -4.230748038775e-08   2.049704301675e-01
H        -0.0000000114       0.0000001638      -0.7934794869  -2.940364038454e-09   4.230734414257e-08  -2.049696948976e-01
2
Properties=species:S:1:pos:R:3:forces:R:3 energy=-7.567593833257e+01 dipole="5.5920158101e-09 -8.1084343262e-08 -6.8445397273e-01" quadrupole="-5.1961333816e+00 -2.8143077658e-01 1.7662421384e-08 -2.8143077658e-01 -4.3100830387e+00 1.1960478680e-07 1.7662421384e-08 1.1960478680e-07 -3.2806592303e+00" polarizability="7.7516988799e+00 4.0808070187e-01 -6.9017806311e-08 4.0808067214e-01 6.4669059285e+00 4.5199990840e-07 6.4594745314e-08 4.4653504526e-07 1.0246209560e+01" dipole_derivatives="-3.3627227764e-01 1.2011727549e-07 -1.8484906525e-09 -1.2013099785e-07 -3.3627227633e-01 2.6335230589e-08 3.0251745553e-08 -8.7965759676e-08 -1.1492604846e-01 3.3627222222e-01 -3.0026261772e-10 1.8471391877e-09 3.2075886243e-10 3.3627222093e-01 -2.6327172446e-08 -3.0243169080e-08 8.7968202167e-08 1.1494663222e-01" charge=0 multiplicity=2 method=b3lyp basis=def2-svpd config_type=oh_q0_m2 sample_index=125 temperature=500.0 units=atomic
O        -0.0000000005       0.0000000076       0.0638446070   5.409615048605e-10  -7.844342110140e-09  -6.621592834721e-02
H         0.0000000083      -0.0000001200      -1.0132602438  -5.409908181635e-10   7.844358294839e-09   6.621621898263e-02
2
Properties=species:S:1:pos:R:3:forces:R:3 energy=-7.568283580917e+01 dipole="1.3499276695e-10 -2.2273790187e-09 -6.6205081188e-01" quadrupole="-5.1942979820e+00 5.9530734200e-02 -5.7334820685e-10 5.9530734200e-02 -4.1598818799e+00 2.4373522850e-09 -5.7334820685e-10 2.4373522850e-09 -3.4373912261e+00" polarizability="7.6013855919e+00 -8.2711524740e-02 -5.9229633860e-08 -8.2712209391e-02 6.1640933902e+00 -9.9829844482e-07 -1.6404014157e-08 -1.3682569206e-07 8.8214591945e+00" dipole_derivatives="-3.5717680965e-01 -1.8578693791e-06 -6.7646999952e-11 1.8578479553e-06 -3.5717680943e-01 7.7255012841e-10 8.3785756111e-10 4.5712461594e-08 -1.3145804509e-01 3.5717661666e-01 -3.5622694516e-07 4.6007950891e-11 3.5622711686e-07 3.5717661648e-01 -7.5942264241e-10 -8.3569262621e-10 -4.5704412477e-08 1.3147258080e-01" charge=0 multiplicity=2 method=b3lyp basis=def2-svpd config_type=oh_q0_m2 sample_index=126 temperature=500.0 units=atomic
O        -0.0000000000       0.0000000002       0.0581403177   4.330935914132e-13  -8.003834528396e-12  -2.375708735914e-03
H         0.0000000002      -0.0000000031      -0.9227290328  -4.839192545366e-13   7.991171046997e-12   2.375268105892e-03
2
Properties=species:S:1:pos:R:3:forces:R:3 energy=-7.568255410063e+01 dipole="-1.0942449219e-09 1.5661406088e-08 -6.5694266335e-01" quadrupole="-4.1416633875e+00 3.0863235773e-02 1.8517348738e-09 3.0863235773e-02 -5.1788644818e+00 -4.0789106857e-08 1.8517348738e-09 -4.0789106857e-08 -3.4678364979e+00" polarizability="6.1244937924e+00 -4.2373191519e-02 -7.3094062835e-07 -4.2372812034e-02 7.5486935045e+00 -2.5590324048e-07 -5.2910787230e-08 -9.4508099062e-07 8.5465915035e+00" dipole_derivatives="-3.6190811769e-01 -1.4936378890e-06 3.7568088012e-10 1.4936393497e-06 -3.6190811774e-01 -5.4088936785e-09 1.6643361689e-07 9.5759566943e-08 -1.3492487883e-01 3.6190768264e-01 -3.8905531507e-07 -3.7810794988e-10 3.8905492433e-07 3.6190768276e-01 5.4109819861e-09 -1.6643991740e-07 -9.5766755637e-08 1.3493284076e-01" charge=0 multiplicity=2 method=b3lyp basis=def2-svpd config_type=oh_q0_m2 sample_index=127 temperature=500.0 units=atomic
O         0.0000000001      -0.0000000014       0.0569375365   2.920617778537e-11  -4.179315784708e-10   1.753113842188e-02
H        -0.0000000015       0.0000000215      -0.9036400220  -2.920247696969e-11   4.179513100831e-10  -1.753164662805e-02
2
Properties=species:S:1:pos:R:3:forces:R:3 energy=-7.568255006256e+01 dipole="-1.0949441078e-09 1.5799576189e-08 -6.5691184711e-01" quadrupole="-4.2065697507e+00 -2.5326940588e-01 -4.8672797343e-09 -2.5326940588e-01 -5.1137569080e+00 -3.9121779242e-08 -4.8672797343e-09 -3.9121779242e-08 -3.4680147835e+00" polarizability="6.2135248318e+00 3.4772737496e-01 7.2178274015e-07 3.4772737575e-01 7.4590546700e+00 -1.7631133836e-07 1.0207592793e-07 -1.0662551385e-06 8.5449793762e+00" dipole_derivatives="-3.6193665615e-01 -1.5275678645e-06 7.5455242712e-10 1.5275512416e-06 -3.6193665632e-01 -5.4997742262e-09 1.4100479118e-07 -6.8764272054e-08 -1.3495894764e-01 3.6193622819e-01 -3.9200052225e-07 -7.1936933003e-10 3.9200057906e-07 3.6193622837e-01 5.5199927228e-09 -1.4099785228e-07 6.8775818374e-08 1.3496008980e-01" charge=0 multiplicity=2 method=b3lyp basis=def2-svpd config_type=oh_q0_m2 sample_index=128 temperature=500.0 units=atomic
O         0.0000000001      -0.0000000014       0.0569303733   2.941722258303e-11  -4.247055548309e-10   1.765833310274e-02
H        -0.0000000015       0.0000000217      -0.9035263369  -2.946583646727e-11   4.247183220981e-10  -1.765868637119e-02
2
Properties=species:S:1:pos:R:3:forces:R:3 energy=-7.567649313586e+01 dipole="-4.9109988116e-09 7.1174580501e-08 -6.4114318057e-01" quadrupole="-5.1246667894e+00 -1.7785921167e-02 1.0089196302e-08 -1.7785921167e-02 -4.0936198268e+00 -6.0116529753e-08 1.0089196302e-08 -6.0116529753e-08 -3.5511576960e+00" polarizability="7.3836039324e+00 2.3438135416e-02 5.6818726028e-09 2.3438221454e-02 6.0249530834e+00 -1.9486635013e-07 1.9354697621e-07 -2.7120556670e-07 7.7875962794e+00" dipole_derivatives="-3.7664096959e-01 -1.2386034415e-08 1.8131950949e-09 1.2404937136e-08 -3.7664097071e-01 -2.5861705972e-08 3.0604407897e-09 7.1352923570e-09 -1.4467089693e-01 3.7664273173e-01 8.8169344474e-08 -1.8034766437e-09 -8.8169689480e-08 3.7664273287e-01 2.5863989025e-08 -3.0510038940e-09 -7.1446182304e-09 1.4466563919e-01" charge=0 multiplicity=2 method=b3lyp basis=def2-svpd config_type=oh_q0_m2 sample_index=129 temperature=500.0 units=atomic
O         0.0000000004      -0.0000000059       0.0533947292   7.276154216575e-10  -1.054522341521e-08   9.499202212703e-02
H        -0.0000000065       0.0000000941      -0.8474131002  -7.276165412743e-10   1.054516044189e-08  -9.499158044182e-02
2
Properties=species:S:1:pos:R:3:forces:R:3 energy=-7.567684817442e+01 dipole="-4.8333029176e-09 6.9299613070e-08 -6.4169231930e-01" quadrupole="-4.1028883568e+00 -9.0244245606e-02 -5.5667593535e-09 -9.0244245606e-02 -5.1189138184e+00 -1.6888982842e-07 -5.5667593535e-09 -1.6888982842e-07 -3.5485209796e+00" polarizability="6.0381662439e+00 1.1906068349e-01 2.6063147182e-08 1.1905995538e-01 7.3786577029e+00 -4.7718644428e-08 -9.2497725299e-08 -5.0681190809e-07 7.8119175485e+00" dipole_derivatives="-3.7612382359e-01 -1.1360586290e-08 2.2586601839e-09 1.1376366846e-08 -3.7612382355e-01 -2.5060550782e-08 -1.4635342938e-07 -4.1215486579e-07 -1.4435422852e-01 3.7612557052e-01 8.4577292089e-08 -2.2841110904e-09 -8.4583602137e-08 3.7612557048e-01 2.5078319046e-08 1.4635118117e-07 4.1217249058e-07 1.4435566292e-01" charge=0 multiplicity=2 method=b3lyp basis=def2-svpd config_type=oh_q0_m2 sample_index=130 temperature=500.0 units=atomic
O         0.0000000004      -0.0000000058       0.0535139280   6.918137581031e-10  -9.918986598005e-09   9.184654085657e-02
H        -0.0000000064       0.0000000917      -0.8493048706  -6.917834873844e-10   9.918992946838e-09  -9.184670058955e-02
2
Properties=species:S:1:pos:R:3:forces:R:3 energy=-7.568229179742e+01 dipole="-1.4600430434e-09 2.1558452806e-08 -6.5525430997e-01" quadrupole="-4.3628106116e+00 4.2928744691e-01 1.6111615440e-08 4.2928744691e-01 -4.9466645272e+00 -4.9252349396e-08 1.6111615440e-08 -4.9252349396e-08 -3.4775069335e+00" polarizability="6.4225560330e+00 -5.8714623569e-01 8.3839254709e-07 -5.8714634129e-01 7.2210928406e+00 3.7571406731e-07 1.0258022100e-07 -1.1279675350e-06 8.4591669449e+00" dipole_derivatives="-3.6347291305e-01 -1.6645345240e-06 5.2101215579e-10 1.6645750269e-06 -3.6347291301e-01 -7.4569947865e-09 5.0520698736e-10 3.1915967091e-07 -1.3610444231e-01 3.6347247314e-01 -4.1685288925e-07 -5.8160150787e-10 4.1685321119e-07 3.6347247316e-01 7.4584406657e-09 -5.2377546744e-10 -3.1914340615e-07 1.3604907859e-01" charge=0 multiplicity=2 method=b3lyp basis=def2-svpd config_type=oh_q0_m2 sample_index=131 temperature=500.0 units=atomic
O         0.0000000001      -0.0000000019       0.0565466975   5.432789282226e-11  -8.102958107918e-10   2.461944341605e-02
H        -0.0000000020       0.0000000295      -0.8974371233  -5.430832377946e-11   8.102889261887e-10  -2.461966863135e-02
2
Properties=species:S:1:pos:R:3:forces:R:3 energy=-7.568158946382e+01 dipole="2.3043904373e-09 -3.3557213477e-08 -6.7099362896e-01" quadrupole="-4.2121301620e+00 -1.6756540078e-01 5.5072798052e-09 -1.6756540078e-01 -5.2018066607e+00 9.0579019260e-08 5.5072798052e-09 9.0579019260e-08 -3.3795754151e+00" polarizability="6.2674217124e+00 2.3727627056e-01 -2.2542748219e-08 2.3727626419e-01 7.6688044290e+00 8.4576993880e-08 -4.1596512535e-07 7.0843462954e-08 9.3437777116e+00" dipole_derivatives="-3.4888275072e-01 -1.3750461033e-06 -5.8122978129e-10 1.3750213479e-06 -3.4888275057e-01 1.1173355154e-08 1.2883943912e-08 2.4289328882e-07 -1.2509911906e-01 3.4888254628e-01 -2.2416767366e-07 5.9279073117e-10 2.2416791877e-07 3.4888254614e-01 -1.1181788748e-08 -1.2886663958e-08 -2.4290722211e-07 1.2510846155e-01" charge=0 multiplicity=2 method=b3lyp basis=def2-svpd config_type=oh_q0_m2 sample_index=132 temperature=500.0 units=atomic
O        -0.0000000002       0.0000000030       0.0603266305   1.103214258315e-10  -1.605818339919e-09  -3.210927467844e-02
H         0.0000000033      -0.0000000479      -0.9574274036  -1.103182095097e-10   1.605826249447e-09   3.210911217182e-02
2
Properties=species:S:1:pos:R:3:forces:R:3 energy=-7.568175769745e+01 dipole="-2.0734288991e-09 3.0133857538e-08 -6.5281190684e-01" quadrupole="-5.1369217639e+00 1.6938392443e-01 1.3018607519e-08 1.6938392443e-01 -4.1566227282e+00 -3.1236453928e-08 1.3018607519e-08 -3.1236453928e-08 -3.4911611923e+00" polarizability="7.4669693754e+00 -2.3027055023e-01 -7.7950285097e-09 -2.3027112001e-01 6.1342865014e+00 -1.0046416296e-07 1.4613748256e-07 -3.6405421650e-07 8.3355426136e+00" dipole_derivatives="-3.6573913748e-01 -1.5707050011e-06 7.3611706059e-10 1.5706679660e-06 -3.6573913743e-01 -1.0305428677e-08 -4.9750314979e-08 2.0019733094e-07 -1.3762806490e-01 3.6573859793e-01 -4.2948650354e-07 -7.6253669427e-10 4.2948679280e-07 3.6573859788e-01 1.0304661862e-08 4.9752119091e-08 -2.0019125246e-07 1.3763054125e-01" charge=0 multiplicity=2 method=b3lyp basis=def2-svpd config_type=oh_q0_m2 sample_index=133 temperature=500.0 units=atomic
O         0.0000000002      -0.0000000026       0.0559868505   1.122867241933e-10  -1.631302697862e-09   3.534390734510e-02
H        -0.0000000028       0.0000000410      -0.8885519457  -1.122807302678e-10   1.631365409320e-09  -3.534420548641e-02
2
Properties=species:S:1:pos:R:3:forces:R:3 energy=-7.567569400806e+01 dipole="5.7123562977e-09 -8.2575110701e-08 -6.8487463529e-01" quadrupole="-5.2791848001e+00 -1.8153818979e-02 -1.4551520364e-08 -1.8153818979e-02 -4.2299641522e+00 1.1472378706e-07 -1.4551520364e-08 1.1472378706e-07 -3.2773182090e+00" polarizability="7.8754730190e+00 2.6345437282e-02 -2.3217580627e-08 2.6345623495e-02 6.3528034302e+00 4.7417370757e-07 9.6805495385e-09 4.9666646757e-07 1.0276990999e+01" dipole_derivatives="-3.3587418681e-01 1.2015483422e-07 -1.8007496791e-09 -1.1975137043e-07 -3.3587421056e-01 2.6843645242e-08 -9.0301889577e-07 7.1178417327e-07 -1.1462231624e-01 3.3587411395e-01 1.3568147841e-10 1.8485150664e-09 -8.4806439833e-10 3.3587413773e-01 -2.6840298210e-08 9.0295099175e-07 -7.1170302984e-07 1.1461858841e-01" charge=0 multiplicity=2 method=b3lyp basis=def2-svpd config_type=oh_q0_m2 sample_index=134 temperature=500.0 units=atomic
O        -0.0000000005       0.0000000077       0.0639595554   5.596681926064e-10  -8.090018732753e-09  -6.709814925894e-02
H         0.0000000085      -0.0000001224      -1.0150845591  -5.596504485698e-10   8.090075206120e-09   6.709874852349e-02
2
Properties=species:S:1:pos:R:3:forces:R:3 energy=-7.567931115850e+01 dipole="-3.7254539525e-09 5.3632774383e-08 -6.4612054907e-01" quadrupole="-5.1341400402e+00 9.0657612907e-02 1.6811453571e-08 9.0657612907e-02 -4.1160906893e+00 -4.9482510996e-08 1.6811453571e-08 -4.9482510996e-08 -3.5265981802e+00" polarizability="7.4241692711e+00 -1.2108665253e-01 -6.5837428429e-09 -1.2108707485e-01 6.0643759005e+00 -1.6032444442e-07 1.8056943623e-07 -2.7878475645e-07 8.0131416256e+00" dipole_derivatives="-3.7197145053e-01 2.4653294598e-08 1.2701080667e-09 -2.4711451732e-08 -3.7197145094e-01 -1.9518506459e-08 -4.0352163277e-07 -2.8275681796e-07 -1.4177499008e-01 3.7197305321e-01 2.9664825873e-08 -1.2898273125e-09 -2.9642393489e-08 3.7197305358e-01 1.9522348895e-08 4.0353775876e-07 2.8275345954e-07 1.4177643852e-01" charge=0 multiplicity=2 method=b3lyp basis=def2-svpd config_type=oh_q0_m2 sample_index=135 temperature=500.0 units=atomic
O         0.0000000003      -0.0000000045       0.0544847126   3.906211726743e-10  -5.624186114949e-09   6.775504306063e-02
H        -0.0000000050       0.0000000718      -0.8647119275  -3.906708113914e-10   5.624176790220e-09  -6.775524943794e-02
2
Properties=species:S:1:pos:R:3:forces:R:3 energy=-7.568030344371e+01 dipole="-3.2151852730e-09 4.5710256650e-08 -6.4837998371e-01" quadrupole="-4.1151544210e+00 1.8189669914e-02 4.2250544971e-09 1.8189669914e-02 -5.1496497406e+00 -1.1530651162e-07 4.2250544971e-09 -1.1530651162e-07 -3.5149491190e+00" polarizability="6.0679078985e+00 -2.4449655223e-02 8.4160020567e-09 -2.4449409928e-02 7.4584211602e+00 -4.6515423082e-08 -1.0087844912e-07 -6.9463743559e-07 8.1194461295e+00" dipole_derivatives="-3.6986258696e-01 3.7858585253e-08 1.1180047985e-09 -3.7861355742e-08 -3.6986259052e-01 -1.6166969013e-08 -3.3030278512e-07 9.4137558859e-08 -1.4041385780e-01 3.6986410502e-01 1.8087742887e-08 -1.1123912333e-09 -1.8135725819e-08 3.6986410857e-01 1.6176806630e-08 3.3038285996e-07 -9.4135893525e-08 1.4040877687e-01" charge=0 multiplicity=2 method=b3lyp basis=def2-svpd config_type=oh_q0_m2 sample_index=136 temperature=500.0 units=atomic
O         0.0000000003      -0.0000000039       0.0549869801   2.791399967206e-10  -3.968781249696e-09   5.629507693366e-02
H        -0.0000000043       0.0000000615      -0.8726832764  -2.791294938098e-10   3.968738850178e-09  -5.629480210746e-02
2
Properties=species:S:1:pos:R:3:forces:R:3 energy=-7.568190721336e+01 dipole="2.0534387774e-09 -2.8964235793e-08 -6.6966834509e-01" quadrupole="-5.1976904857e+00 1.6571870073e-01 -1.2691643661e-08 1.6571870073e-01 -4.2073179797e+00 3.5934695757e-08 -1.2691643661e-08 3.5934695757e-08 -3.3885216308e+00" polarizability="7.6544121856e+00 -2.3403838646e-01 5.2566004192e-09 -2.3403932135e-01 6.2557411126e+00 1.2972208117e-07 -3.9859442586e-07 4.3637600099e-07 9.2628167485e+00" dipole_derivatives="-3.5011450539e-01 -1.3018441291e-06 -9.8026656434e-10 1.3018961236e-06 -3.5011450554e-01 8.7290828879e-09 -3.2964520003e-08 1.5179227320e-07 -1.2616822990e-01 3.5011426824e-01 -2.3604913186e-07 9.8073165628e-10 2.3604913248e-07 3.5011426838e-01 -8.7040941079e-09 3.2961078311e-08 -1.5181192414e-07 1.2607653355e-01" charge=0 multiplicity=2 method=b3lyp basis=def2-svpd config_type=oh_q0_m2 sample_index=137 temperature=500.0 units=atomic
O        -0.0000000002       0.0000000026       0.0599956550   8.601546482001e-11  -1.215304125614e-09  -2.808699520295e-02
H         0.0000000029      -0.0000000412      -0.9521745823  -8.602766168860e-11   1.215254884409e-09   2.808660461400e-02
2
Properties=species:S:1:pos:R:3:forces:R:3 energy=-7.567829582407e+01 dipole="4.5041541752e-09 -6.5181271296e-08 -6.7996718854e-01" quadrupole="-4.2137751557e+00 1.8096520565e-02 -7.7052985652e-09 1.8096520565e-02 -5.2613431416e+00 1.8667024808e-07 -7.7052985652e-09 1.8667024808e-07 -3.3153209028e+00" polarizability="6.3063677091e+00 -2.6052771506e-02 -2.1527120628e-08 -2.6052501695e-02 7.8145014826e+00 2.0239447292e-07 7.3810520451e-07 1.9924986228e-07 9.9281659002e+00" dipole_derivatives="-3.4050093272e-01 1.1774041047e-07 -1.4876009699e-09 -1.1773097489e-07 -3.4050093281e-01 2.1036885532e-08 -2.6534456576e-07 -4.5463569021e-07 -1.1840624516e-01 3.4050105963e-01 1.9362439220e-10 1.4665646767e-09 -1.9120037385e-10 3.4050105971e-01 -2.1024560273e-08 2.6533797381e-07 4.5461356901e-07 1.1840225029e-01" charge=0 multiplicity=2 method=b3lyp basis=def2-svpd config_type=oh_q0_m2 sample_index=138 temperature=500.0 units=atomic
O        -0.0000000004       0.0000000060       0.0626384166   3.718551238174e-10  -5.381741408562e-09  -5.614213389056e-02
H         0.0000000066      -0.0000000953      -0.9941171264  -3.718864372989e-10   5.381800609666e-09   5.614261806212e-02
2
Properties=species:S:1:pos:R:3:forces:R:3 energy=-7.567284075915e+01 dipole="6.8302463950e-09 -9.8568740003e-08 -6.8937087011e-01" quadrupole="-5.2956701689e+00 -1.8195609503e-02 -1.7819906130e-08 -1.8195609503e-02 -4.2450411362e+00 1.4346921867e-07 -1.7819906130e-08 1.4346921867e-07 -3.2405974467e+00" polarizability="7.9330585348e+00 2.6583229515e-02 -3.0404112140e-08 2.6583434788e-02 6.3980999476e+00 6.0442038559e-07 -5.2396760337e-09 6.2026469036e-07 1.0616877841e+01" dipole_derivatives="-3.3160018467e-01 1.2104912472e-07 -2.2085048339e-09 -1.2105036591e-07 -3.3160018496e-01 3.1438784700e-08 3.7162772859e-08 3.7562558619e-07 -1.1125379903e-01 3.3159993198e-01 8.9811331573e-11 2.1960216537e-09 -2.9469680192e-11 3.3159993229e-01 -3.1466754269e-08 -3.7163674915e-08 -3.7559394483e-07 1.1109140362e-01" charge=0 multiplicity=2 method=b3lyp basis=def2-svpd config_type=oh_q0_m2 sample_index=139 temperature=500.0 units=atomic
O        -0.0000000006       0.0000000093       0.0652092246   7.519445321285e-10  -1.085209089171e-08  -7.589738972655e-02
H         0.0000000103      -0.0000001480      -1.0349177156  -7.519922821270e-10   1.085214874702e-08   7.589791763244e-02
2
Properties=species:S:1:pos:R:3:forces:R:3 energy=-7.568282163433e+01 dipole="2.6957675775e-10 -4.1792373386e-09 -6.6260080089e-01" quadrupole="-5.1973087901e+00 4.9327562638e-02 -1.0582385744e-09 4.9327562638e-02 -4.1605141588e+00 4.5612009733e-09 -1.0582385744e-09 4.5612009733e-09 -3.4340043759e+00" polarizability="7.6090147868e+00 -6.8619768248e-02 -6.7963851294e-11 -6.8620352475e-02 6.1666308000e+00 1.7001866681e-08 -3.3843056910e-08 -2.6458670080e-07 8.8520223596e+00" dipole_derivatives="-3.5666758632e-01 -1.7006032824e-06 -8.8379017195e-11 1.7006102552e-06 -3.5666758629e-01 1.4276524074e-09 1.2539988492e-07 1.5368298301e-07 -1.3104204084e-01 3.5666734003e-01 -3.4356989239e-07 9.1588472464e-11 3.4356965675e-07 3.5666733998e-01 -1.4254289256e-09 -1.2539938532e-07 -1.5368387118e-07 1.3107755518e-01" charge=0 multiplicity=2 method=b3lyp basis=def2-svpd config_type=oh_q0_m2 sample_index=140 temperature=500.0 units=atomic
O        -0.0000000000       0.0000000004       0.0582717190   1.780566320487e-12  -2.769143081680e-11  -4.386630897070e-03
H         0.0000000004      -0.0000000058      -0.9248144665  -1.784867673792e-12   2.766261108185e-11   4.386176847866e-03
2
Properties=species:S:1:pos:R:3:forces:R:3 energy=-7.568244980576e+01 dipole="1.2668722260e-09 -1.8669669217e-08 -6.6672767498e-01" quadrupole="-5.1970549579e+00 -1.3277520534e-01 3.0241361320e-10 -1.3277520534e-01 -4.1882352253e+00 2.1547949018e-08 3.0241361320e-10 2.1547949018e-08 -3.4078948176e+00" polarizability="7.6345740881e+00 1.8637138235e-01 -8.0404137898e-09 1.8637210705e-01 6.2185841220e+00 8.1150111383e-08 -2.1542322526e-07 4.1885810131e-07 9.0877142068e+00" dipole_derivatives="-3.5284356093e-01 -1.4899358777e-06 -4.3416114419e-10 1.4899229532e-06 -3.5284356104e-01 6.2934189262e-09 -4.6086912064e-08 1.0313797039e-07 -1.2820597358e-01 3.5284332538e-01 -2.8291568241e-07 4.2686024045e-10 2.8291561358e-07 3.5284332547e-01 -6.2915549953e-09 4.6090548045e-08 -1.0313189192e-07 1.2819171309e-01" charge=0 multiplicity=2 method=b3lyp basis=def2-svpd config_type=oh_q0_m2 sample_index=141 temperature=500.0 units=atomic
O        -0.0000000001       0.0000000017       0.0592701662   3.553595452235e-11  -5.235493532285e-10  -1.869636756325e-02
H         0.0000000018      -0.0000000263      -0.9406605484  -3.552527115777e-11   5.235224532054e-10   1.869593035215e-02
2
Properties=species:S:1:pos:R:3:forces:R:3 energy=-7.567387215959e+01 dipole="-5.8205263501e-09 8.4028806091e-08 -6.3752885541e-01" quadrupole="-4.0980575030e+00 1.2491423719e-01 2.1276270035e-08 1.2491423719e-01 -5.0971664302e+00 -2.0272458846e-07 2.1276270035e-08 -2.0272458846e-07 -3.5680651709e+00" polarizability="6.0244533720e+00 -1.6281601338e-01 -6.7354171188e-09 -1.6281522379e-01 7.3267372395e+00 -3.8637175051e-08 -1.2381033479e-07 -4.1350575709e-07 7.6308184139e+00" dipole_derivatives="-3.8005730901e-01 -2.1038828034e-08 2.1062523453e-09 2.1023118552e-08 -3.8005730905e-01 -3.0758197894e-08 -3.2981620213e-07 5.9015320408e-08 -1.4665520284e-01 3.8005918307e-01 7.3235461771e-08 -2.1487487201e-09 -7.3252362627e-08 3.8005918311e-01 3.0760870534e-08 3.2978339504e-07 -5.9041355138e-08 1.4665238862e-01" charge=0 multiplicity=2 method=b3lyp basis=def2-svpd config_type=oh_q0_m2 sample_index=142 temperature=500.0 units=atomic
O         0.0000000005      -0.0000000069       0.0526164789   1.063945020855e-09  -1.536826611325e-08   1.165987952430e-01
H        -0.0000000076       0.0000001101      -0.8350617035  -1.063953389161e-09   1.536824827324e-08  -1.165987814165e-01
2
Properties=species:S:1:pos:R:3:forces:R:3 energy=-7.566777972412e+01 dipole="-7.4465747065e-09 1.0746291506e-07 -6.3096970851e-01" quadrupole="-5.0821760297e+00 8.9641883227e-02 3.2802456467e-08 8.9641883227e-02 -4.0714300228e+00 -8.1919618494e-08 3.2802456467e-08 -8.1919618494e-08 -3.5968286140e+00" polarizability="7.2710487507e+00 -1.1449936724e-01 -1.8314551211e-08 -1.1449970559e-01 5.9799866279e+00 -2.3228437668e-07 1.4890712935e-07 -3.0533479588e-07 7.3601597688e+00" dipole_derivatives="-3.8632978561e-01 -1.8034466956e-07 2.8344143506e-09 1.8073425900e-07 -3.8632978549e-01 -4.0104459710e-08 1.3996970250e-08 -1.5165899092e-07 -1.4987480692e-01 3.8633181278e-01 4.3966955395e-07 -2.8138842193e-09 -4.4009564187e-07 3.8633181269e-01 4.0073702435e-08 -1.3932549559e-08 1.5171272572e-07 1.5000845643e-01" charge=0 multiplicity=2 method=b3lyp basis=def2-svpd config_type=oh_q0_m2 sample_index=143 temperature=500.0 units=atomic
O         0.0000000006      -0.0000000087       0.0512296751   1.889820273340e-09  -2.727222379811e-08   1.601282949979e-01
H        -0.0000000096       0.0000001385      -0.8130521199  -1.889782990453e-09   2.727215010223e-08  -1.601279382545e-01
2
Properties=species:S:1:pos:R:3:forces:R:3 energy=-7.568283759880e+01 dipole="-1.3538096737e-10 1.8959618558e-09 -6.6087790329e-01" quadrupole="-5.1919162172e+00 4.1641692190e-02 4.9226369036e-10 4.1641692190e-02 -4.1545074303e+00 -2.0023977938e-09 4.9226369036e-10 -2.0023977938e-09 -3.4445424246e+00" polarizability="7.5908348908e+00 -5.7698122265e-02 6.4523954281e-08 -5.7698611707e-02 6.1531678695e+00 1.5481079575e-06 1.5435800006e-08 1.0993696605e-07 8.7569237195e+00" dipole_derivatives="-3.5826331096e-01 -1.3772693457e-06 8.3151877479e-11 1.3772774002e-06 -3.5826331101e-01 -6.3995062624e-10 2.8626501170e-07 1.2656639625e-07 -1.3224102247e-01 3.5826294402e-01 -3.4127815827e-07 -4.6274258465e-11 3.4127813268e-07 3.5826294407e-01 6.4798936192e-10 -2.8627250570e-07 -1.2654741144e-07 1.3228181070e-01" charge=0 multiplicity=2 method=b3lyp basis=def2-svpd config_type=oh_q0_m2 sample_index=144 temperature=500.0 units=atomic
O         0.0000000000      -0.0000000002       0.0578613554   4.019557061552e-13  -5.718014219365e-12   1.996930688130e-03
H        -0.0000000002       0.0000000026      -0.9183016995  -4.097761469253e-13   5.729339326214e-12  -1.997358612094e-03
2
Properties=species:S:1:pos:R:3:forces:R:3 energy=-7.568261760397e+01 dipole="1.0035998866e-09 -1.4050339098e-08 -6.6542062645e-01" quadrupole="-4.1670398555e+00 9.2850579376e-03 -1.3143881161e-09 9.2850579376e-03 -5.2095254728e+00 3.7934238095e-08 -1.3143881161e-09 3.7934238095e-08 -3.4162985969e+00" polarizability="6.1845598468e+00 -1.2989492064e-02 -4.0140933689e-09 -1.2989268730e-02 7.6437616823e+00 2.8843953221e-08 7.4435902072e-08 1.1834308019e-06 9.0118282238e+00" dipole_derivatives="-3.5405540623e-01 -1.3293706634e-06 -3.4044593536e-10 1.3293905312e-06 -3.5405540608e-01 4.7652095644e-09 -2.3414881145e-08 4.7615883458e-08 -1.2911146284e-01 3.5405511084e-01 -2.8790397330e-07 3.3936823840e-10 2.8790430389e-07 3.5405511068e-01 -4.7493677308e-09 2.3434948426e-08 -4.7629594713e-08 1.2911509388e-01" charge=0 multiplicity=2 method=b3lyp basis=def2-svpd config_type=oh_q0_m2 sample_index=145 temperature=500.0 units=atomic
O        -0.0000000001       0.0000000012       0.0589515108   2.155891473675e-11  -3.021442735505e-10  -1.431032371926e-02
H         0.0000000014      -0.0000000198      -0.9356032569  -2.158177145323e-11   3.021533693561e-10   1.430989815778e-02
2
Properties=species:S:1:pos:R:3:forces:R:3 energy=-7.567786126538e+01 dipole="4.7496960992e-09 -6.8357259634e-08 -6.8086408257e-01" quadrupole="-5.2645891953e+00 -1.8202981472e-02 -1.1867658840e-08 -1.8202981472e-02 -4.2167171201e+00 9.1069548056e-08 -1.1867658840e-08 9.1069548056e-08 -3.3085321290e+00" polarizability="7.8255015069e+00 2.6245561921e-02 -1.7746016464e-08 2.6245810250e-02 6.3146360215e+00 3.6990417926e-07 -1.4339064117e-06 4.0127648810e-07 9.9902807161e+00" dipole_derivatives="-3.3965797898e-01 1.1946719681e-07 -1.5469363253e-09 -1.1934791934e-07 -3.3965798349e-01 2.2214165785e-08 -5.2827908714e-07 1.0099715508e-07 -1.1772016131e-01 3.3965806964e-01 -3.0523744953e-10 1.5484866725e-09 2.0275599733e-10 3.3965807416e-01 -2.2232707430e-08 5.2825244179e-07 -1.0101045000e-07 1.1771628378e-01" charge=0 multiplicity=2 method=b3lyp basis=def2-svpd config_type=oh_q0_m2 sample_index=146 temperature=500.0 units=atomic
O        -0.0000000004       0.0000000063       0.0628766955   4.064170767522e-10  -5.848666624059e-09  -5.825432853415e-02
H         0.0000000070      -0.0000001002      -0.9978987865  -4.064277408046e-10   5.848739121834e-09   5.825482831199e-02
2
Properties=species:S:1:pos:R:3:forces:R:3 energy=-7.567934047239e+01 dipole="3.9541495297e-09 -5.6924587689e-08 -6.7762937639e-01" quadrupole="-4.3262808647e+00 -3.3411935849e-01 2.2324116761e-08 -3.3411935849e-01 -5.1327726167e+00 1.4927803399e-07 2.2324116761e-08 1.4927803399e-07 -3.3326952141e+00" polarizability="6.4575070335e+00 4.7904764013e-01 -5.9833132294e-08 4.7904757624e-01 7.6138319256e+00 1.8393517476e-07 -1.1655730453e-06 1.7058829487e-07 9.7695561283e+00" dipole_derivatives="-3.4269313788e-01 1.1460007392e-07 -1.3181450151e-09 -1.1460169447e-07 -3.4269313802e-01 1.8673191310e-08 -1.2329326449e-07 1.1618972451e-07 -1.2021627782e-01 3.4269336260e-01 7.0803467374e-10 1.3008226900e-09 -7.0003201022e-10 3.4269336275e-01 -1.8666264293e-08 1.2328002508e-07 -1.1620571172e-07 1.2016591341e-01" charge=0 multiplicity=2 method=b3lyp basis=def2-svpd config_type=oh_q0_m2 sample_index=147 temperature=500.0 units=atomic
O        -0.0000000004       0.0000000052       0.0620237456   2.938109553027e-10  -4.233572753236e-09  -5.039782599208e-02
H         0.0000000057      -0.0000000827      -0.9843618518  -2.937980407200e-10   4.233587652017e-09   5.039778306482e-02
2
Properties=species:S:1:pos:R:3:forces:R:3 energy=-7.568197083076e+01 dipole="-1.9308775264e-09 2.7032575589e-08 -6.5368881636e-01" quadrupole="-4.9740025134e+00 4.0487847849e-01 2.1095667924e-08 4.0487847849e-01 -4.3252554324e+00 -3.5918869000e-08 2.1095667924e-08 -3.5918869000e-08 -3.4863040008e+00" polarizability="7.2499295029e+00 -5.5152064502e-01 -1.9316177672e-08 -5.5152100618e-01 6.3662048070e+00 -8.1334180527e-08 1.3682379630e-07 -6.9524049334e-07 8.3795471011e+00" dipole_derivatives="-3.6492518748e-01 -1.4140487823e-06 6.5603206095e-10 1.4140119982e-06 -3.6492518761e-01 -9.4454226018e-09 -4.6800313624e-08 1.5112677776e-07 -1.3706280145e-01 3.6492464070e-01 -4.0952228439e-07 -6.6737259929e-10 4.0952203881e-07 3.6492464079e-01 9.4325341758e-09 4.6798148690e-08 -1.5114137719e-07 1.3706659770e-01" charge=0 multiplicity=2 method=b3lyp basis=def2-svpd config_type=oh_q0_m2 sample_index=148 temperature=500.0 units=atomic
O         0.0000000002      -0.0000000023       0.0561871157   9.286092250450e-11  -1.299665975471e-09   3.142793786683e-02
H        -0.0000000026       0.0000000369      -0.8917303000  -9.283373960050e-11   1.299693368790e-09  -3.142845713787e-02
2
Properties=species:S:1:pos:R:3:forces:R:3 energy=-7.567786356508e+01 dipole="-4.3890373993e-09 6.3346680548e-08 -6.4336923741e-01" quadrupole="-4.2453164605e+00 3.5921096983e-01 4.0137078134e-08 3.5921096983e-01 -4.9872291090e+00 -1.4491706301e-07 4.0137078134e-08 -1.4491706301e-07 -3.5403589785e+00" polarizability="6.2301684558e+00 -4.7626271198e-01 -3.5306023535e-08 -4.7626276892e-01 7.2138557605e+00 -6.2965922003e-08 1.3373148265e-07 -5.9738226682e-07 7.8870432115e+00" dipole_derivatives="-3.7454803888e-01 4.1988332873e-09 1.5050506907e-09 -4.3648397141e-09 -3.7454803810e-01 -2.2894993128e-08 -1.0346226653e-07 -1.4358053635e-07 -1.4343481960e-01 3.7454973536e-01 5.7677462839e-08 -1.5249293054e-09 -5.7514109173e-08 3.7454973456e-01 2.2888860222e-08 1.0349326951e-07 1.4359474720e-07 1.4339215304e-01" charge=0 multiplicity=2 method=b3lyp basis=def2-svpd config_type=oh_q0_m2 sample_index=149 temperature=500.0 units=atomic
O         0.0000000004      -0.0000000053       0.0538794990   5.624343500289e-10  -8.119311325974e-09   8.246194281383e-02
H        -0.0000000058       0.0000000842      -0.8551067487  -5.624565813485e-10   8.119329214051e-09  -8.246209873432e-02
2
Properties=species:S:1:pos:R:3:forces:R:3 energy=-7.568031285116e+01 dipole="3.3252070180e-09 -4.8182920961e-08 -6.7513307389e-01" quadrupole="-5.2438581974e+00 -1.9586439904e-02 -7.9291494219e-09 -1.9586439904e-02 -4.1981402565e+00 6.0355245624e-08 -7.9291494219e-09 6.0355245624e-08 -3.3507470505e+00" polarizability="7.7561073735e+00 2.7953983294e-02 -1.1110461344e-08 2.7954183698e-02 6.2635357164e+00 2.3913518452e-07 -8.1316714911e-07 2.9296344172e-07 9.6052612983e+00" dipole_derivatives="-3.4502731642e-01 1.1589058218e-07 -1.1134527974e-09 -1.1591516501e-07 -3.4502731681e-01 1.5890055234e-08 1.2985656994e-07 -1.3457926440e-07 -1.2205551615e-01 3.4502765363e-01 -3.1742217211e-09 1.0987297656e-09 3.1706681475e-09 3.4502765402e-01 -1.5912760921e-08 -1.2989112563e-07 1.3455755954e-07 1.2205129710e-01" charge=0 multiplicity=2 method=b3lyp basis=def2-svpd config_type=oh_q0_m2 sample_index=150 temperature=500.0 units=atomic
O        -0.0000000003       0.0000000044       0.0613772534   2.160622417583e-10  -3.130960941156e-09  -4.387008842931e-02
H         0.0000000048      -0.0000000695      -0.9741015510  -2.160711840130e-10   3.130915136104e-09   4.387003051758e-02
2
Properties=species:S:1:pos:R:3:forces:R:3 energy=-7.567934999870e+01 dipole="3.9505552916e-09 -5.6861996186e-08 -6.7760665370e-01" quadrupole="-5.2528108704e+00 -1.8180409351e-02 -9.6187595644e-09 -1.8180409351e-02 -4.2060864005e+00 7.3176920748e-08 -9.6187595644e-09 7.3176920748e-08 -3.3328622561e+00" polarizability="7.7858143064e+00 2.6065996205e-02 -1.3752121424e-08 2.6066205618e-02 6.2850823577e+00 2.9301339932e-07 -1.0693484404e-06 3.3501582174e-07 9.7680333291e+00" dipole_derivatives="-3.4271447546e-01 1.1469624035e-07 -1.2894063705e-09 -1.1469765983e-07 -3.4271447564e-01 1.8894461131e-08 2.9883234776e-07 1.5311180102e-07 -1.2019764827e-01 3.4271470120e-01 5.9943050000e-10 1.2878694207e-09 -5.9026096516e-10 3.4271470136e-01 -1.8892668563e-08 -2.9881644381e-07 -1.5311762969e-07 1.2019354069e-01" charge=0 multiplicity=2 method=b3lyp basis=def2-svpd config_type=oh_q0_m2 sample_index=152 temperature=500.0 units=atomic
O        -0.0000000004       0.0000000052       0.0620177978   2.935240202349e-10  -4.224303296409e-09  -5.033963985107e-02
H         0.0000000057      -0.0000000826      -0.9842674565  -2.934893798577e-10   4.224331145495e-09   5.034006245054e-02
2
Properties=species:S:1:pos:R:3:forces:R:3 energy=-7.568264465537e+01 dipole="-8.8583097918e-10 1.2960517660e-08 -6.5770657540e-01" quadrupole="-5.1493571224e+00 -1.8250191670e-01 -1.3523101632e-09 -1.8250191670e-01 -4.1761831555e+00 -1.3842409141e-08 -1.3523101632e-09 -1.3842409141e-08 -3.4633975998e+00" polarizability="7.5128015607e+00 2.5106139595e-01 6.3657806299e-09 2.5106183537e-01 6.1740273586e+00 -4.7734239148e-08 9.4169960839e-08 -4.9343553366e-07 8.5866945215e+00" dipole_derivatives="-3.6120028884e-01 -1.5677542494e-06 3.0655950071e-10 1.5677478860e-06 -3.6120028888e-01 -4.4593721444e-09 -5.9149962706e-08 -2.7505309141e-07 -1.3442728892e-01 3.6119989213e-01 -3.8756474511e-07 -3.0627274492e-10 3.8756448855e-07 3.6119989218e-01 4.4722014964e-09 5.9148630438e-08 2.7503735400e-07 1.3442671352e-01" charge=0 multiplicity=2 method=b3lyp basis=def2-svpd config_type=oh_q0_m2 sample_index=153 temperature=500.0 units=atomic
O         0.0000000001      -0.0000000011       0.0571154517   1.947644392542e-11  -2.841413677691e-10   1.440882810998e-02
H        -0.0000000012       0.0000000179      -0.9064636658  -1.944009279498e-11   2.841261993471e-10  -1.440938484003e-02
2
Properties=species:S:1:pos:R:3:forces:R:3 energy=-7.568069205019e+01 dipole="-2.8583238776e-09 4.2108003294e-08 -6.4939174240e-01" quadrupole="-5.1253035172e+00 1.6847347815e-01 1.8088458601e-08 1.6847347815e-01 -4.1460434017e+00 -4.1983751643e-08 1.8088458601e-08 -4.1983751643e-08 -3.5096286535e+00" polarizability="7.4315396420e+00 -2.2706078597e-01 -1.1376760535e-08 -2.2706134458e-01 6.1117334839e+00 -1.3174166473e-07 1.6345705742e-07 -3.3268769289e-07 8.1678745665e+00" dipole_derivatives="-3.6891997378e-01 4.0519002812e-08 9.9660076136e-10 -4.0523473803e-08 -3.6891997368e-01 -1.4868220653e-08 1.0222861446e-07 1.7053425339e-07 -1.3978547310e-01 3.6892145227e-01 1.5356862316e-08 -1.0101689148e-09 -1.5338424059e-08 3.6892145218e-01 1.4860254706e-08 -1.0224057712e-07 -1.7060836077e-07 1.3978209075e-01" charge=0 multiplicity=2 method=b3lyp basis=def2-svpd config_type=oh_q0_m2 sample_index=154 temperature=500.0 units=atomic
O         0.0000000002      -0.0000000036       0.0552134995   2.259804172640e-10  -3.328828699923e-09   5.133659726400e-02
H        -0.0000000039       0.0000000568      -0.8762783049  -2.258916864755e-10   3.328809847087e-09  -5.133675631839e-02
2
Properties=species:S:1:pos:R:3:forces:R:3 energy=-7.568036968687e+01 dipole="-3.1438796083e-09 4.5062332506e-08 -6.4854626623e-01" quadrupole="-4.1156476611e+00 1.8044711046e-02 4.1291702130e-09 1.8044711046e-02 -5.1502311517e+00 -1.1379910493e-07 4.1291702130e-09 -1.1379910493e-07 -3.5140791825e+00" polarizability="6.0689308938e+00 -2.4265433962e-02 8.2599964830e-09 -2.4265189311e-02 7.4601715369e+00 -4.6275211460e-08 -9.9454141996e-08 -7.0084471766e-07 8.1273701697e+00" dipole_derivatives="-3.6970758909e-01 3.8347009717e-08 1.0087084830e-09 -3.8409876515e-08 -3.6970758903e-01 -1.5929177483e-08 3.0238472837e-07 6.0746244146e-07 -1.4030531599e-01 3.6970910073e-01 1.7441883729e-08 -1.0246058345e-09 -1.7423342305e-08 3.6970910064e-01 1.5930323512e-08 -3.0239849513e-07 -6.0749372199e-07 1.4030678056e-01" charge=0 multiplicity=2 method=b3lyp basis=def2-svpd config_type=oh_q0_m2 sample_index=155 temperature=500.0 units=atomic
O         0.0000000003      -0.0000000038       0.0550241389   2.688374578275e-10  -3.854354092922e-09   5.547239682868e-02
H        -0.0000000042       0.0000000607      -0.8732730138  -2.687878979509e-10   3.854352770747e-09  -5.547265489927e-02
2
Properties=species:S:1:pos:R:3:forces:R:3 energy=-7.567683118209e+01 dipole="5.2341663495e-09 -7.5384727327e-08 -6.8285430812e-01" quadrupole="-5.1897073315e+00 -2.8229137574e-01 1.6645169762e-08 -2.8229137574e-01 -4.3053815439e+00 1.0957572299e-07 1.6645169762e-08 1.0957572299e-07 -3.2932194555e+00" polarizability="7.7311050539e+00 4.0828353422e-01 -6.3743170863e-08 4.0828350395e-01 6.4520855830e+00 4.1012639302e-07 7.5786108749e-08 4.0446261190e-07 1.0130695267e+01" dipole_derivatives="-3.3778336787e-01 1.2005137792e-07 -1.6901273527e-09 -1.2008370294e-07 -3.3778336797e-01 2.4434614299e-08 -3.7041356094e-08 1.6717906226e-07 -1.1620401832e-01 3.3778337822e-01 -1.2969417097e-10 1.7044008201e-09 1.3334200073e-10 3.3778337830e-01 -2.4445745654e-08 3.7045477796e-08 -1.6714521434e-07 1.1618521574e-01" charge=0 multiplicity=2 method=b3lyp basis=def2-svpd config_type=oh_q0_m2 sample_index=156 temperature=500.0 units=atomic
O        -0.0000000005       0.0000000070       0.0634104532   4.811049369931e-10  -6.928971634600e-09  -6.276439171956e-02
H         0.0000000077      -0.0000001111      -1.0063699072  -4.810990595332e-10   6.928995496915e-09   6.276463328123e-02
2
Properties=species:S:1:pos:R:3:forces:R:3 energy=-7.567693608064e+01 dipole="5.1731007431e-09 -7.4720729667e-08 -6.8265926154e-01" quadrupole="-5.2711109033e+00 -1.8145287583e-02 -1.2965034496e-08 -1.8145287583e-02 -4.2226229701e+00 1.0147352454e-07 -1.2965034496e-08 1.0147352454e-07 -3.2947353106e+00" polarizability="7.8477154517e+00 2.6240287759e-02 -2.0077119716e-08 2.6240465402e-02 6.3314680752e+00 4.1528488509e-07 1.7519631093e-08 4.4222727176e-07 1.0116776250e+01" dipole_derivatives="-3.3796734163e-01 1.1961252950e-07 -1.5919631583e-09 -1.1964813458e-07 -3.3796734162e-01 2.2506381961e-08 4.4679607236e-08 -6.3056601607e-08 -1.1634019472e-01 3.3796735985e-01 -1.4229311605e-10 1.5956328630e-09 1.4281893801e-10 3.3796735986e-01 -2.2515514334e-08 -4.4694234425e-08 6.3071020628e-08 1.1633634508e-01" charge=0 multiplicity=2 method=b3lyp basis=def2-svpd config_type=oh_q0_m2 sample_index=157 temperature=500.0 units=atomic
O        -0.0000000005       0.0000000069       0.0633578337   4.723296281097e-10  -6.822875717086e-09  -6.233280266131e-02
H         0.0000000076      -0.0000001101      -1.0055347987  -4.723574031290e-10   6.822945190229e-09   6.233333491589e-02
2
Properties=species:S:1:pos:R:3:forces:R:3 energy=-7.568223212228e+01 dipole="-1.5810684183e-09 2.2684986564e-08 -6.5493305248e-01" quadrupole="-5.1709481633e+00 4.3330321783e-02 5.6295530998e-09 4.3330321783e-02 -4.1364289127e+00 -2.2810271918e-08 5.6295530998e-09 -2.2810271918e-08 -3.4793251525e+00" polarizability="7.5258086711e+00 -5.9209433506e-02 1.7821557603e-10 -5.9209681167e-02 6.1121064127e+00 -8.0262593233e-08 1.2858875306e-07 -2.6258334381e-07 8.4427177717e+00" dipole_derivatives="-3.6377083733e-01 -1.5132243251e-06 5.3618397238e-10 1.5132271037e-06 -3.6377083728e-01 -7.7361648153e-09 4.3491515944e-08 5.5688564871e-08 -1.3624241542e-01 3.6377034913e-01 -4.0815910692e-07 -5.5521533978e-10 4.0815911555e-07 3.6377034911e-01 7.7554292537e-09 -4.3492626167e-08 -5.5688315070e-08 1.3626001662e-01" charge=0 multiplicity=2 method=b3lyp basis=def2-svpd config_type=oh_q0_m2 sample_index=158 temperature=500.0 units=atomic
O         0.0000000001      -0.0000000020       0.0564727020   6.274649697693e-11  -9.004610946279e-10   2.599734611987e-02
H        -0.0000000022       0.0000000310      -0.8962627614  -6.276184579052e-11   9.004925997844e-10  -2.599788280876e-02
2
Properties=species:S:1:pos:R:3:forces:R:3 energy=-7.568229953631e+01 dipole="1.5298582389e-09 -2.2015161806e-08 -6.6767625899e-01" quadrupole="-5.1900911754e+00 1.6718944910e-01 -9.6560261609e-09 1.6718944910e-01 -4.2015451621e+00 2.6707702244e-08 -9.6560261609e-09 2.6707702244e-08 -3.4017168935e+00" polarizability="7.6309573933e+00 -2.3515890922e-01 4.3365562266e-09 -2.3515974797e-01 6.2405345838e+00 9.5451161098e-08 -2.6478037393e-07 4.7413966057e-07 9.1435239740e+00" dipole_derivatives="-3.5196381647e-01 -1.3972401163e-06 -5.3974357043e-10 1.3972492319e-06 -3.5196381635e-01 7.2528765850e-09 -7.7402750875e-08 2.6110999474e-07 -1.2740375062e-01 3.5196357266e-01 -2.6593753981e-07 5.3878646374e-10 2.6593808895e-07 3.5196357255e-01 -7.2367047893e-09 7.7395478915e-08 -2.6111296458e-07 1.2750091129e-01" charge=0 multiplicity=2 method=b3lyp basis=def2-svpd config_type=oh_q0_m2 sample_index=159 temperature=500.0 units=atomic
O        -0.0000000001       0.0000000020       0.0595028605   4.994794485565e-11  -7.186767412087e-10  -2.179644485063e-02
H         0.0000000022      -0.0000000311      -0.9443535769  -4.993880132450e-11   7.186865352371e-10   2.179621942014e-02
2
Properties=species:S:1:pos:R:3:forces:R:3 energy=-7.568257558789e+01 dipole="1.0705327575e-09 -1.5373270015e-08 -6.6578356706e-01" quadrupole="-4.3997056880e+00 4.3345238512e-01 -1.1585902156e-08 4.3345238512e-01 -4.9792792956e+00 3.6795078994e-08 -1.1585902156e-08 3.6795078994e-08 -3.4139776845e+00" polarizability="6.5116987073e+00 -6.0725762491e-01 1.0122766283e-08 -6.0725770250e-01 7.3236586189e+00 3.8547268274e-08 -1.5678481649e-07 -3.1757035814e-09 9.0327842640e+00" dipole_derivatives="-3.5371894857e-01 -1.4214359918e-06 -3.7916631206e-10 1.4214399397e-06 -3.5371894862e-01 5.1674712719e-09 1.6496326527e-07 1.0374040516e-07 -1.2890766167e-01 3.5371867955e-01 -2.9001161760e-07 3.6865335925e-10 2.9001167611e-07 3.5371867964e-01 -5.1612833235e-09 -1.6497173072e-07 -1.0374995307e-07 1.2886347512e-01" charge=0 multiplicity=2 method=b3lyp basis=def2-svpd config_type=oh_q0_m2 sample_index=160 temperature=500.0 units=atomic
O        -0.0000000001       0.0000000014       0.0590397633   2.590964398242e-11  -3.559720065549e-10  -1.554132670049e-02
H         0.0000000015      -0.0000000216      -0.9370038872  -2.592172099172e-11   3.559318418515e-10   1.554109829138e-02
2
Properties=species:S:1:pos:R:3:forces:R:3 energy=-7.568221057385e+01 dipole="-1.5815312683e-09 2.3104023748e-08 -6.5482112966e-01" quadrupole="-4.1343346993e+00 -7.7574494776e-03 1.3517093830e-09 -7.7574494776e-03 -5.1723110152e+00 -5.9682156279e-08 1.3517093830e-09 -5.9682156279e-08 -3.4799571256e+00" polarizability="6.1089611942e+00 1.0605095211e-02 -3.4242376030e-07 1.0604911958e-02 7.5269813165e+00 6.0691734801e-08 -6.7154249263e-08 -9.0625674132e-07 8.4369950949e+00" dipole_derivatives="-3.6387460806e-01 -1.5834271315e-06 5.4930152954e-10 1.5834293960e-06 -3.6387460798e-01 -8.0412064295e-09 -9.6206598243e-08 -1.9498369586e-07 -1.3633544253e-01 3.6387413339e-01 -4.1464359482e-07 -5.4957499519e-10 4.1464367793e-07 3.6387413332e-01 8.0282442985e-09 9.6214203271e-08 1.9499263315e-07 1.3633244614e-01" charge=0 multiplicity=2 method=b3lyp basis=def2-svpd config_type=oh_q0_m2 sample_index=161 temperature=500.0 units=atomic
O         0.0000000001      -0.0000000020       0.0564469426   6.393525105954e-11  -9.342979753351e-10   2.647986924429e-02
H        -0.0000000022       0.0000000316      -0.8958539411  -6.395562451940e-11   9.343076602968e-10  -2.648043577120e-02
2
Properties=species:S:1:pos:R:3:forces:R:3 energy=-7.563913367913e+01 dipole="-1.2170151013e-08 1.7642902519e-07 -6.1220981189e-01" quadrupole="-4.0142881020e+00 6.8005442563e-02 2.6567745319e-08 6.8005442563e-02 -5.0214529657e+00 -3.9188369003e-07 2.6567745319e-08 -3.9188369003e-07 -3.6661554738e+00" polarizability="5.8894399350e+00 -8.1317950052e-02 -4.6262554920e-07 -8.1317530493e-02 7.0936950923e+00 -1.2508238603e-06 -8.9933865283e-08 -4.0872308588e-09 6.6708809329e+00" dipole_derivatives="-4.0504462330e-01 1.3097351934e-11 4.9870099452e-09 -3.4540088553e-11 -4.0504462325e-01 -7.1268316508e-08 -5.6743110211e-08 -2.6325525093e-08 -1.5764643207e-01 4.0504405673e-01 -1.3286615886e-12 -4.9174325718e-09 -1.2615689393e-12 4.0504405671e-01 7.1296116755e-08 5.6740362409e-08 2.6326191227e-08 1.5764616712e-01" charge=0 multiplicity=2 method=b3lyp basis=def2-svpd config_type=oh_q0_m2 sample_index=162 temperature=500.0 units=atomic
O         0.0000000009      -0.0000000137       0.0474097254   6.397750197180e-09  -9.274808078595e-08   3.218363411539e-01
H        -0.0000000150       0.0000002168      -0.7524267466  -6.397774677597e-09   9.274764244214e-08  -3.218349102362e-01
2
Properties=species:S:1:pos:R:3:forces:R:3 energy=-7.567548001306e+01 dipole="5.7699044144e-09 -8.3822099890e-08 -6.8523770758e-01" quadrupole="-5.2805144158e+00 -1.8057965608e-02 -1.4733956090e-08 -1.8057965608e-02 -4.2311693143e+00 1.1692932390e-07 -1.4733956090e-08 1.1692932390e-07 -3.2744218897e+00" polarizability="7.8800647736e+00 2.6221153668e-02 -2.3625958539e-08 2.6221340221e-02 6.3563555840e+00 4.8390737343e-07 8.7233275525e-09 5.0575139112e-07 1.0303693152e+01" dipole_derivatives="-3.3553041074e-01 1.2002965785e-07 -1.8619376776e-09 -1.2004730841e-07 -3.3553041072e-01 2.6996246626e-08 -2.3034614494e-07 2.6812072007e-07 -1.1433993833e-01 3.3553032283e-01 -2.0320795844e-10 1.8601921651e-09 2.0814399487e-10 3.3553032280e-01 -2.6995786660e-08 2.3025775731e-07 -2.6803025077e-07 1.1433622975e-01" charge=0 multiplicity=2 method=b3lyp basis=def2-svpd config_type=oh_q0_m2 sample_index=163 temperature=500.0 units=atomic
O        -0.0000000005       0.0000000078       0.0640590309   5.713288641574e-10  -8.299965409128e-09  -6.785151658962e-02
H         0.0000000086      -0.0000001244      -1.0166633074  -5.713347457373e-10   8.300053582045e-09   6.785213116353e-02
2
Properties=species:S:1:pos:R:3:forces:R:3 energy=-7.568139612640e+01 dipole="2.5004334692e-09 -3.6190546856e-08 -6.7172087755e-01" quadrupole="-5.2266488686e+00 -7.4627997810e-02 -2.9053813387e-09 -7.4627997810e-02 -4.1921998142e+00 4.3721217221e-08 -2.9053813387e-09 4.3721217221e-08 -3.3746082278e+00" polarizability="7.7086806679e+00 1.0581789337e-01 -1.1982777552e-08 1.0581851159e-01 6.2418928189e+00 1.7032208982e-07 -5.3490726885e-07 2.8715240769e-07 9.3887651129e+00" dipole_derivatives="-3.4820626706e-01 -1.3466392859e-06 -8.3393871976e-10 1.3466161239e-06 -3.4820626702e-01 1.2050841402e-08 -1.8334708751e-07 2.9688371206e-07 -1.2457593491e-01 3.4820606275e-01 -2.1371103851e-07 8.3265021235e-10 2.1371072961e-07 3.4820606276e-01 -1.2049926701e-08 1.8334977980e-07 -2.9687466374e-07 1.2457572499e-01" charge=0 multiplicity=2 method=b3lyp basis=def2-svpd config_type=oh_q0_m2 sample_index=164 temperature=500.0 units=atomic
O        -0.0000000002       0.0000000033       0.0605093594   1.274845954707e-10  -1.845985299495e-09  -3.426299791372e-02
H         0.0000000036      -0.0000000517      -0.9603274446  -1.275396573285e-10   1.845986073181e-09   3.426273037024e-02
2
Properties=species:S:1:pos:R:3:forces:R:3 energy=-7.568224421316e+01 dipole="-1.5120912531e-09 2.2406375781e-08 -6.5499679820e-01" quadrupole="-5.1724383633e+00 -2.3749781488e-02 3.1346456433e-09 -2.3749781488e-02 -4.1353545775e+00 -2.2439227599e-08 3.1346456433e-09 -2.2439227599e-08 -3.4789650737e+00" polarizability="7.5281562727e+00 3.2451818706e-02 4.0766906414e-09 3.2451955050e-02 6.1107988275e+00 -5.7012712528e-08 1.2621582490e-07 -2.5329882065e-07 8.4459759107e+00" dipole_derivatives="-3.6371170618e-01 -1.6344791893e-06 5.5771104338e-10 1.6345737095e-06 -3.6371170591e-01 -7.8012362459e-09 -1.1894984997e-08 -2.6067417669e-07 -1.3623153575e-01 3.6371125016e-01 -4.1695599592e-07 -5.2551237183e-10 4.1695570645e-07 3.6371124995e-01 7.7832545338e-09 1.1899453645e-08 2.6064148062e-07 1.3621949797e-01" charge=0 multiplicity=2 method=b3lyp basis=def2-svpd config_type=oh_q0_m2 sample_index=165 temperature=500.0 units=atomic
O         0.0000000001      -0.0000000019       0.0564873670   5.942792551261e-11  -8.799499714497e-10   2.572329429271e-02
H        -0.0000000021       0.0000000307      -0.8964955061  -5.938351312216e-11   8.799698158189e-10  -2.572381821962e-02
2
Properties=species:S:1:pos:R:3:forces:R:3 energy=-7.568284065418e+01 dipole="-6.7814472834e-11 8.7949972312e-10 -6.6115271964e-01" quadrupole="-4.1549467135e+00 -3.6177871918e-02 3.2138549067e-11 -3.6177871918e-02 -5.1932925507e+00 -2.2961105773e-09 3.2138549067e-11 -2.2961105773e-09 -3.4428755669e+00" polarizability="6.1545799849e+00 5.0160307295e-02 3.3757697334e-10 5.0159876771e-02 7.5944412714e+00 -1.5702072260e-09 -3.9140989024e-09 -1.0258834301e-07 8.7719660374e+00" dipole_derivatives="-3.5800896875e-01 -1.0384902533e-06 5.3913763015e-12 1.0385436923e-06 -3.5800896869e-01 -3.1758443906e-10 -7.8998169117e-08 1.4239737167e-07 -1.3208890799e-01 3.5800855303e-01 -3.0803520135e-07 -1.5895292172e-11 3.0803528514e-07 3.5800855297e-01 2.9966907100e-10 7.8989703667e-08 -1.4239712187e-07 1.3209062384e-01" charge=0 multiplicity=2 method=b3lyp basis=def2-svpd config_type=oh_q0_m2 sample_index=166 temperature=500.0 units=atomic
O         0.0000000000      -0.0000000001       0.0579265640   1.065698722003e-13  -1.285640840707e-12   9.622153890310e-04
H        -0.0000000001       0.0000000012      -0.9193366071  -9.796739150612e-14   1.280312002668e-12  -9.624781925178e-04
2
Properties=species:S:1:pos:R:3:forces:R:3 energy=-7.568152108289e+01 dipole="2.3717709484e-09 -3.4522492528e-08 -6.7125665503e-01" quadrupole="-4.1881351057e+00 5.3725336792e-02 -5.6433028892e-09 5.3725336792e-02 -5.2275779372e+00 9.5331677225e-08 -5.6433028892e-09 9.5331677225e-08 -3.3777835085e+00" polarizability="6.2344106870e+00 -7.6107008348e-02 -7.1347743950e-09 -7.6106319058e-02 7.7069132965e+00 8.4727340569e-08 2.4216043952e-07 7.7355746667e-08 9.3600048515e+00" dipole_derivatives="-3.4863808683e-01 -1.3728761510e-06 -8.2112398160e-10 1.3729286520e-06 -3.4863808694e-01 1.1492492471e-08 1.4029058470e-07 -7.9984990853e-08 -1.2491361329e-01 3.4863788461e-01 -2.2081304337e-07 7.9063784617e-10 2.2081302087e-07 3.4863788471e-01 -1.1505715610e-08 -1.4029113982e-07 8.0000589486e-08 1.2491549179e-01" charge=0 multiplicity=2 method=b3lyp basis=def2-svpd config_type=oh_q0_m2 sample_index=167 temperature=500.0 units=atomic
O        -0.0000000002       0.0000000031       0.0603926392   1.161484778271e-10  -1.691654060756e-09  -3.289276774220e-02
H         0.0000000034      -0.0000000493      -0.9584750092  -1.162207878516e-10   1.691650529640e-09   3.289251049388e-02
2
Properties=species:S:1:pos:R:3:forces:R:3 energy=-7.568272636395e+01 dipole="7.3816413496e-10 -1.0065915111e-08 -6.6428022265e-01" quadrupole="-4.1665713933e+00 -5.7437729965e-02 8.8353666655e-11 -5.7437729965e-02 -5.2024012911e+00 2.6877981093e-08 8.8353666655e-11 2.6877981093e-08 -3.4235285471e+00" polarizability="6.1802680764e+00 8.0194305924e-02 3.6642895811e-07 8.0193588770e-02 7.6265815681e+00 3.7242109984e-08 4.9786423649e-08 1.0630437339e-06 8.9465646537e+00" dipole_derivatives="-3.5511221617e-01 -1.2362226378e-06 -6.3749787529e-11 1.2362013980e-06 -3.5511221625e-01 3.3911133899e-09 1.4612505650e-07 -1.7674603447e-07 -1.2992219675e-01 3.5511188429e-01 -2.9354731471e-07 6.4454572178e-11 2.9354713123e-07 3.5511188433e-01 -3.4035101763e-09 -1.4612444588e-07 1.7674151032e-07 1.2991991137e-01" charge=0 multiplicity=2 method=b3lyp basis=def2-svpd config_type=oh_q0_m2 sample_index=168 temperature=500.0 units=atomic
O        -0.0000000001       0.0000000009       0.0586753407   1.139056786616e-11  -1.571661719549e-10  -1.037384767184e-02
H         0.0000000010      -0.0000000141      -0.9312202367  -1.139239366258e-11   1.571854291202e-10   1.037341577461e-02
2
Properties=species:S:1:pos:R:3:forces:R:3 energy=-7.567815308068e+01 dipole="4.5645213544e-09 -6.6217983656e-08 -6.8026605924e-01" quadrupole="-5.2624269644e+00 -1.8053700498e-02 -1.1349916176e-08 -1.8053700498e-02 -4.2147518129e+00 8.7660232713e-08 -1.1349916176e-08 8.7660232713e-08 -3.3130663410e+00" polarizability="7.8181641989e+00 2.6004005905e-02 -1.6837496991e-08 2.6004244150e-02 6.3091082066e+00 3.5515278343e-07 -1.3580757204e-06 3.8817633012e-07 9.9487852301e+00" dipole_derivatives="-3.4022015416e-01 1.1737755912e-07 -1.4790840983e-09 -1.1742015058e-07 -3.4022015416e-01 2.1087095188e-08 7.4811962181e-09 -2.3695514995e-07 -1.1817785757e-01 3.4022026894e-01 3.4374125682e-10 1.4813472619e-09 -3.3646937352e-10 3.4022026892e-01 -2.1088003641e-08 -7.5048578463e-09 2.3694152196e-07 1.1817387800e-01" charge=0 multiplicity=2 method=b3lyp basis=def2-svpd config_type=oh_q0_m2 sample_index=169 temperature=500.0 units=atomic
O        -0.0000000004       0.0000000061       0.0627176643   3.814828497502e-10  -5.534081186866e-09  -5.685156085810e-02
H         0.0000000067      -0.0000000969      -0.9953748449  -3.814840085454e-10   5.534117730118e-09   5.685205046004e-02
2
Properties=species:S:1:pos:R:3:forces:R:3 energy=-7.564752870567e+01 dipole="-1.1126215604e-08 1.5993011264e-07 -6.1660474237e-01" quadrupole="-4.0300408923e+00 -8.8852971136e-02 -1.6250273433e-08 -8.8852971136e-02 -5.0332085143e+00 -3.5678201140e-07 -1.6250273433e-08 -3.5678201140e-07 -3.6515777269e+00" polarizability="5.9120666109e+00 1.0801286141e-01 4.4033176810e-08 1.0801234433e-01 7.1315933199e+00 7.8243639575e-08 -4.5652755986e-08 -7.2526154876e-08 6.8222489244e+00" dipole_derivatives="-4.0053160813e-01 -1.6122118660e-07 5.7920531850e-09 1.6291251269e-07 -4.0053162745e-01 -6.3500147490e-08 7.9579731693e-08 -1.6344930964e-07 -1.5612058002e-01 4.0053409062e-01 3.0293317208e-07 -5.7840428320e-09 -3.0461812458e-07 4.0053410997e-01 6.3506636033e-08 -7.9604545178e-08 1.6346576870e-07 1.5612132155e-01" charge=0 multiplicity=2 method=b3lyp basis=def2-svpd config_type=oh_q0_m2 sample_index=170 temperature=500.0 units=atomic
O         0.0000000009      -0.0000000125       0.0482883483   5.021398623646e-09  -7.217805302740e-08   2.782797992286e-01
H        -0.0000000138       0.0000001988      -0.7663711295  -5.021399224718e-09   7.217780129703e-08  -2.782788769921e-01
2
Properties=species:S:1:pos:R:3:forces:R:3 energy=-7.568255836652e+01 dipole="1.0690907889e-09 -1.5835903326e-08 -6.6592431534e-01" quadrupole="-5.2103861858e+00 -3.2355973934e-02 -2.1095144671e-09 -3.2355973934e-02 -4.1695384160e+00 1.7943045428e-08 -2.1095144671e-09 1.7943045428e-08 -3.4130751250e+00" polarizability="7.6481562741e+00 4.5333167171e-02 -3.3220985274e-09 4.5333399925e-02 6.1896939220e+00 6.8154086853e-08 -1.6400784947e-07 2.6913489012e-07 9.0409324432e+00" dipole_derivatives="-3.5358842186e-01 -1.5185873319e-06 -3.5592428756e-10 1.5185745770e-06 -3.5358842180e-01 5.3427072989e-09 6.6127658904e-10 4.2621950413e-07 -1.2876547286e-01 3.5358818037e-01 -2.9427618074e-07 3.6118205484e-10 2.9427640349e-07 3.5358818031e-01 -5.3472587797e-09 -6.5558669604e-10 -4.2621561835e-07 1.2876051124e-01" charge=0 multiplicity=2 method=b3lyp basis=def2-svpd config_type=oh_q0_m2 sample_index=171 temperature=500.0 units=atomic
O        -0.0000000001       0.0000000014       0.0590740333   2.572804984824e-11  -3.808964982495e-10  -1.601619049900e-02
H         0.0000000015      -0.0000000223      -0.9375477767  -2.571203559321e-11   3.808615076403e-10   1.601581081559e-02
2
Properties=species:S:1:pos:R:3:forces:R:3 energy=-7.566654735009e+01 dipole="-7.6622504042e-09 1.1150355484e-07 -6.2984154621e-01" quadrupole="-4.0755400669e+00 1.2423078582e-01 2.7805389914e-08 1.2423078582e-01 -5.0709349440e+00 -2.6167624057e-07 2.7805389914e-08 -2.6167624057e-07 -3.6015322455e+00" polarizability="5.9836633292e+00 -1.5810785343e-01 -1.1640546988e-08 -1.5810715255e-01 7.2505183507e+00 -9.5860670164e-09 -1.2161164010e-07 -2.7119487268e-07 7.3153002199e+00" dipole_derivatives="-3.8741986650e-01 -1.4128464967e-07 3.6454066928e-09 1.4119624000e-07 -3.8741986614e-01 -4.1932869734e-08 -3.4728273035e-07 -6.6938954379e-08 -1.5055017518e-01 3.8742192531e-01 3.2499426311e-07 -3.6184672334e-09 -3.2492172457e-07 3.8742192494e-01 4.1925413437e-08 3.4726702069e-07 6.6956745703e-08 1.5054473474e-01" charge=0 multiplicity=2 method=b3lyp basis=def2-svpd config_type=oh_q0_m2 sample_index=172 temperature=500.0 units=atomic
O         0.0000000006      -0.0000000090       0.0509942029   2.053145989880e-09  -2.977953902507e-08   1.682181502275e-01
H        -0.0000000099       0.0000001433      -0.8093150053  -2.053100826512e-09   2.977936101681e-08  -1.682170648850e-01
2
Properties=species:S:1:pos:R:3:forces:R:3 energy=-7.568282723982e+01 dipole="-2.0335656450e-10 3.5248040597e-09 -6.6040401696e-01" quadrupole="-4.1537077840e+00 4.9206674253e-02 5.0230511835e-10 4.9206674253e-02 -5.1895865447e+00 -9.3240311288e-09 5.0230511835e-10 -9.3240311288e-09 -3.4474045592e+00" polarizability="6.1506871806e+00 -6.8118813796e-02 4.3132550105e-10 -6.8118244566e-02 7.5846973374e+00 -6.0958513394e-09 -1.1854865475e-08 -3.8363804204e-07 8.7310918290e+00" dipole_derivatives="-3.5870173904e-01 -1.9735397410e-06 2.1458266739e-11 1.9735809313e-06 -3.5870173908e-01 -1.2281277528e-09 2.4673393884e-07 -2.2690488377e-08 -1.3260408147e-01 3.5870156963e-01 -3.7773779512e-07 -6.9502734452e-11 3.7773755501e-07 3.5870156968e-01 1.2069544770e-09 -2.4671795162e-07 2.2689683465e-08 1.3260336271e-01" charge=0 multiplicity=2 method=b3lyp basis=def2-svpd config_type=oh_q0_m2 sample_index=173 temperature=500.0 units=atomic
O         0.0000000000      -0.0000000003       0.0577491168   1.160483110785e-12  -2.029448574407e-11   3.796676087511e-03
H        -0.0000000003       0.0000000049      -0.9165203907  -1.169815055727e-12   2.026648210306e-11  -3.797094395958e-03
2
Properties=species:S:1:pos:R:3:forces:R:3 energy=-7.568085357615e+01 dipole="2.9466198143e-09 -4.2562268026e-08 -6.7354269272e-01" quadrupole="-5.2382075950e+00 -1.8089981595e-02 -7.0226282122e-09 -1.8089981595e-02 -4.1929778959e+00 5.2372722806e-08 -7.0226282122e-09 5.2372722806e-08 -3.3619837017e+00" polarizability="7.7373509942e+00 2.5743102581e-02 -9.3584583981e-09 2.5743277351e-02 6.2499191434e+00 2.0614143281e-07 -6.6829414649e-07 2.6951665199e-07 9.5032229843e+00" dipole_derivatives="-3.4651045593e-01 1.1027411475e-07 -9.8056345171e-10 -1.1027704101e-07 -3.4651045586e-01 1.4074471682e-08 1.1095041552e-08 1.2215758960e-07 -1.2323755999e-01 3.4651086783e-01 1.8656673634e-09 9.7616722967e-10 -1.8651850402e-09 3.4651086776e-01 -1.4075622472e-08 -1.1091877417e-08 -1.2217604706e-07 1.2323326527e-01" charge=0 multiplicity=2 method=b3lyp basis=def2-svpd config_type=oh_q0_m2 sample_index=174 temperature=500.0 units=atomic
O        -0.0000000003       0.0000000039       0.0609705210   1.727882212773e-10  -2.495723966392e-09  -3.949276276710e-02
H         0.0000000042      -0.0000000611      -0.9676464141  -1.727697565282e-10   2.495708851746e-09   3.949261694781e-02
2
Properties=species:S:1:pos:R:3:forces:R:3 energy=-7.568269524107e+01 dipole="8.0450351744e-10 -1.1330094703e-08 -6.6464699395e-01" quadrupole="-4.1663609467e+00 -4.3525527803e-02 -1.2378883756e-10 -4.3525527803e-02 -5.2050517074e+00 3.0358160921e-08 -1.2378883756e-10 3.0358160921e-08 -3.4212135498e+00" polarizability="6.1811343971e+00 6.0821616695e-02 -4.4358582003e-09 6.0821041251e-02 7.6326452477e+00 2.2816086159e-08 5.5783763438e-08 1.1316536105e-06 8.9674597277e+00" dipole_derivatives="-3.5477231302e-01 -1.3616071915e-06 -3.0258685295e-10 1.3616154864e-06 -3.5477231306e-01 3.8418606041e-09 1.7240375794e-07 -9.9699998257e-08 -1.2967358382e-01 3.5477201134e-01 -2.9905468397e-07 2.7251015660e-10 2.9905466461e-07 3.5477201135e-01 -3.8377186043e-09 -1.7240994743e-07 9.9685787402e-08 1.2966183824e-01" charge=0 multiplicity=2 method=b3lyp basis=def2-svpd config_type=oh_q0_m2 sample_index=175 temperature=500.0 units=atomic
O        -0.0000000001       0.0000000010       0.0587639775   1.410072577907e-11  -1.986178825007e-10  -1.165115487181e-02
H         0.0000000011      -0.0000000159      -0.9326269671  -1.410209924637e-11   1.986089577820e-10   1.165076527554e-02
2
Properties=species:S:1:pos:R:3:forces:R:3 energy=-7.567913720429e+01 dipole="4.0751633278e-09 -5.8659888409e-08 -6.7810767094e-01" quadrupole="-4.3278310183e+00 -3.3414580945e-01 2.2938614016e-08 -3.3414580945e-01 -5.1345018650e+00 1.5413126212e-07 2.2938614016e-08 1.5413126212e-07 -3.3291778387e+00" polarizability="6.4619096545e+00 4.7949105912e-01 -6.1824960055e-08 4.7949097866e-01 7.6194720568e+00 1.9170175687e-07 -1.2265068153e-06 1.7865195137e-07 9.8016263900e+00" dipole_derivatives="-3.4224517253e-01 1.1600299072e-07 -5.3874122463e-09 -1.1601055852e-07 -3.4224517243e-01 2.0692184666e-08 -8.6874452077e-08 -1.9423089526e-07 -1.1971980002e-01 3.4224537673e-01 1.0479222458e-09 5.3803173013e-09 -1.0438470000e-09 3.4224537663e-01 -2.0670005075e-08 8.6863016779e-08 1.9423365694e-07 1.1981016372e-01" charge=0 multiplicity=2 method=b3lyp basis=def2-svpd config_type=oh_q0_m2 sample_index=176 temperature=500.0 units=atomic
O        -0.0000000004       0.0000000054       0.0621487646   3.100625699194e-10  -4.463803993568e-09  -5.160167978744e-02
H         0.0000000059      -0.0000000853      -0.9863459948  -3.100583046680e-10   4.463805004044e-09   5.160171698659e-02
2
Properties=species:S:1:pos:R:3:forces:R:3 energy=-7.568259234401e+01 dipole="-1.0249269877e-09 1.4624183392e-08 -6.5724772598e-01" quadrupole="-4.2947053749e+00 3.6824416860e-01 9.4722033131e-09 3.6824416860e-01 -5.0278239106e+00 -3.5285045277e-08 9.4722033131e-09 -3.5285045277e-08 -3.4660687574e+00" polarizability="6.3355941962e+00 -5.0598771524e-01 -6.4012171442e-07 -5.0598776661e-01 7.3429420473e+00 -2.5483550508e-07 8.3895424364e-08 -1.0863247247e-06 8.5625628910e+00" dipole_derivatives="-3.6162547433e-01 -1.4791661635e-06 -6.4973794835e-10 1.4791767108e-06 -3.6162547426e-01 -6.1953387848e-09 8.6616686046e-08 1.2901429924e-07 -1.3445849422e-01 3.6162504426e-01 -3.8509778882e-07 6.2930267393e-10 3.8509775347e-07 3.6162504422e-01 6.1839078901e-09 -8.6623846984e-08 -1.2902490187e-07 1.3472678015e-01" charge=0 multiplicity=2 method=b3lyp basis=def2-svpd config_type=oh_q0_m2 sample_index=177 temperature=500.0 units=atomic
O         0.0000000001      -0.0000000013       0.0570085002   2.537829067587e-11  -3.622197470862e-10   1.627812162763e-02
H        -0.0000000014       0.0000000201      -0.9047662680  -2.538768331943e-11   3.622077380021e-10  -1.627861041473e-02
2
Properties=species:S:1:pos:R:3:forces:R:3 energy=-7.568269492144e+01 dipole="-8.1801491654e-10 1.1179624474e-08 -6.5821055733e-01" quadrupole="-5.1840627614e+00 1.2855862651e-02 2.3245429578e-09 1.2855862651e-02 -4.1447876895e+00 -1.1604694893e-08 2.3245429578e-09 -1.1604694893e-08 -3.4604474985e+00" polarizability="7.5636275349e+00 -1.7712129770e-02 9.9843483321e-10 -1.7712271405e-02 6.1322086224e+00 -4.2437964127e-08 8.0488780672e-08 5.6456053108e-07 8.6133398445e+00" dipole_derivatives="-3.6073357538e-01 -1.2919070157e-06 2.9515037945e-10 1.2919376746e-06 -3.6073357534e-01 -3.8629940036e-09 -1.1800754818e-08 -4.5553061323e-08 -1.3409006780e-01 3.6073313308e-01 -3.6015524072e-07 -2.8193305731e-10 3.6015565960e-07 3.6073313302e-01 3.8502168476e-09 1.1803918953e-08 4.5568937512e-08 1.3408873409e-01" charge=0 multiplicity=2 method=b3lyp basis=def2-svpd config_type=oh_q0_m2 sample_index=178 temperature=500.0 units=atomic
O         0.0000000001      -0.0000000010       0.0572331915   1.543703404035e-11  -2.102014506173e-10   1.237762355517e-02
H        -0.0000000011       0.0000000154      -0.9083322828  -1.538425594597e-11   2.102417222227e-10  -1.237818085838e-02
2
Properties=species:S:1:pos:R:3:forces:R:3 energy=-7.568280474690e+01 dipole="-3.3945152768e-10 5.6348800946e-09 -6.5980078806e-01" quadrupole="-4.1496187754e+00 -1.0321549357e-02 3.0821072501e-10 -1.0321549357e-02 -5.1896975449e+00 -1.4833414606e-08 3.0821072501e-10 -1.4833414606e-08 -3.4510245983e+00" polarizability="6.1433046102e+00 1.4276127147e-02 -1.5805293516e-06 1.4276005988e-02 7.5810950807e+00 -1.6223614961e-07 -1.8574585259e-08 -5.6017099362e-07 8.6984086750e+00" dipole_derivatives="-3.5926040769e-01 -1.9032442018e-06 7.1534007236e-11 1.9032358344e-06 -3.5926040764e-01 -1.9675743748e-09 -7.0869698998e-08 3.1434974068e-07 -1.3302148396e-01 3.5926018276e-01 -3.8362258069e-07 -1.1102095930e-10 3.8362282306e-07 3.5926018270e-01 1.9317504206e-09 7.0860123325e-08 -3.1435601344e-07 1.3302010824e-01" charge=0 multiplicity=2 method=b3lyp basis=def2-svpd config_type=oh_q0_m2 sample_index=179 temperature=500.0 units=atomic
O         0.0000000000      -0.0000000005       0.0576066619   3.116473297836e-12  -5.218298860624e-11   6.114892299922e-03
H        -0.0000000005       0.0000000078      -0.9142595285  -3.147154274529e-12   5.222612917336e-11  -6.115378257763e-03
2
Properties=species:S:1:pos:R:3:forces:R:3 energy=-7.568189130936e+01 dipole="2.0506135481e-09 -2.9171780504e-08 -6.6973936997e-01" quadrupole="-4.1806324954e+00 9.3294685999e-03 -2.8125548547e-09 9.3294685999e-03 -5.2248547102e+00 8.0052008803e-08 -2.8125548547e-09 8.0052008803e-08 -3.3880451882e+00" polarizability="6.2183067655e+00 -1.3169720921e-02 -8.7942161527e-09 -1.3169621697e-02 7.6930979613e+00 6.8485926868e-08 1.9136356474e-07 6.1010797577e-08 9.2671268413e+00" dipole_derivatives="-3.5004844164e-01 -1.3244714092e-06 -6.9372977636e-10 1.3244911654e-06 -3.5004844162e-01 9.7776362879e-09 -1.0488210300e-07 1.7710177769e-07 -1.2604524811e-01 3.5004821036e-01 -2.3658537221e-07 6.8567488324e-10 2.3658548627e-07 3.5004821037e-01 -9.7573541502e-09 1.0489045743e-07 -1.7709919642e-07 1.2602600215e-01" charge=0 multiplicity=2 method=b3lyp basis=def2-svpd config_type=oh_q0_m2 sample_index=180 temperature=500.0 units=atomic
O        -0.0000000002       0.0000000026       0.0600133473   8.667730958017e-11  -1.232933030391e-09  -2.830605557262e-02
H         0.0000000029      -0.0000000415      -0.9524553726  -8.666777899580e-11   1.232905740217e-09   2.830565786857e-02
2
Properties=species:S:1:pos:R:3:forces:R:3 energy=-7.567653220799e+01 dipole="-4.9103471860e-09 7.0950157838e-08 -6.4120270363e-01" quadrupole="-4.1014616116e+00 -9.0344504356e-02 -5.7695116903e-09 -9.0344504356e-02 -5.1172077986e+00 -1.7263745514e-07 -5.7695116903e-09 -1.7263745514e-07 -3.5508723903e+00" polarizability="6.0353833404e+00 1.1902639776e-01 2.6451214239e-08 1.1902567463e-01 7.3736343235e+00 -4.7040220040e-08 -9.1327197684e-08 -4.9502427390e-07 7.7902247075e+00" dipole_derivatives="-3.7658484121e-01 -1.2108201566e-08 1.8317462041e-09 1.2129196280e-08 -3.7658484152e-01 -2.5667878879e-08 8.3197726486e-08 -8.8922896824e-08 -1.4462567099e-01 3.7658660172e-01 8.7770613320e-08 -1.7977831530e-09 -8.7777706737e-08 3.7658660204e-01 2.5669961074e-08 -8.3183515631e-08 8.8915902419e-08 1.4463230297e-01" charge=0 multiplicity=2 method=b3lyp basis=def2-svpd config_type=oh_q0_m2 sample_index=181 temperature=500.0 units=atomic
O         0.0000000004      -0.0000000059       0.0534076465   7.248741309846e-10  -1.047301543696e-08   9.464835229853e-02
H        -0.0000000065       0.0000000938      -0.8476181070  -7.248172069011e-10   1.047303896892e-08  -9.464871520656e-02
2
Properties=species:S:1:pos:R:3:forces:R:3 energy=-7.568073037913e+01 dipole="-2.8584621901e-09 4.1818059259e-08 -6.4949673703e-01" quadrupole="-4.1184870111e+00 1.7681163761e-02 3.8725971482e-09 1.7681163761e-02 -5.1535398921e+00 -1.0590388316e-07 3.8725971482e-09 -1.0590388316e-07 -3.5090731627e+00" polarizability="6.0748394362e+00 -2.3835754147e-02 7.6662206195e-09 -2.3835509315e-02 7.4701766567e+00 -4.5174938096e-08 -9.4706431375e-08 -7.3473849057e-07 8.1729341792e+00" dipole_derivatives="-3.6882222285e-01 4.1455058030e-08 5.5538825063e-10 -4.1401792056e-08 -3.6882221629e-01 -1.4751865312e-08 4.0977776727e-09 -2.6620522453e-07 -1.3972532098e-01 3.6882369723e-01 1.5192042961e-08 -5.4531362723e-10 -1.5212618724e-08 3.6882369065e-01 1.4760139076e-08 -4.0999981188e-09 2.6623214744e-07 1.3972026765e-01" charge=0 multiplicity=2 method=b3lyp basis=def2-svpd config_type=oh_q0_m2 sample_index=182 temperature=500.0 units=atomic
O         0.0000000002      -0.0000000036       0.0552370604   2.236463079714e-10  -3.272614895954e-09   5.082862499951e-02
H        -0.0000000039       0.0000000564      -0.8766522336  -2.235979618787e-10   3.272602305330e-09  -5.082839490199e-02
2
Properties=species:S:1:pos:R:3:forces:R:3 energy=-7.567211784035e+01 dipole="-6.3542062950e-09 9.1473104473e-08 -6.3543237779e-01" quadrupole="-4.0844502379e+00 -8.9873353034e-02 -7.8433774927e-09 -8.9873353034e-02 -5.0974400744e+00 -2.1791141678e-07 -7.8433774927e-09 -2.1791141678e-07 -3.5775245990e+00" polarizability="6.0033489084e+00 1.1640485366e-01 3.1944947851e-08 1.1640419236e-01 7.3154133403e+00 -3.3879021789e-08 -8.5389403024e-08 -3.7116813804e-07 7.5424263409e+00" dipole_derivatives="-3.8205130713e-01 -4.8284183493e-08 2.2874519430e-09 4.8298440866e-08 -3.8205130718e-01 -3.3726827141e-08 -1.9096307868e-07 -6.4112021247e-08 -1.4775847367e-01 3.8205327443e-01 1.2541270038e-07 -2.3105550648e-09 -1.2541285742e-07 3.8205327446e-01 3.3723715946e-08 1.9095791615e-07 6.4121596921e-08 1.4775989425e-01" charge=0 multiplicity=2 method=b3lyp basis=def2-svpd config_type=oh_q0_m2 sample_index=183 temperature=500.0 units=atomic
O         0.0000000005      -0.0000000075       0.0521697833   1.298684673254e-09  -1.869752484001e-08   1.298851425451e-01
H        -0.0000000083       0.0000001192      -0.8279723188  -1.298694871129e-09   1.869748027113e-08  -1.298849967566e-01
2
Properties=species:S:1:pos:R:3:forces:R:3 energy=-7.568284129287e+01 dipole="-5.8165229960e-15 4.7343356762e-10 -6.6126044585e-01" quadrupole="-4.1540382071e+00 -4.2811350432e-03 -3.0685312875e-12 -4.2811350432e-03 -5.1949124657e+00 -1.3067051187e-09 -3.0685312875e-12 -1.3067051187e-09 -3.4422210164e+00" polarizability="6.1536365123e+00 5.9379761948e-03 4.2782900252e-12 5.9379750831e-03 7.5973906185e+00 -8.4503655569e-10 4.7775313102e-12 -5.4694613020e-08 8.7778736747e+00" dipole_derivatives="-3.5790730787e-01 6.0062868049e-12 -1.9289350218e-11 -2.1355739637e-11 -3.5790730779e-01 -1.9205633832e-10 1.3427980949e-08 2.6961982647e-07 -1.3201615598e-01 3.5790796950e-01 3.3075761768e-13 -1.6673908208e-13 -6.1720970625e-15 3.5790796941e-01 1.6166005280e-10 -1.3426232348e-08 -2.6960869648e-07 1.3201656597e-01" charge=0 multiplicity=2 method=b3lyp basis=def2-svpd config_type=oh_q0_m2 sample_index=184 temperature=500.0 units=atomic
O         0.0000000000      -0.0000000000       0.0579521408   2.496226621639e-14  -4.482330662777e-13   5.583365501396e-04
H        -0.0000000000       0.0000000007      -0.9197425289   5.645785522514e-17   4.004381819076e-13  -5.587297777424e-04
2
Properties=species:S:1:pos:R:3:forces:R:3 energy=-7.567307205071e+01 dipole="-6.0476777782e-09 8.7547299916e-08 -6.3654651444e-01" quadrupole="-4.0954385137e+00 1.2591875430e-01 2.2283726095e-08 1.2591875430e-01 -5.0935337980e+00 -2.1039671581e-07 2.2283726095e-08 -2.1039671581e-07 -3.5725290215e+00" polarizability="6.0194017098e+00 -1.6364311926e-01 -7.5210803988e-09 -1.6364234007e-01 7.3165448653e+00 -3.5985178598e-08 -1.2395031194e-07 -3.9321676509e-07 7.5891738829e+00" dipole_derivatives="-3.8099042747e-01 -2.6399712862e-08 1.9618690176e-09 2.6416404534e-08 -3.8099042091e-01 -3.2407431394e-08 -5.4883375622e-07 -1.6887019560e-08 -1.4735424897e-01 3.8099234262e-01 7.9125945952e-08 -1.9523282613e-09 -7.9131135328e-08 3.8099233605e-01 3.2441385353e-08 5.4876445055e-07 1.6875167930e-08 1.4718259098e-01" charge=0 multiplicity=2 method=b3lyp basis=def2-svpd config_type=oh_q0_m2 sample_index=185 temperature=500.0 units=atomic
O         0.0000000005      -0.0000000072       0.0524067536   1.166213673164e-09  -1.688293208791e-08   1.227537200596e-01
H        -0.0000000079       0.0000001144      -0.8317332104  -1.166257246989e-09   1.688287048551e-08  -1.227534648405e-01
2
Properties=species:S:1:pos:R:3:forces:R:3 energy=-7.567516105392e+01 dipole="5.9511653682e-09 -8.5722060175e-08 -6.8576993707e-01" quadrupole="-5.2824547629e+00 -1.8215525988e-02 -1.5130437157e-08 -1.8215525988e-02 -4.2329490276e+00 1.2022564983e-07 -1.5130437157e-08 1.2022564983e-07 -3.2701545918e+00" polarizability="7.8868003994e+00 2.6471591163e-02 -2.4635645136e-08 2.6471781628e-02 6.3616088518e+00 4.9875831111e-07 6.4614867985e-09 5.1972161537e-07 1.0343066750e+01" dipole_derivatives="-3.3502605023e-01 1.2136875832e-07 -1.8995054204e-09 -1.2140691147e-07 -3.3502605037e-01 2.7379069609e-08 4.5234010981e-08 2.3895632695e-07 -1.1392382186e-01 3.3502594026e-01 -4.5486058479e-10 1.9136952501e-09 4.5951681194e-10 3.3502594041e-01 -2.7387911601e-08 -4.5252523950e-08 -2.3894616841e-07 1.1392014107e-01" charge=0 multiplicity=2 method=b3lyp basis=def2-svpd config_type=oh_q0_m2 sample_index=186 temperature=500.0 units=atomic
O        -0.0000000006       0.0000000080       0.0642052985   5.982672964695e-10  -8.617823100872e-09  -6.894203020878e-02
H         0.0000000088      -0.0000001274      -1.0189846798  -5.982898145820e-10   8.617914630136e-09   6.894266953503e-02
2
Properties=species:S:1:pos:R:3:forces:R:3 energy=-7.567511180374e+01 dipole="-5.4362268346e-09 7.8253807401e-08 -6.3915295115e-01" quadrupole="-5.1178149793e+00 -1.7889651242e-02 1.0994888201e-08 -1.7889651242e-02 -4.0877583200e+00 -6.4374895751e-08 1.0994888201e-08 -6.4374895751e-08 -3.5605628008e+00" polarizability="7.3633486971e+00 2.3439049316e-02 5.7217166930e-09 2.3439133553e-02 6.0137656754e+00 -2.0563912553e-07 1.9282064406e-07 -2.7753997723e-07 7.7005658727e+00" dipole_derivatives="-3.7851902212e-01 -2.4539197129e-08 1.9597991461e-09 2.4694597236e-08 -3.7851902256e-01 -2.8935739379e-08 -1.5882536952e-07 9.4760588265e-08 -1.4577676474e-01 3.7852083983e-01 9.5312613866e-08 -1.9875687621e-09 -9.5429628332e-08 3.7852084025e-01 2.8929000765e-08 1.5884879523e-07 -9.4754676327e-08 1.4577149415e-01" charge=0 multiplicity=2 method=b3lyp basis=def2-svpd config_type=oh_q0_m2 sample_index=187 temperature=500.0 units=atomic
O         0.0000000005      -0.0000000065       0.0529648675   9.074056717270e-10  -1.306254322413e-08   1.066917119866e-01
H        -0.0000000071       0.0000001029      -0.8405908825  -9.074476494331e-10   1.306245984291e-08  -1.066911791714e-01
2
Properties=species:S:1:pos:R:3:forces:R:3 energy=-7.568062682108e+01 dipole="3.1372147894e-09 -4.4966934527e-08 -6.7423194526e-01" quadrupole="-5.1997201204e+00 -2.0364419746e-01 5.0278849662e-09 -2.0364419746e-01 -4.2361466969e+00 5.7648727095e-08 5.0278849662e-09 5.7648727095e-08 -3.3571387221e+00" polarizability="7.6871067866e+00 2.9017078341e-01 -2.8107311181e-08 2.9017198297e-01 6.3141069401e+00 2.1744831865e-07 -8.4340765300e-07 5.0762527216e-07 9.5471966883e+00" dipole_derivatives="-3.4586780518e-01 1.1205969292e-07 -1.0525597275e-09 -1.1206517232e-07 -3.4586780532e-01 1.4855299324e-08 1.1944092937e-07 1.4535952997e-07 -1.2278938358e-01 3.4586818465e-01 1.6699658401e-09 1.0304339776e-09 -1.6629585028e-09 3.4586818478e-01 -1.4845368138e-08 -1.1944498168e-07 -1.4536793991e-07 1.2272719390e-01" charge=0 multiplicity=2 method=b3lyp basis=def2-svpd config_type=oh_q0_m2 sample_index=188 temperature=500.0 units=atomic
O        -0.0000000003       0.0000000041       0.0611463207   1.926911197991e-10  -2.761866062219e-09  -4.141128392143e-02
H         0.0000000045      -0.0000000647      -0.9704364826  -1.926877027089e-10   2.761855217876e-09   4.141106227129e-02
2
Properties=species:S:1:pos:R:3:forces:R:3 energy=-7.568268863427e+01 dipole="8.0437358508e-10 -1.1595363186e-08 -6.6471972432e-01" quadrupole="-5.2051600597e+00 4.5265839759e-02 -2.9126324070e-09 4.5265839759e-02 -4.1667366828e+00 1.3100411159e-08 -2.9126324070e-09 1.3100411159e-08 -3.4207533397e+00" polarizability="7.6332557483e+00 -6.3262453205e-02 -5.0361755868e-10 -6.3262994290e-02 6.1818906413e+00 4.8835785790e-08 -1.1389607041e-07 -8.1628407194e-07 8.9716138151e+00" dipole_derivatives="-3.5470487379e-01 -1.4460927499e-06 -2.6030723447e-10 1.4461169510e-06 -3.5470487396e-01 3.9385898779e-09 1.5587689473e-07 -1.0857184596e-07 -1.2961319613e-01 3.5470459248e-01 -3.0405690679e-07 2.7279112863e-10 3.0405676663e-07 3.5470459263e-01 -3.9197929457e-09 -1.5588946800e-07 1.0857717503e-07 1.2961089678e-01" charge=0 multiplicity=2 method=b3lyp basis=def2-svpd config_type=oh_q0_m2 sample_index=189 temperature=500.0 units=atomic
O        -0.0000000001       0.0000000010       0.0587815745   1.438469549977e-11  -2.076231007004e-10  -1.190321178009e-02
H         0.0000000011      -0.0000000163      -0.9329062434  -1.440263731098e-11   2.076312608398e-10   1.190278168448e-02
2
Properties=species:S:1:pos:R:3:forces:R:3 energy=-7.566473962032e+01 dipole="9.4225191552e-09 -1.3550176054e-07 -6.9962516122e-01" quadrupole="-5.3340726906e+00 -7.2477525729e-03 -2.8043040315e-08 -7.2477525729e-03 -4.2801125744e+00 2.1889694406e-07 -2.8043040315e-08 2.1889694406e-07 -3.1494794291e+00" polarizability="8.0716856769e+00 1.0724099341e-02 -4.7904625183e-08 1.0724183849e-02 6.5120486643e+00 9.6241146484e-07 -3.6691552964e-08 9.6854470320e-07 1.1474444014e+01" dipole_derivatives="-3.2168868575e-01 1.7124170418e-11 -2.9839576916e-09 -7.9356898085e-12 -3.2168868569e-01 4.2409016929e-08 -3.2113459114e-07 3.6562973482e-07 -1.0276979450e-01 3.2168890603e-01 -5.3976918138e-14 2.9479378391e-09 -1.9616661019e-14 3.2168890598e-01 -4.2400125822e-08 3.2109134795e-07 -3.6562543271e-07 1.0276924093e-01" charge=0 multiplicity=2 method=b3lyp basis=def2-svpd config_type=oh_q0_m2 sample_index=190 temperature=500.0 units=atomic
O        -0.0000000009       0.0000000132       0.0682176530   1.238067213476e-09  -1.780427197508e-08  -9.192753698738e-02
H         0.0000000146      -0.0000002097      -1.0826636565  -1.238087431543e-09   1.780448804378e-08   9.192845737639e-02
2
Properties=species:S:1:pos:R:3:forces:R:3 energy=-7.567961314618e+01 dipole="3.7627927302e-09 -5.4625423842e-08 -6.7696680503e-01" quadrupole="-5.2347199674e+00 -1.2884861293e-01 -2.0419308311e-10 -1.2884861293e-01 -4.2197979673e+00 7.0463583184e-08 -2.0419308311e-10 7.0463583184e-08 -3.3375368327e+00" polarizability="7.7552272851e+00 1.8448931832e-01 -2.5917688418e-08 1.8449038567e-01 6.3020255668e+00 2.7788652580e-07 -1.0927816927e-06 4.1085119758e-07 9.7254410636e+00" dipole_derivatives="-3.4331331189e-01 1.1420791544e-07 -1.2341768363e-09 -1.1424889055e-07 -3.4331331181e-01 1.8046538194e-08 -4.0678629909e-07 -2.3034857355e-07 -1.2073908085e-01 3.4331356565e-01 6.9771182117e-10 1.2482039365e-09 -7.0040497217e-10 3.4331356558e-01 -1.8054690718e-08 4.0680400715e-07 2.3034316121e-07 1.2068665879e-01" charge=0 multiplicity=2 method=b3lyp basis=def2-svpd config_type=oh_q0_m2 sample_index=191 temperature=500.0 units=atomic
O        -0.0000000003       0.0000000050       0.0618511627   2.707578964183e-10  -3.930117098910e-09  -4.870516438165e-02
H         0.0000000055      -0.0000000792      -0.9816228365  -2.707214412044e-10   3.930123706037e-09   4.870525348260e-02
2
Properties=species:S:1:pos:R:3:forces:R:3 energy=-7.568216438730e+01 dipole="1.7258858916e-09 -2.4560591852e-08 -6.6842408511e-01" quadrupole="-4.2050134384e+00 -1.7046544202e-01 4.2347285033e-09 -1.7046544202e-01 -5.1916359366e+00 6.5500762651e-08 4.2347285033e-09 6.5500762651e-08 -3.3967986047e+00" polarizability="6.2480366770e+00 2.4013629542e-01 -1.6491292618e-08 2.4013633078e-01 7.6378909428e+00 5.7571221985e-08 -2.7886128684e-07 3.9419509689e-08 9.1879727546e+00" dipole_derivatives="-3.5126986120e-01 -1.3469001879e-06 -3.5727213360e-11 1.3469015363e-06 -3.5126986115e-01 8.1626816759e-09 -1.0705522580e-07 1.8318074835e-07 -1.2686133627e-01 3.5126961701e-01 -2.5381208380e-07 2.5619603959e-11 2.5381231997e-07 3.5126961698e-01 -8.1517353907e-09 1.0704107045e-07 -1.8318582762e-07 1.2697607453e-01" charge=0 multiplicity=2 method=b3lyp basis=def2-svpd config_type=oh_q0_m2 sample_index=192 temperature=500.0 units=atomic
O        -0.0000000002       0.0000000022       0.0596872012   6.253309059631e-11  -8.889424573446e-10  -2.419285115780e-02
H         0.0000000024      -0.0000000348      -0.9472791966  -6.247985713696e-11   8.889285899652e-10   2.419243787800e-02
2
Properties=species:S:1:pos:R:3:forces:R:3 energy=-7.567273398307e+01 dipole="-6.1978730977e-09 8.8932267796e-08 -6.3614516004e-01" quadrupole="-4.0789352793e+00 1.7919951767e-02 7.4331464646e-09 1.7919951767e-02 -5.1074826186e+00 -2.1452368273e-07 7.4331464646e-09 -2.1452368273e-07 -3.5743373126e+00" polarizability="5.9973333661e+00 -2.3271837310e-02 1.2028649655e-08 -2.3271641339e-02 7.3330498202e+00 -3.3270601852e-08 -1.0819825532e-07 -3.8156557507e-07 7.5722761765e+00" dipole_derivatives="-3.8137232730e-01 -3.3501422657e-08 1.7939763670e-09 3.3160561216e-08 -3.8137231968e-01 -3.2623617054e-08 -1.4849624308e-07 1.7967843879e-07 -1.4772327493e-01 3.8137426072e-01 9.1765297675e-08 -1.8048329335e-09 -9.1432537477e-08 3.8137425307e-01 3.2669696138e-08 1.4850287666e-07 -1.7966819699e-07 1.4740331853e-01" charge=0 multiplicity=2 method=b3lyp basis=def2-svpd config_type=oh_q0_m2 sample_index=193 temperature=500.0 units=atomic
O         0.0000000005      -0.0000000073       0.0523212669   1.220798166310e-09  -1.751748234092e-08   1.253050023793e-01
H        -0.0000000081       0.0000001161      -0.8303764741  -1.220806887524e-09   1.751737373090e-08  -1.253042658343e-01
2
Properties=species:S:1:pos:R:3:forces:R:3 energy=-7.568267417240e+01 dipole="-8.1848495090e-10 1.1936121661e-08 -6.5799335702e-01" quadrupole="-5.1743695247e+00 -9.6785190488e-02 3.3876480265e-10 -9.6785190488e-02 -4.1530533963e+00 -1.2466888326e-08 3.3876480265e-10 -1.2466888326e-08 -3.4617212972e+00" polarizability="7.5489024898e+00 1.3323351186e-01 3.7105433576e-09 1.3323440881e-01 6.1429948135e+00 -4.4601494848e-08 8.3719565185e-08 5.8583086339e-07 8.6018352878e+00" dipole_derivatives="-3.6093468543e-01 -1.5576367108e-06 3.0310887367e-10 1.5576644044e-06 -3.6093468549e-01 -4.1469491860e-09 1.1776635223e-07 -5.7963356337e-08 -1.3423210541e-01 3.6093429361e-01 -3.8406593560e-07 -2.8194133418e-10 3.8406582922e-07 3.6093429368e-01 4.1127765774e-09 -1.1776837838e-07 5.7975291234e-08 1.3423352423e-01" charge=0 multiplicity=2 method=b3lyp basis=def2-svpd config_type=oh_q0_m2 sample_index=195 temperature=500.0 units=atomic
O         0.0000000001      -0.0000000010       0.0571824010   1.648591102121e-11  -2.403682820830e-10   1.325056195425e-02
H        -0.0000000011       0.0000000165      -0.9075262003  -1.648229118062e-11   2.403757497140e-10  -1.325103300828e-02
2
Properties=species:S:1:pos:R:3:forces:R:3 energy=-7.568283037421e+01 dipole="2.0231057313e-10 -3.1704481894e-09 -6.6230249973e-01" quadrupole="-5.1292960159e+00 2.5955086698e-01 -1.7820635634e-09 2.5955086698e-01 -4.2265508053e+00 3.8374004262e-09 -1.7820635634e-09 3.8374004262e-09 -3.4358442637e+00" polarizability="7.5124857380e+00 -3.6081549141e-01 1.1694178656e-07 -3.6081554480e-01 6.2575284517e+00 4.3521296517e-07 -2.5517418333e-08 3.5142368383e-07 8.8354186717e+00" dipole_derivatives="-3.5694386457e-01 -1.7333762068e-06 -1.0548393224e-10 1.7333744263e-06 -3.5694386445e-01 1.0610731145e-09 -1.3450751624e-07 -1.8204288077e-07 -1.3129729702e-01 3.5694362410e-01 -3.4860780334e-07 7.3801340361e-11 3.4860784789e-07 3.5694362394e-01 -1.0623869306e-09 1.3449921732e-07 1.8205453811e-07 1.3129822652e-01" charge=0 multiplicity=2 method=b3lyp basis=def2-svpd config_type=oh_q0_m2 sample_index=196 temperature=500.0 units=atomic
O        -0.0000000000       0.0000000003       0.0582003939   9.775176572435e-13  -1.577888804617e-11  -3.298817636513e-03
H         0.0000000003      -0.0000000044      -0.9236824854  -9.965491502804e-13   1.577665990441e-11   3.298473925781e-03
2
Properties=species:S:1:pos:R:3:forces:R:3 energy=-7.568264880066e+01 dipole="-8.8737994313e-10 1.2830926357e-08 -6.5774549075e-01" quadrupole="-4.2956294383e+00 3.6769135085e-01 8.2668761270e-09 3.6769135085e-01 -5.0301665870e+00 -3.1082103993e-08 8.2668761270e-09 -3.1082103993e-08 -3.4631707066e+00" polarizability="6.3384511034e+00 -5.0582493148e-01 -5.6238741627e-07 -5.0582497684e-01 7.3489400569e+00 -2.2341225884e-07 7.4994094312e-08 -1.0417122365e-06 8.5887433575e+00" dipole_derivatives="-3.6116430548e-01 -1.5283730240e-06 8.0532753665e-10 1.5284175854e-06 -3.6116430550e-01 -3.9443295711e-09 2.0740048567e-08 2.6801652564e-07 -1.3446424660e-01 3.6116390000e-01 -3.8427004294e-07 -8.0197958620e-10 3.8427027695e-07 3.6116390004e-01 3.9344096284e-09 -2.0732221495e-08 -2.6801696973e-07 1.3438967913e-01" charge=0 multiplicity=2 method=b3lyp basis=def2-svpd config_type=oh_q0_m2 sample_index=197 temperature=500.0 units=atomic
O         0.0000000001      -0.0000000011       0.0571245214   1.925282892540e-11  -2.780121088596e-10   1.425158252010e-02
H        -0.0000000012       0.0000000177      -0.9066076089  -1.923950158705e-11   2.780098600616e-10  -1.425192652755e-02
2
Properties=species:S:1:pos:R:3:forces:R:3 energy=-7.568283673455e+01 dipole="1.3576351007e-10 -2.0918083514e-09 -6.6199634572e-01" quadrupole="-4.7438091665e+00 5.1629413011e-01 -1.9132917997e-09 5.1629413011e-01 -4.6100085889e+00 3.7907406133e-09 -1.9132917997e-09 3.7907406133e-09 -3.4377258943e+00" polarizability="6.9752880723e+00 -7.1738070090e-01 1.9033706579e-09 -7.1738070589e-01 6.7893758405e+00 6.2798912765e-09 -1.5856930010e-08 2.7470104982e-07 8.8184403246e+00" dipole_derivatives="-3.5722745855e-01 -1.7089904742e-06 -6.1328582965e-11 1.7090453439e-06 -3.5722745850e-01 6.2587093522e-10 -1.8989504413e-07 -7.5130013322e-08 -1.3148823083e-01 3.5722720288e-01 -3.5099444411e-07 5.9088321707e-11 3.5099430914e-07 3.5722720283e-01 -6.6399409940e-10 1.8987905692e-07 7.5118300469e-08 1.3150580449e-01" charge=0 multiplicity=2 method=b3lyp basis=def2-svpd config_type=oh_q0_m2 sample_index=198 temperature=500.0 units=atomic
O        -0.0000000000       0.0000000002       0.0581273059   5.173044003987e-13  -6.927072549171e-12  -2.174700617941e-03
H         0.0000000002      -0.0000000029      -0.9225225265  -4.457210361626e-13   6.864364897538e-12   2.174446703663e-03
2
Properties=species:S:1:pos:R:3:forces:R:3 energy=-7.568269225732e+01 dipole="8.0442789010e-10 -1.1463162795e-08 -6.6468014718e-01" quadrupole="-4.1920667165e+00 -1.6683077206e-01 1.9802672197e-09 -1.6683077206e-01 -5.1795651785e+00 3.0143559818e-08 1.9802672197e-09 3.0143559818e-08 -3.4210043541e+00" polarizability="6.2171666443e+00 2.3317230157e-01 -7.3912736388e-09 2.3317226515e-01 7.5973414015e+00 2.3941718516e-08 -1.0757881303e-07 1.2484919007e-06 8.9693469658e+00" dipole_derivatives="-3.5474166980e-01 -1.4050359719e-06 -9.4406792083e-11 1.4050440268e-06 -3.5474166958e-01 3.8463341222e-09 1.7519100060e-07 1.8465479146e-08 -1.2953096124e-01 3.5474137818e-01 -3.0174052288e-07 8.7067510477e-11 3.0174072211e-07 3.5474137796e-01 -3.8521286290e-09 -1.7517823303e-07 -1.8450740935e-08 1.2963070267e-01" charge=0 multiplicity=2 method=b3lyp basis=def2-svpd config_type=oh_q0_m2 sample_index=199 temperature=500.0 units=atomic
O        -0.0000000001       0.0000000010       0.0587719718   1.425280435638e-11  -2.029574457547e-10  -1.176574891262e-02
H         0.0000000011      -0.0000000161      -0.9327538421  -1.427296887613e-11   2.029079418851e-10   1.176531875902e-02
2
Properties=species:S:1:pos:R:3:forces:R:3 energy=-7.567881665331e+01 dipole="-3.9457098474e-09 5.7149549944e-08 -6.4512217463e-01" quadrupole="-4.3709949170e+00 -4.5179981228e-01 -3.4850610195e-08 -4.5179981228e-01 -4.8728086991e+00 -1.1605552468e-07 -3.4850610195e-08 -1.1605552468e-07 -3.5316453174e+00" polarizability="6.4019400743e+00 6.0193512424e-01 6.2471201578e-08 6.0193524402e-01 7.0705092950e+00 -8.2886478515e-08 2.4048109728e-07 -6.6144737604e-07 7.9669611129e+00" dipole_derivatives="-3.7290534495e-01 1.7818396531e-08 1.3305762978e-09 -1.7801616837e-08 -3.7290534467e-01 -2.0360081348e-08 1.4376380642e-07 -1.9620141622e-07 -1.4225020345e-01 3.7290698290e-01 3.7784841331e-08 -1.2883847691e-09 -3.7795743392e-08 3.7290698264e-01 2.0342958818e-08 -1.4375767243e-07 1.9619655900e-07 1.4237309142e-01" charge=0 multiplicity=2 method=b3lyp basis=def2-svpd config_type=oh_q0_m2 sample_index=200 temperature=500.0 units=atomic
O         0.0000000003      -0.0000000048       0.0542642782   4.465113543266e-10  -6.466488633083e-09   7.299515959833e-02
H        -0.0000000053       0.0000000763      -0.8612134736  -4.465164873632e-10   6.466483281825e-09  -7.299531542070e-02
2
Properties=species:S:1:pos:R:3:forces:R:3 energy=-7.568179218942e+01 dipole="-2.0727169503e-09 2.9639871762e-08 -6.5294711316e-01" quadrupole="-5.1654423354e+00 2.0205388799e-02 6.2070508793e-09 2.0205388799e-02 -4.1289838392e+00 -2.9104210951e-08 6.2070508793e-09 -2.9104210951e-08 -3.4904150257e+00" polarizability="7.5064732080e+00 -2.7480583739e-02 1.4163679364e-09 -2.7480698529e-02 6.0970406212e+00 -1.0140808805e-07 1.5173844386e-07 -2.4255929613e-07 8.3423082072e+00" dipole_derivatives="-3.6561348965e-01 -1.5055123501e-06 7.4317616356e-10 1.5055238446e-06 -3.6561348965e-01 -1.0345893090e-08 1.4246731572e-07 -3.0344421420e-08 -1.3754578361e-01 3.6561293915e-01 -4.2309998282e-07 -7.2420208344e-10 4.2310007598e-07 3.6561293914e-01 1.0352771702e-08 -1.4246007152e-07 3.0332458767e-08 1.3754457308e-01" charge=0 multiplicity=2 method=b3lyp basis=def2-svpd config_type=oh_q0_m2 sample_index=201 temperature=500.0 units=atomic
O         0.0000000002      -0.0000000025       0.0560177086   1.102561048841e-10  -1.576795322097e-09   3.473445101429e-02
H        -0.0000000028       0.0000000404      -0.8890416871  -1.102626034497e-10   1.576759157069e-09  -3.473496934451e-02
2
Properties=species:S:1:pos:R:3:forces:R:3 energy=-7.567842739682e+01 dipole="-4.0927818343e-09 5.9727328370e-08 -6.4438166898e-01" quadrupole="-4.1183457692e+00 1.2536308077e-01 1.5377893796e-08 1.2536308077e-01 -5.1207006617e+00 -1.4775901211e-07 1.5377893796e-08 -1.4775901211e-07 -3.5353488308e+00" polarizability="6.0638323437e+00 -1.6664743232e-01 -3.5178900345e-09 -1.6664654805e-01 7.3963047382e+00 -4.8724852555e-08 -1.1624844743e-07 -5.8587849754e-07 7.9330260202e+00" dipole_derivatives="-3.7359870052e-01 1.1621468293e-08 1.4557432621e-09 -1.1574641066e-08 -3.7359870013e-01 -2.1398340264e-08 3.5516423136e-07 -5.9083127280e-08 -1.4280412745e-01 3.7360036378e-01 4.5654331849e-08 -1.4530388803e-09 -4.5664180600e-08 3.7360036338e-01 2.1393654256e-08 -3.5515967944e-07 5.9071442182e-08 1.4280556424e-01" charge=0 multiplicity=2 method=b3lyp basis=def2-svpd config_type=oh_q0_m2 sample_index=202 temperature=500.0 units=atomic
O         0.0000000003      -0.0000000050       0.0541014108   4.889656181105e-10  -7.132576301379e-09   7.695180852644e-02
H        -0.0000000055       0.0000000796      -0.8586286490  -4.890020128648e-10   7.132594991097e-09  -7.695199919196e-02
2
Properties=species:S:1:pos:R:3:forces:R:3 energy=-7.567137272405e+01 dipole="7.3498365365e-09 -1.0601160834e-07 -6.9145222793e-01" quadrupole="-4.2521039193e+00 1.8220818402e-02 -1.3732188609e-08 1.8220818402e-02 -5.3033480937e+00 3.1913899556e-07 -1.3732188609e-08 3.1913899556e-07 -3.2229547028e+00" polarizability="6.4200198203e+00 -2.6697421835e-02 -4.2314823493e-08 -2.6697215940e-02 7.9603176866e+00 4.3212393331e-07 -2.4024609504e-07 4.3053921892e-07 1.0781275094e+01" dipole_derivatives="-3.2960850079e-01 1.2153363781e-07 -2.3544424700e-09 -1.2128743410e-07 -3.2960850084e-01 3.3769204748e-08 5.6648963298e-07 2.8854441059e-07 -1.0943187474e-01 3.2960817473e-01 -3.2302205484e-10 2.3500044943e-09 7.9988765245e-11 3.2960817478e-01 -3.3757207503e-08 -5.6647983526e-07 -2.8855290379e-07 1.0942849506e-01" charge=0 multiplicity=2 method=b3lyp basis=def2-svpd config_type=oh_q0_m2 sample_index=203 temperature=500.0 units=atomic
O        -0.0000000007       0.0000000101       0.0658013097   8.460149712430e-10  -1.220265590934e-08  -7.959075637058e-02
H         0.0000000111      -0.0000001601      -1.0443145354  -8.460228264638e-10   1.220278863553e-08   7.959171019277e-02
2
Properties=species:S:1:pos:R:3:forces:R:3 energy=-7.568216856646e+01 dipole="1.7262494598e-09 -2.4495661402e-08 -6.6840191853e-01" quadrupole="-4.1784175497e+00 -4.6727565109e-02 -2.4756285412e-10 -4.6727565109e-02 -5.2180843785e+00 6.6604445657e-08 -2.4756285412e-10 6.6604445657e-08 -3.3969445010e+00" polarizability="6.2104948043e+00 6.5812408411e-02 -1.0164539947e-08 6.5811824697e-02 7.6748957137e+00 5.5540985965e-08 1.4635584552e-07 4.5523689883e-08 9.1866543233e+00" dipole_derivatives="-3.5129036044e-01 -1.3377387549e-06 -5.5919452375e-10 1.3377170873e-06 -3.5129036050e-01 8.2120251280e-09 -2.8699595478e-07 2.1361748481e-07 -1.2689489588e-01 3.5129011389e-01 -2.5349643530e-07 5.6597046155e-10 2.5349665767e-07 3.5129011397e-01 -8.1903751575e-09 2.8700405941e-07 -2.1360327396e-07 1.2698611494e-01" charge=0 multiplicity=2 method=b3lyp basis=def2-svpd config_type=oh_q0_m2 sample_index=204 temperature=500.0 units=atomic
O        -0.0000000002       0.0000000022       0.0596817475   6.231698083308e-11  -8.840522712300e-10  -2.412244962304e-02
H         0.0000000024      -0.0000000347      -0.9471926423  -6.229444373933e-11   8.840367888232e-10   2.412227993262e-02
2
Properties=species:S:1:pos:R:3:forces:R:3 energy=-7.568155165286e+01 dipole="2.3725192300e-09 -3.4137826535e-08 -6.7113988986e-01" quadrupole="-5.2295976131e+00 -1.8654287353e-02 -5.6115665921e-09 -1.8654287353e-02 -4.1853273332e+00 4.0932106905e-08 -5.6115665921e-09 4.0932106905e-08 -3.3785794312e+00" polarizability="7.7089719529e+00 2.6413861261e-02 -7.1627728915e-09 2.6414026540e-02 6.2300043332e+00 1.5949820055e-07 -4.7748659023e-07 2.4361526375e-07 9.3527969455e+00" dipole_derivatives="-3.4874669435e-01 -1.3384388634e-06 -7.6679415671e-10 1.3384219134e-06 -3.4874669435e-01 1.1355476934e-08 -5.2055609823e-08 -1.3308032454e-07 -1.2500339089e-01 3.4874648240e-01 -2.2037764606e-07 7.9091964037e-10 2.2037769763e-07 3.4874648238e-01 -1.1382142987e-08 5.2048892973e-08 1.3307507873e-07 1.2500176893e-01" charge=0 multiplicity=2 method=b3lyp basis=def2-svpd config_type=oh_q0_m2 sample_index=205 temperature=500.0 units=atomic
O        -0.0000000002       0.0000000031       0.0603633329   1.150593262226e-10  -1.655467611291e-09  -3.254579115293e-02
H         0.0000000034      -0.0000000487      -0.9580098976  -1.150495475863e-10   1.655439702192e-09   3.254547248205e-02
2
Properties=species:S:1:pos:R:3:forces:R:3 energy=-7.568271707308e+01 dipole="7.3793938737e-10 -1.0465397340e-08 -6.6439445250e-01" quadrupole="-5.1129318318e+00 -2.9718399003e-01 2.8475925860e-09 -2.9718399003e-01 -4.2567990833e+00 1.2837956132e-08 2.8475925860e-09 1.2837956132e-08 -3.4228090915e+00" polarizability="7.5024883898e+00 4.1510296085e-01 -8.1959110159e-09 4.1510335377e-01 6.3066566894e+00 4.2287799336e-08 -1.2008272241e-07 8.3718552884e-07 8.9530570088e+00" dipole_derivatives="-3.5500639359e-01 -1.3909110450e-06 -2.7729645180e-10 1.3909126433e-06 -3.5500639357e-01 3.5622901181e-09 1.6448531426e-07 6.2770677545e-08 -1.2975360173e-01 3.5500609393e-01 -3.0401985706e-07 2.7905223041e-10 3.0401955563e-07 3.5500609390e-01 -3.5634802874e-09 -1.6448900575e-07 -6.2769456299e-08 1.2984808145e-01" charge=0 multiplicity=2 method=b3lyp basis=def2-svpd config_type=oh_q0_m2 sample_index=206 temperature=500.0 units=atomic
O        -0.0000000001       0.0000000009       0.0587029032   1.198732703725e-11  -1.697036462751e-10  -1.077248985479e-02
H         0.0000000010      -0.0000000147      -0.9316576727  -1.196397704141e-11   1.696797308684e-10   1.077203928149e-02
2
Properties=species:S:1:pos:R:3:forces:R:3 energy=-7.566744051080e+01 dipole="-7.5258420085e-09 1.0857107074e-07 -6.3065400898e-01" quadrupole="-4.0779273602e+00 1.2438359199e-01 2.7150769946e-08 1.2438359199e-01 -5.0736824522e+00 -2.5551598754e-07 2.7150769946e-08 -2.5551598754e-07 -3.5981519633e+00" polarizability="5.9878390323e+00 -1.5871624379e-01 -1.1014208043e-08 -1.5871553427e-01 7.2584695801e+00 -1.3491431174e-08 -1.2243944336e-07 -2.8480541836e-07 7.3475582594e+00" dipole_derivatives="-3.8663440845e-01 -1.7190756522e-07 1.1813292703e-09 1.7216397877e-07 -3.8663438028e-01 -4.1161231109e-08 5.3238677356e-07 -3.5235267482e-07 -1.5005662023e-01 3.8663644132e-01 4.0889485965e-07 -1.1715227429e-09 -4.0926153149e-07 3.8663641310e-01 4.1130363601e-08 -5.3219204044e-07 3.5234823392e-07 1.5016067313e-01" charge=0 multiplicity=2 method=b3lyp basis=def2-svpd config_type=oh_q0_m2 sample_index=208 temperature=500.0 units=atomic
O         0.0000000006      -0.0000000088       0.0511636960   1.937572186081e-09  -2.795368869889e-08   1.623735739540e-01
H        -0.0000000097       0.0000001398      -0.8120049840  -1.937552857792e-09   2.795354448438e-08  -1.623729413125e-01
2
Properties=species:S:1:pos:R:3:forces:R:3 energy=-7.568279409640e+01 dipole="-4.0756525383e-10 6.3852372677e-09 -6.5958391345e-01" quadrupole="-4.1495245056e+00 2.6509650333e-02 7.3177117560e-10 2.6509650333e-02 -5.1883623687e+00 -1.6769129840e-08 7.3177117560e-10 -1.6769129840e-08 -3.4523201419e+00" polarizability="6.1425597852e+00 -3.6622055620e-02 -2.9111339288e-07 -3.6621736116e-02 7.5778849191e+00 -1.1076387039e-07 -2.2511507237e-08 -6.1878045917e-07 8.6867223131e+00" dipole_derivatives="-3.5946139430e-01 -1.7687555878e-06 1.0253126278e-10 1.7687530836e-06 -3.5946139448e-01 -2.1715356342e-09 -3.4797273396e-07 -7.6514156122e-08 -1.3316628230e-01 3.5946110639e-01 -3.8085058223e-07 -1.3968072694e-10 3.8085040913e-07 3.5946110653e-01 2.1906452562e-09 3.4798403048e-07 7.6501333046e-08 1.3316234306e-01" charge=0 multiplicity=2 method=b3lyp basis=def2-svpd config_type=oh_q0_m2 sample_index=209 temperature=500.0 units=atomic
O         0.0000000000      -0.0000000006       0.0575555437   4.307207599149e-12  -6.729409533261e-11   6.956176345049e-03
H        -0.0000000006       0.0000000088      -0.9134482457  -4.298459388653e-12   6.734496956811e-11  -6.956662214693e-03
2
Properties=species:S:1:pos:R:3:forces:R:3 energy=-7.568276250695e+01 dipole="-5.4416867657e-10 8.2304571035e-09 -6.5905637351e-01" quadrupole="-4.1474611932e+00 -1.5642561937e-02 4.3507407492e-10 -1.5642561937e-02 -5.1869519649e+00 -2.1631878747e-08 4.3507407492e-10 -2.1631878747e-08 -3.4554573164e+00" polarizability="6.1382303958e+00 2.1593929274e-02 2.3729108241e-09 2.1593733220e-02 7.5727663543e+00 -1.3561569216e-08 -2.8553428527e-08 -7.3001553986e-07 8.6583999626e+00" dipole_derivatives="-3.5994998790e-01 -1.6718728270e-06 2.0031511988e-10 1.6718563110e-06 -3.5994998792e-01 -2.8336496675e-09 -1.8742229990e-09 -1.5603915382e-07 -1.3351571183e-01 3.5994965449e-01 -3.8108775458e-07 -1.8695497858e-10 3.8108804763e-07 3.5994965454e-01 2.8282243737e-09 1.8912926780e-09 1.5604151304e-07 1.3351711165e-01" charge=0 multiplicity=2 method=b3lyp basis=def2-svpd config_type=oh_q0_m2 sample_index=210 temperature=500.0 units=atomic
O         0.0000000000      -0.0000000007       0.0574314607   7.480987148502e-12  -1.126368805317e-10   9.019092755331e-03
H        -0.0000000008       0.0000000114      -0.9114789577  -7.446566982125e-12   1.126389284949e-10  -9.019628912070e-03
2
Properties=species:S:1:pos:R:3:forces:R:3 energy=-7.568281462947e+01 dipole="3.3683199441e-10 -4.8503676791e-09 -6.6279457281e-01" quadrupole="-5.1935257606e+00 -8.3927415367e-02 -3.1772269921e-10 -8.3927415367e-02 -4.1655811162e+00 5.3533692762e-09 -3.1772269921e-10 5.3533692762e-09 -3.4328062739e+00" polarizability="7.6049653154e+00 1.1681012671e-01 -1.4984324397e-09 1.1681102769e-01 6.1742721006e+00 1.9787307387e-08 -4.4602777684e-08 -3.0766664830e-07 8.8628347535e+00" dipole_derivatives="-3.5648831313e-01 -1.4659023261e-06 -1.0259438289e-10 1.4659033364e-06 -3.5648831292e-01 1.6361101676e-09 -1.2901479884e-07 -6.7030575535e-08 -1.3099456160e-01 3.5648800233e-01 -3.2729763994e-07 1.1081888142e-10 3.2729773146e-07 3.5648800210e-01 -1.6305446122e-09 1.2902162672e-07 6.7038846696e-08 1.3096828748e-01" charge=0 multiplicity=2 method=b3lyp basis=def2-svpd config_type=oh_q0_m2 sample_index=211 temperature=500.0 units=atomic
O        -0.0000000000       0.0000000004       0.0583180955   2.603496138044e-12  -3.725731745183e-11  -5.088910280598e-03
H         0.0000000005      -0.0000000068      -0.9255504962  -2.585780515077e-12   3.723848798998e-11   5.088543335679e-03
2
Properties=species:S:1:pos:R:3:forces:R:3 energy=-7.568203518832e+01 dipole="-1.8605772660e-09 2.5979193326e-08 -6.5397503692e-01" quadrupole="-5.1607204293e+00 -9.4600516355e-02 9.6091355046e-10 -9.4600516355e-02 -4.1404028169e+00 -2.5821189482e-08 9.6091355046e-10 -2.5821189482e-08 -3.4847076332e+00" polarizability="7.5060984494e+00 1.2896840706e-01 7.6151754982e-09 1.2896886693e-01 6.1151159870e+00 -9.0528011820e-08 1.5231594979e-07 -2.9883741889e-07 8.3940032311e+00" dipole_derivatives="-3.6465957629e-01 -1.4018930778e-06 6.4571783840e-10 1.4018770629e-06 -3.6465957632e-01 -9.0199765034e-09 3.0127902950e-07 -2.7426363958e-07 -1.3690686272e-01 3.6465903580e-01 -4.0622957038e-07 -6.4773442943e-10 4.0622920060e-07 3.6465903582e-01 9.0499897032e-09 -3.0128516348e-07 2.7425833826e-07 1.3688617553e-01" charge=0 multiplicity=2 method=b3lyp basis=def2-svpd config_type=oh_q0_m2 sample_index=212 temperature=500.0 units=atomic
O         0.0000000002      -0.0000000022       0.0562526649   8.582632602487e-11  -1.198326018028e-09   3.016574730562e-02
H        -0.0000000025       0.0000000355      -0.8927706140  -8.582417031341e-11   1.198355746429e-09  -3.016622927555e-02
2
Properties=species:S:1:pos:R:3:forces:R:3 energy=-7.568194248704e+01 dipole="1.9856778153e-09 -2.8395373411e-08 -6.6950851076e-01" quadrupole="-4.5214692928e+00 -4.8995969720e-01 1.7451416080e-08 -4.8995969720e-01 -4.8824655684e+00 6.1917197329e-08 1.7451416080e-08 6.1917197329e-08 -3.3895913099e+00" polarizability="6.6986107566e+00 6.9162260329e-01 -3.7084605796e-08 6.9162267568e-01 7.2081872017e+00 8.8886832913e-08 -4.3409390693e-07 6.4444056830e-08 9.2531400985e+00" dipole_derivatives="-3.5026292051e-01 -1.3461107530e-06 -4.5206318188e-10 1.3461226388e-06 -3.5026292059e-01 9.4755040415e-09 -4.4049458525e-08 2.9335311957e-08 -1.2612883995e-01 3.5026269120e-01 -2.4068163673e-07 4.6353604651e-10 2.4068156927e-07 3.5026269130e-01 -9.4520679572e-09 4.4043407810e-08 -2.9329066953e-08 1.2617922426e-01" charge=0 multiplicity=2 method=b3lyp basis=def2-svpd config_type=oh_q0_m2 sample_index=213 temperature=500.0 units=atomic
O        -0.0000000002       0.0000000025       0.0599559163   8.185958435745e-11  -1.170301731710e-09  -2.759319783754e-02
H         0.0000000028      -0.0000000404      -0.9515439007  -8.183665216849e-11   1.170276232111e-09   2.759288155848e-02
2
Properties=species:S:1:pos:R:3:forces:R:3 energy=-7.567749452326e+01 dipole="4.9334375857e-09 -7.0974121768e-08 -6.8159293844e-01" quadrupole="-4.2469548683e+00 -1.6952749373e-01 1.0877847464e-08 -1.6952749373e-01 -5.2393903860e+00 2.0037055730e-07 1.0877847464e-08 2.0037055730e-07 -3.3029643322e+00" polarizability="6.3616106122e+00 2.4472158466e-01 -5.2282617200e-08 2.4472109234e-01 7.7942507378e+00 2.3572982524e-07 -1.1131485189e-06 2.2808221066e-07 1.0041283472e+01" dipole_derivatives="-3.3897210041e-01 1.1798634119e-07 -1.6238666400e-09 -1.1797505226e-07 -3.3897210016e-01 2.3237620843e-08 -4.4903816776e-08 -2.0001365841e-07 -1.1716166509e-01 3.3897216171e-01 1.4366891438e-09 1.6083465028e-09 -1.4297651202e-09 3.3897216149e-01 -2.3257053649e-08 4.4917319864e-08 2.0001657275e-07 1.1715775636e-01" charge=0 multiplicity=2 method=b3lyp basis=def2-svpd config_type=oh_q0_m2 sample_index=214 temperature=500.0 units=atomic
O        -0.0000000005       0.0000000066       0.0630713633   4.337282463574e-10  -6.240941900099e-09  -5.993442115786e-02
H         0.0000000072      -0.0000001042      -1.0009883057  -4.337142167813e-10   6.240958767682e-09   5.993458646425e-02
2
Properties=species:S:1:pos:R:3:forces:R:3 energy=-7.568199025897e+01 dipole="1.9213459766e-09 -2.7616928110e-08 -6.6928698475e-01" quadrupole="-4.4112979043e+00 4.3420870610e-01 -2.0808845294e-08 4.3420870610e-01 -4.9911464374e+00 6.7235673146e-08 -2.0808845294e-08 6.7235673146e-08 -3.3910705431e+00" polarizability="6.5422256226e+00 -6.1275778185e-01 1.7755622648e-08 -6.1275785666e-01 7.3605018040e+00 7.5865555159e-08 -3.5145593169e-07 5.0640678088e-08 9.2397643057e+00" dipole_derivatives="-3.5046861163e-01 -1.3684115992e-06 -6.8810837704e-10 1.3684183857e-06 -3.5046861168e-01 9.2486355414e-09 -1.4185566610e-07 3.8445666095e-07 -1.2638677441e-01 3.5046838463e-01 -2.4469618924e-07 6.8986791920e-10 2.4469623249e-07 3.5046838467e-01 -9.2283457328e-09 1.4184151076e-07 -3.8445915895e-07 1.2634913634e-01" charge=0 multiplicity=2 method=b3lyp basis=def2-svpd config_type=oh_q0_m2 sample_index=215 temperature=500.0 units=atomic
O        -0.0000000002       0.0000000025       0.0599009014   7.722237707123e-11  -1.110159869108e-09  -2.690565691686e-02
H         0.0000000027      -0.0000000392      -0.9506707748  -7.724129910960e-11   1.110134453241e-09   2.690549472314e-02
2
Properties=species:S:1:pos:R:3:forces:R:3 energy=-7.568181357151e+01 dipole="-2.0722749139e-09 2.9357161689e-08 -6.5303239375e-01" quadrupole="-4.1566834129e+00 -1.6762596884e-01 -5.4472550739e-09 -1.6762596884e-01 -5.1382963647e+00 -7.3593597651e-08 -5.4472550739e-09 -7.3593597651e-08 -3.4899446885e+00" polarizability="6.1349220122e+00 2.2800763335e-01 1.7167342662e-08 2.2800758919e-01 7.4701283612e+00 -4.0131357408e-08 1.4537045845e-07 -9.4968636907e-07 8.3465664692e+00" dipole_derivatives="-3.6553447946e-01 -1.4661968874e-06 7.5564980794e-10 1.4661285584e-06 -3.6553447939e-01 -1.0245898702e-08 2.2112006670e-08 2.2497523289e-07 -1.3749220450e-01 3.6553392311e-01 -4.1907899973e-07 -7.5578043455e-10 4.1907888907e-07 3.6553392303e-01 1.0252236195e-08 -2.2105733910e-08 -2.2496424168e-07 1.3749025271e-01" charge=0 multiplicity=2 method=b3lyp basis=def2-svpd config_type=oh_q0_m2 sample_index=216 temperature=500.0 units=atomic
O         0.0000000002      -0.0000000025       0.0560371240   1.090522681753e-10  -1.544310830475e-09   3.435224966980e-02
H        -0.0000000028       0.0000000400      -0.8893498227  -1.090120053056e-10   1.544332497262e-09  -3.435274824794e-02
2
Properties=species:S:1:pos:R:3:forces:R:3 energy=-7.566645355212e+01 dipole="-7.7620104971e-09 1.1189000916e-07 -6.2975781993e-01" quadrupole="-5.0856081170e+00 -1.7782728435e-02 1.5161719451e-08 -1.7782728435e-02 -4.0603355203e+00 -8.1184391216e-08 1.5161719451e-08 -8.1184391216e-08 -3.6018790973e+00" polarizability="7.2694304493e+00 2.2638468041e-02 4.5241511232e-09 2.2638541296e-02 5.9642133309e+00 -2.3826268943e-07 1.6837595588e-07 -2.9637845596e-07 7.3119908548e+00" dipole_derivatives="-3.8750099355e-01 -1.4011075498e-07 2.9240712072e-09 1.3970969348e-07 -3.8750099423e-01 -4.2449663514e-08 -8.3835882680e-08 2.5439345075e-08 -1.5059080463e-01 3.8750305578e-01 3.2057177385e-07 -2.9224637856e-09 -3.2019672727e-07 3.8750305646e-01 4.2454868345e-08 8.3844597931e-08 -2.5444923946e-08 1.5058536391e-01" charge=0 multiplicity=2 method=b3lyp basis=def2-svpd config_type=oh_q0_m2 sample_index=217 temperature=500.0 units=atomic
O         0.0000000006      -0.0000000091       0.0509767445   2.080821033326e-09  -2.999550971625e-08   1.688264674927e-01
H        -0.0000000100       0.0000001437      -0.8090379276  -2.080837344331e-09   2.999529761667e-08  -1.688253795384e-01
2
Properties=species:S:1:pos:R:3:forces:R:3 energy=-7.568054498454e+01 dipole="-3.0947135731e-09 4.3474911399e-08 -6.4899838930e-01" quadrupole="-4.1170114336e+00 1.8270540107e-02 4.0384249605e-09 1.8270540107e-02 -5.1517907663e+00 -1.0994519065e-07 4.0384249605e-09 -1.0994519065e-07 -3.5117050174e+00" polarizability="6.0717518755e+00 -2.4598212704e-02 8.1404428445e-09 -2.4597964756e-02 7.4649073685e+00 -4.5743512736e-08 -9.9013818445e-08 -7.1725201920e-07 8.1489866311e+00" dipole_derivatives="-3.6928632816e-01 4.0886925795e-08 1.0698886525e-09 -4.0890784814e-08 -3.6928632831e-01 -1.5356532465e-08 8.2098855492e-08 2.6655067042e-09 -1.4003325586e-01 3.6928782217e-01 1.6560126469e-08 -1.0619199834e-09 -1.6561292844e-08 3.6928782231e-01 1.5356480317e-08 -8.2071266450e-08 -2.6541824294e-09 1.4002819093e-01" charge=0 multiplicity=2 method=b3lyp basis=def2-svpd config_type=oh_q0_m2 sample_index=218 temperature=500.0 units=atomic
O         0.0000000003      -0.0000000037       0.0551253108   2.520608676036e-10  -3.567302649700e-09   5.325208767397e-02
H        -0.0000000041       0.0000000586      -0.8748786864  -2.520368239025e-10   3.567280917193e-09  -5.325183677516e-02
2
Properties=species:S:1:pos:R:3:forces:R:3 energy=-7.568259029319e+01 dipole="1.0701558956e-09 -1.4910399999e-08 -6.6566013827e-01" quadrupole="-4.7635129095e+00 5.1603360588e-01 -1.3720000066e-08 5.1603360588e-01 -4.6146483163e+00 2.7734448991e-08 -1.3720000066e-08 2.7734448991e-08 -3.4147683904e+00" polarizability="7.0207826363e+00 -7.2277883110e-01 1.3047058442e-08 -7.2277890147e-01 6.8122767967e+00 4.8499925092e-08 -1.6296089171e-07 1.1408034250e-08 9.0256450718e+00" dipole_derivatives="-3.5383347687e-01 -1.3091216587e-06 -3.9114919051e-10 1.3090989288e-06 -3.5383347694e-01 5.1259213844e-09 -2.8041297062e-07 -2.4311663793e-08 -1.2884018886e-01 3.5383318131e-01 -2.8369086343e-07 3.6222277481e-10 2.8369076068e-07 3.5383318139e-01 -5.1195780427e-09 2.8040098021e-07 2.4319102288e-08 1.2893926460e-01" charge=0 multiplicity=2 method=b3lyp basis=def2-svpd config_type=oh_q0_m2 sample_index=219 temperature=500.0 units=atomic
O        -0.0000000001       0.0000000013       0.0590097158   2.431951145917e-11  -3.387041901262e-10  -1.512381130370e-02
H         0.0000000015      -0.0000000210      -0.9365270123  -2.430977305747e-11   3.387089472026e-10   1.512338339871e-02
2
Properties=species:S:1:pos:R:3:forces:R:3 energy=-7.567997152550e+01 dipole="-3.3615946501e-09 4.8463894073e-08 -6.4757888944e-01" quadrupole="-4.1204659859e+00 -9.0799631320e-02 -3.6925744914e-09 -9.0799631320e-02 -5.1391666354e+00 -1.2077317208e-07 -3.6925744914e-09 -1.2077317208e-07 -3.5191155557e+00" polarizability="6.0733062627e+00 1.2175337763e-01 1.9427014536e-08 1.2175257729e-01 7.4393159978e+00 -4.8715437565e-08 -8.8873454633e-08 -6.8289837414e-07 8.0814641054e+00" dipole_derivatives="-3.7060961715e-01 3.3158950895e-08 1.0861379398e-09 -3.3525868618e-08 -3.7060960448e-01 -1.7185847781e-08 3.8311451234e-07 -8.1600240454e-07 -1.4090302797e-01 3.7061116587e-01 2.1060145948e-08 -1.1377491040e-09 -2.0804142508e-08 3.7061115320e-01 1.7192573977e-08 -3.8311576134e-07 8.1572745780e-07 1.4089792320e-01" charge=0 multiplicity=2 method=b3lyp basis=def2-svpd config_type=oh_q0_m2 sample_index=220 temperature=500.0 units=atomic
O         0.0000000003      -0.0000000041       0.0548083455   3.129615194224e-10  -4.512453170251e-09   6.029571086713e-02
H        -0.0000000045       0.0000000651      -0.8698482163  -3.130042526005e-10   4.512464870094e-09  -6.029594312300e-02
2
Properties=species:S:1:pos:R:3:forces:R:3 energy=-7.568145946544e+01 dipole="-2.3581217762e-09 3.3956187378e-08 -6.5172354982e-01" quadrupole="-4.9656328295e+00 4.0588172882e-01 2.6460844719e-08 4.0588172882e-01 -4.3208362737e+00 -4.4394936705e-08 2.6460844719e-08 -4.4394936705e-08 -3.4971195275e+00" polarizability="7.2281891241e+00 -5.5016294804e-01 -2.4664948212e-08 -5.5016331693e-01 6.3541721723e+00 -9.8068571095e-08 1.4499618912e-07 -6.1941812022e-07 8.2815158431e+00" dipole_derivatives="-3.6675003185e-01 -1.5390713569e-06 9.2377250995e-10 1.5390491086e-06 -3.6675003174e-01 -1.1810514060e-08 1.3323725456e-07 -7.9380196860e-08 -1.3812496801e-01 3.6674945078e-01 -4.3465422323e-07 -9.2940353076e-10 4.3465430315e-07 3.6674945065e-01 1.1789408764e-08 -1.3323861459e-07 7.9388662311e-08 1.3831491803e-01" charge=0 multiplicity=2 method=b3lyp basis=def2-svpd config_type=oh_q0_m2 sample_index=221 temperature=500.0 units=atomic
O         0.0000000002      -0.0000000029       0.0557394550   1.457541168295e-10  -2.100292877505e-09   4.030686124163e-02
H        -0.0000000032       0.0000000461      -0.8846256004  -1.457355266655e-10   2.100305894871e-09  -4.030722361161e-02
2
Properties=species:S:1:pos:R:3:forces:R:3 energy=-7.568185890002e+01 dipole="2.0498472336e-09 -2.9755802689e-08 -6.6988251197e-01" quadrupole="-4.1825533148e+00 4.0215768840e-02 -4.1999295437e-09 4.0215768840e-02 -5.2238970478e+00 8.1671889228e-08 -4.1999295437e-09 8.1671889228e-08 -3.3870847777e+00" polarizability="6.2215297112e+00 -5.6811000308e-02 -6.8326439834e-09 -5.6810482352e-02 7.6926763812e+00 7.0127201298e-08 1.9405839980e-07 6.2100167999e-08 9.2758156728e+00" dipole_derivatives="-3.4991542859e-01 -1.3891376821e-06 -6.2732819630e-10 1.3891410705e-06 -3.4991542864e-01 9.9694228095e-09 -1.2293069340e-07 4.6044359991e-07 -1.2592953666e-01 3.4991521457e-01 -2.3860798877e-07 6.8462775125e-10 2.3860806444e-07 3.4991521458e-01 -9.9494713042e-09 1.2292750151e-07 -4.6045156576e-07 1.2592002753e-01" charge=0 multiplicity=2 method=b3lyp basis=def2-svpd config_type=oh_q0_m2 sample_index=222 temperature=500.0 units=atomic
O        -0.0000000002       0.0000000027       0.0600489848   8.799645250098e-11  -1.276834144660e-09  -2.874579356155e-02
H         0.0000000029      -0.0000000423      -0.9530209644  -8.796108528850e-11   1.276858036920e-09   2.874549194535e-02
2
Properties=species:S:1:pos:R:3:forces:R:3 energy=-7.568272085512e+01 dipole="-7.4869921504e-10 1.0149807747e-08 -6.5850546473e-01" quadrupole="-4.4698688655e+00 4.8169031901e-01 8.5313479245e-09 4.8169031901e-01 -4.8609203225e+00 -2.2139155095e-08 8.5313479245e-09 -2.2139155095e-08 -3.4587135928e+00" polarizability="6.5810169114e+00 -6.6382458369e-01 -7.8372442781e-09 -6.6382464760e-01 7.1199370670e+00 -2.2470098323e-08 6.8887035002e-08 -9.3684609827e-07 8.6289965950e+00" dipole_derivatives="-3.6046052583e-01 -1.2498601796e-06 -3.0398918027e-12 1.2498537464e-06 -3.6046052584e-01 -3.7445750861e-09 2.3077234568e-08 -1.0763953617e-07 -1.3394083612e-01 3.6046008361e-01 -3.5356452310e-07 2.3007063349e-12 3.5356447843e-07 3.6046008363e-01 3.7350672808e-09 -2.3072987965e-08 1.0765005554e-07 1.3389373196e-01" charge=0 multiplicity=2 method=b3lyp basis=def2-svpd config_type=oh_q0_m2 sample_index=223 temperature=500.0 units=atomic
O         0.0000000001      -0.0000000009       0.0573022036   1.275087660793e-11  -1.725916389458e-10   1.119995578307e-02
H        -0.0000000010       0.0000000140      -0.9094275547  -1.275450391474e-11   1.726263958652e-10  -1.120040369808e-02
2
Properties=species:S:1:pos:R:3:forces:R:3 energy=-7.567854991608e+01 dipole="4.3820968121e-09 -6.3281222982e-08 -6.7942407521e-01" quadrupole="-4.2120013608e+00 1.8131755909e-02 -7.4497209608e-09 1.8131755909e-02 -5.2593764579e+00 1.8083213724e-07 -7.4497209608e-09 1.8083213724e-07 -3.3193984583e+00" polarizability="6.3014128049e+00 -2.6079035459e-02 -2.0754257339e-08 -2.6078767586e-02 7.8078644339e+00 1.9379850402e-07 6.9653361774e-07 1.9053781414e-07 9.8908965063e+00" dipole_derivatives="-3.4101085961e-01 1.1762606837e-07 -1.3979066476e-09 -1.1762723980e-07 -3.4101085968e-01 2.0703518198e-08 -5.4033749697e-08 -2.2575025183e-08 -1.1881982708e-01 3.4101100873e-01 2.6744227001e-10 1.4113340883e-09 -2.6601272488e-10 3.4101100878e-01 -2.0694250384e-08 5.4044421716e-08 2.2554735857e-08 1.1881580497e-01" charge=0 multiplicity=2 method=b3lyp basis=def2-svpd config_type=oh_q0_m2 sample_index=224 temperature=500.0 units=atomic
O        -0.0000000004       0.0000000058       0.0624947956   3.536921775497e-10  -5.107648459632e-09  -5.483856073525e-02
H         0.0000000064      -0.0000000924      -0.9918377581  -3.536799058260e-10   5.107681383000e-09   5.483903405291e-02
2
Properties=species:S:1:pos:R:3:forces:R:3 energy=-7.567896823912e+01 dipole="-3.8728538154e-09 5.6050754056e-08 -6.4542088986e-01" quadrupole="-5.1394209842e+00 -1.7846416303e-02 8.1383694934e-09 -1.7846416303e-02 -4.1063042748e+00 -4.9951243511e-08 8.1383694934e-09 -4.9951243511e-08 -3.5301417526e+00" polarizability="7.4275958473e+00 2.3798953595e-02 5.3743968671e-09 2.3799045389e-02 6.0498975655e+00 -1.6704021656e-07 1.9160592431e-07 -2.5643492143e-07 7.9807333636e+00" dipole_derivatives="-3.7262575035e-01 2.0020058880e-08 1.3633815416e-09 -1.9976595638e-08 -3.7262575015e-01 -2.0222169754e-08 -4.4215436867e-08 -3.2868022193e-07 -1.4190692288e-01 3.7262737786e-01 3.5058054058e-08 -1.3666763361e-09 -3.5064708770e-08 3.7262737769e-01 2.0197392752e-08 4.4205666905e-08 3.2867991662e-07 1.4218094809e-01" charge=0 multiplicity=2 method=b3lyp basis=def2-svpd config_type=oh_q0_m2 sample_index=225 temperature=500.0 units=atomic
O         0.0000000003      -0.0000000047       0.0543301440   4.285206554473e-10  -6.202062093332e-09   7.141619168782e-02
H        -0.0000000052       0.0000000749      -0.8622588119  -4.285320092123e-10   6.202016474007e-09  -7.141583864365e-02
2
Properties=species:S:1:pos:R:3:forces:R:3 energy=-7.567213312242e+01 dipole="-6.3529233089e-09 9.1396874894e-08 -6.3544977006e-01" quadrupole="-4.0844998177e+00 -8.9866639079e-02 -7.8302177704e-09 -8.9866639079e-02 -5.0975009935e+00 -2.1773618112e-07 -7.8302177704e-09 -2.1773618112e-07 -3.5774471625e+00" polarizability="6.0034404781e+00 1.1640201208e-01 3.1935908342e-08 1.1640135063e-01 7.3155892258e+00 -3.3929888401e-08 -8.5493034078e-08 -3.7153402117e-07 7.5431522116e+00" dipole_derivatives="-3.8203472076e-01 -4.7851387830e-08 -9.8239528539e-10 1.1358766801e-07 -3.8203472511e-01 -3.3469305281e-08 -7.7333500714e-08 -1.7722950885e-07 -1.4779398751e-01 3.8203668726e-01 1.2439371253e-07 9.4477567859e-10 -1.9018567268e-07 3.8203669156e-01 3.3456025306e-08 7.7269357579e-08 1.7724760548e-07 1.4775957018e-01" charge=0 multiplicity=2 method=b3lyp basis=def2-svpd config_type=oh_q0_m2 sample_index=226 temperature=500.0 units=atomic
O         0.0000000005      -0.0000000075       0.0521734754   1.297385198181e-09  -1.866522816267e-08   1.297725609500e-01
H        -0.0000000083       0.0000001191      -0.8280309155  -1.297422161666e-09   1.866519768297e-08  -1.297724162607e-01
2
Properties=species:S:1:pos:R:3:forces:R:3 energy=-7.567429167995e+01 dipole="-5.7379223890e-09 8.2123995598e-08 -6.3806364813e-01" quadrupole="-4.5750355378e+00 -5.1449557123e-01 -5.7173444132e-08 -5.1449557123e-01 -4.6235930436e+00 -1.3152831349e-07 -5.7173444132e-08 -1.3152831349e-07 -3.5656117474e+00" polarizability="6.6481806198e+00 6.7179773292e-01 9.4869079110e-08 6.7179785686e-01 6.7115777600e+00 -1.2673348847e-07 2.7722988119e-07 -4.4680747040e-07 7.6536587742e+00" dipole_derivatives="-3.7955023339e-01 -1.8982446573e-08 1.6748906714e-09 1.8969909789e-08 -3.7955023322e-01 -2.8862439915e-08 -2.8073829372e-07 1.3712647684e-07 -1.4653437427e-01 3.7955208737e-01 7.6399859938e-08 -1.6701512689e-09 -7.6413439647e-08 3.7955208718e-01 2.8880120432e-08 2.8074639835e-07 -1.3712911362e-07 1.4637310005e-01" charge=0 multiplicity=2 method=b3lyp basis=def2-svpd config_type=oh_q0_m2 sample_index=227 temperature=500.0 units=atomic
O         0.0000000005      -0.0000000068       0.0527309586   1.018826711927e-09  -1.458266916127e-08   1.133001665728e-01
H        -0.0000000075       0.0000001077      -0.8368785785  -1.018875128059e-09   1.458265036880e-08  -1.133001293946e-01
2
Properties=species:S:1:pos:R:3:forces:R:3 energy=-7.567624459077e+01 dipole="-4.9868505656e-09 7.2523156010e-08 -6.4076853140e-01" quadrupole="-5.1082874147e+00 -1.2508472987e-01 -2.0345790810e-09 -1.2508472987e-01 -4.1076056355e+00 -6.1845209284e-08 -2.0345790810e-09 -6.1845209284e-08 -3.5529456093e+00" polarizability="7.3594388717e+00 1.6459115958e-01 2.1707063413e-08 1.6459161939e-01 6.0426764198e+00 -1.9590715048e-07 2.1027001364e-07 -3.0536967228e-07 7.7710781837e+00" dipole_derivatives="-3.7699386147e-01 -1.5635216192e-08 1.8920346859e-09 1.5609951348e-08 -3.7699386171e-01 -2.6272797579e-08 2.5336227560e-07 -2.6106583562e-07 -1.4501442694e-01 3.7699563376e-01 9.2942337462e-08 -1.8659780290e-09 -9.2937257068e-08 3.7699563401e-01 2.6301867707e-08 -2.5336346909e-07 2.6105886897e-07 1.4487370901e-01" charge=0 multiplicity=2 method=b3lyp basis=def2-svpd config_type=oh_q0_m2 sample_index=228 temperature=500.0 units=atomic
O         0.0000000004      -0.0000000060       0.0533135696   7.562069155429e-10  -1.099641741496e-08   9.715706383784e-02
H        -0.0000000066       0.0000000958      -0.8461250386  -7.561392666358e-10   1.099641865380e-08  -9.715720568020e-02
2
Properties=species:S:1:pos:R:3:forces:R:3 energy=-7.567953871002e+01 dipole="-3.5805297062e-09 5.1952740185e-08 -6.4660532346e-01" quadrupole="-5.1435178216e+00 -1.7810328365e-02 7.5390459941e-09 -1.7810328365e-02 -4.1098340300e+00 -4.6944396961e-08 7.5390459941e-09 -4.6944396961e-08 -3.5241258161e+00" polarizability="7.4399005418e+00 2.3826854072e-02 5.2032463164e-09 2.3826947143e-02 6.0570237077e+00 -1.5838779707e-07 1.8876058791e-07 -2.5251482964e-07 8.0357386871e+00" dipole_derivatives="-3.7151862198e-01 2.7573820073e-08 1.2682738075e-09 -2.9576869369e-08 -3.7151852007e-01 -1.8264310385e-08 2.1459312105e-07 -3.2333247191e-08 -1.4177013022e-01 3.7152020704e-01 2.6043112697e-08 -1.2774632773e-09 -2.3947024622e-08 3.7152010508e-01 1.8295919518e-08 -2.1460863642e-07 3.2324976029e-08 1.4149724903e-01" charge=0 multiplicity=2 method=b3lyp basis=def2-svpd config_type=oh_q0_m2 sample_index=229 temperature=500.0 units=atomic
O         0.0000000003      -0.0000000044       0.0545920617   3.613269345413e-10  -5.242694057646e-09   6.525086606863e-02
H        -0.0000000048       0.0000000696      -0.8664156354  -3.613199171511e-10   5.242669258039e-09  -6.525053728990e-02
2
Properties=species:S:1:pos:R:3:forces:R:3 energy=-7.568155818870e+01 dipole="-2.2851044086e-09 3.2752576390e-08 -6.5206893648e-01" quadrupole="-5.1346249119e+00 1.6851696154e-01 1.4204012389e-08 1.6851696154e-01 -4.1540868864e+00 -3.3688421412e-08 1.4204012389e-08 -3.3688421412e-08 -3.4952370972e+00" polarizability="7.4595130946e+00 -2.2866285345e-01 -8.4634507057e-09 -2.2866342313e-01 6.1289987002e+00 -1.0772425163e-07 1.5407292918e-07 -3.5390622562e-07 8.2985897415e+00" dipole_derivatives="-3.6642919069e-01 -1.5163618977e-06 8.2170165956e-10 1.5163733136e-06 -3.6642919079e-01 -1.1437628673e-08 -1.9937948514e-07 3.5324851377e-07 -1.3810700829e-01 3.6642861530e-01 -4.3034567174e-07 -8.0127783083e-10 4.3034556357e-07 3.6642861541e-01 1.1437718738e-08 1.9936038931e-07 -3.5325012360e-07 1.3810515633e-01" charge=0 multiplicity=2 method=b3lyp basis=def2-svpd config_type=oh_q0_m2 sample_index=230 temperature=500.0 units=atomic
O         0.0000000002      -0.0000000028       0.0558178220   1.356566811999e-10  -1.944873160851e-09   3.871939210712e-02
H        -0.0000000031       0.0000000445      -0.8858693410  -1.356866823853e-10   1.944861124174e-09  -3.871985448998e-02
2
Properties=species:S:1:pos:R:3:forces:R:3 energy=-7.566656063573e+01 dipole="-7.6869350008e-09 1.1149716302e-07 -6.2985347402e-01" quadrupole="-4.5610566995e+00 5.1282464460e-01 1.0251820517e-07 5.1282464460e-01 -4.5854920659e+00 -1.8048141880e-07 1.0251820517e-07 -1.8048141880e-07 -3.6014830951e+00" polarizability="6.6016849908e+00 -6.5276133384e-01 5.0804415770e-07 -6.5276141143e-01 6.6327898282e+00 1.1036418294e-07 4.8884962425e-08 -3.1951975862e-07 7.3157769478e+00" dipole_derivatives="-3.8740838501e-01 -1.4105297482e-07 2.2081055273e-09 1.4099585275e-07 -3.8740838535e-01 -4.4829527162e-08 -4.7877313225e-08 -3.5968755752e-08 -1.5050641474e-01 3.8741044334e-01 3.2538832418e-07 -2.1767842107e-09 -3.2533509180e-07 3.8741044367e-01 4.4812970268e-08 4.7876230758e-08 3.5989322633e-08 1.5054139941e-01" charge=0 multiplicity=2 method=b3lyp basis=def2-svpd config_type=oh_q0_m2 sample_index=231 temperature=500.0 units=atomic
O         0.0000000006      -0.0000000090       0.0509966745   2.051943350686e-09  -2.976275767975e-08   1.681315791579e-01
H        -0.0000000099       0.0000001433      -0.8093542318  -2.051924485568e-09   2.976268778774e-08  -1.681310221132e-01
2
Properties=species:S:1:pos:R:3:forces:R:3 energy=-7.567955108306e+01 dipole="-3.5803933414e-09 5.1808418605e-08 -6.4663211999e-01" quadrupole="-5.0226511531e+00 3.3274854814e-01 3.4960730794e-08 3.3274854814e-01 -4.2308736689e+00 -5.8447419462e-08 3.4960730794e-08 -5.8447419462e-08 -3.5239884867e+00" polarizability="7.2782440490e+00 -4.4514547779e-01 -3.1208852600e-08 -4.4514589941e-01 6.2189991761e+00 -1.4254060973e-07 1.6021961902e-07 -4.2811378531e-07 8.0369920042e+00" dipole_derivatives="-3.7149344884e-01 2.7592160509e-08 1.2108959841e-09 -2.7582687201e-08 -3.7149344169e-01 -1.8688351913e-08 5.9860255641e-08 6.5217983791e-07 -1.4137006665e-01 3.7149503284e-01 2.6231200684e-08 -1.2117389484e-09 -2.6226002168e-08 3.7149502571e-01 1.8680037967e-08 -5.9884375236e-08 -6.5215358114e-07 1.4145693971e-01" charge=0 multiplicity=2 method=b3lyp basis=def2-svpd config_type=oh_q0_m2 sample_index=232 temperature=500.0 units=atomic
O         0.0000000003      -0.0000000044       0.0545980104   3.604814602139e-10  -5.216888786584e-09   6.511272714701e-02
H        -0.0000000048       0.0000000694      -0.8665100449  -3.605163272884e-10   5.216881864170e-09  -6.511262947019e-02
2
Properties=species:S:1:pos:R:3:forces:R:3 energy=-7.568284082767e+01 dipole="-6.7648178878e-11 8.1179316049e-10 -6.6117870824e-01" quadrupole="-4.1656733454e+00 1.1068120266e-01 2.1727077007e-10 1.1068120266e-01 -5.1827371620e+00 -2.1116244752e-09 2.1727077007e-10 -2.1116244752e-09 -3.4427179346e+00" polarizability="6.1695318003e+00 -1.5348850324e-01 7.7605753206e-11 -1.5348745312e-01 7.5799272830e+00 -1.4490705560e-09 -4.1089797191e-09 -9.6943502123e-08 8.7733889682e+00" dipole_derivatives="-3.5798507344e-01 -5.9110916143e-07 5.1618609465e-11 5.9110589024e-07 -3.5798507346e-01 -2.9174571497e-10 -5.4129561944e-08 2.1038235043e-07 -1.3201988711e-01 3.5798462119e-01 -2.5816798949e-07 -2.2880434064e-11 2.5816822874e-07 3.5798462121e-01 2.7742600624e-10 5.4142995642e-08 -2.1038668030e-07 1.3206225140e-01" charge=0 multiplicity=2 method=b3lyp basis=def2-svpd config_type=oh_q0_m2 sample_index=233 temperature=500.0 units=atomic
O         0.0000000000      -0.0000000001       0.0579327257   9.028608774444e-14  -1.042792528893e-12   8.649230203293e-04
H        -0.0000000001       0.0000000011      -0.9194343977  -8.888186423978e-14   1.061841142546e-12  -8.650996714075e-04
2
Properties=species:S:1:pos:R:3:forces:R:3 energy=-7.568271349523e+01 dipole="7.3781557729e-10 -1.0598350645e-08 -6.6443699099e-01" quadrupole="-5.0521667074e+00 -3.6981555152e-01 4.1329020679e-09 -3.6981555152e-01 -4.3178489142e+00 1.3916231419e-08 4.1329020679e-09 1.3916231419e-08 -3.4225404795e+00" polarizability="7.4176700172e+00 5.1651923070e-01 1.5214652048e-07 5.1651954501e-01 6.3920498437e+00 -3.4445202269e-07 -1.2346233709e-07 9.7504606555e-07 8.9554823165e+00" dipole_derivatives="-3.5496688581e-01 -1.4368240372e-06 -2.8939676725e-10 1.4367717705e-06 -3.5496688596e-01 3.5634433999e-09 -1.8404680557e-07 -5.1585402616e-08 -1.2975272412e-01 3.5496659734e-01 -3.0670082323e-07 2.7574747372e-10 3.0670055637e-07 3.5496659750e-01 -3.5804204542e-09 1.8404466839e-07 5.1582182969e-08 1.2980183782e-01" charge=0 multiplicity=2 method=b3lyp basis=def2-svpd config_type=oh_q0_m2 sample_index=234 temperature=500.0 units=atomic
O        -0.0000000001       0.0000000009       0.0587131982   1.211103758819e-11  -1.742246217768e-10  -1.092082411788e-02
H         0.0000000010      -0.0000000149      -0.9318210624  -1.213188202547e-11   1.742105978385e-10   1.092059367280e-02
2
Properties=species:S:1:pos:R:3:forces:R:3 energy=-7.568270361052e+01 dipole="8.0470126725e-10 -1.1064649877e-08 -6.6455231320e-01" quadrupole="-4.6092736939e+00 -5.1555712367e-01 7.1822869232e-09 -5.1555712367e-01 -4.7615075086e+00 2.1653744502e-08 7.1822869232e-09 2.1653744502e-08 -3.4218125088e+00" polarizability="6.7997259952e+00 7.2039613424e-01 -1.4680014377e-08 7.2039626864e-01 7.0124441510e+00 3.3385229383e-08 -1.3629927601e-07 1.3421069021e-06 8.9620550412e+00" dipole_derivatives="-3.5486016264e-01 -1.2679698996e-06 -3.1285811639e-10 1.2679503412e-06 -3.5486016259e-01 3.7575682789e-09 -2.4014495947e-07 5.1786769317e-08 -1.2969019120e-01 3.5485984093e-01 -2.9307325457e-07 2.8954850154e-10 2.9307351835e-07 3.5485984087e-01 -3.7614930908e-09 2.4014917832e-07 -5.1797038880e-08 1.2972559602e-01" charge=0 multiplicity=2 method=b3lyp basis=def2-svpd config_type=oh_q0_m2 sample_index=235 temperature=500.0 units=atomic
O        -0.0000000001       0.0000000010       0.0587410613   1.369416543760e-11  -1.884820181662e-10  -1.132193551142e-02
H         0.0000000011      -0.0000000155      -0.9322632701  -1.370005655850e-11   1.884866498778e-10   1.132177775178e-02
2
Properties=species:S:1:pos:R:3:forces:R:3 energy=-7.568194742022e+01 dipole="1.9857784862e-09 -2.8264699391e-08 -6.6948576492e-01" quadrupole="-5.1002518826e+00 3.3755361207e-01 -1.9296610734e-08 3.3755361207e-01 -4.3035289276e+00 3.9619150600e-08 -1.9296610734e-08 3.9619150600e-08 -3.3897430948e+00" polarizability="7.5156964559e+00 -4.7654946856e-01 1.5173747729e-08 -4.7654955028e-01 6.3909120353e+00 1.1987955247e-07 -3.9677853366e-07 1.0708892419e-07 9.2517701745e+00" dipole_derivatives="-3.5028401160e-01 -1.3305250425e-06 8.5338679287e-10 1.3305174059e-06 -3.5028401171e-01 1.2584867713e-08 4.0262126966e-08 1.9034696042e-07 -1.2620677413e-01 3.5028377841e-01 -2.4001266029e-07 -8.4461304941e-10 2.4001285711e-07 3.5028377856e-01 -1.2595365724e-08 -4.0288161696e-08 -1.9034765431e-07 1.2620641048e-01" charge=0 multiplicity=2 method=b3lyp basis=def2-svpd config_type=oh_q0_m2 sample_index=237 temperature=500.0 units=atomic
O        -0.0000000002       0.0000000025       0.0599502754   8.165864773375e-11  -1.161912339810e-09  -2.752276027866e-02
H         0.0000000028      -0.0000000402      -0.9514543752  -8.166126175222e-11   1.161903049302e-09   2.752260075727e-02
2
Properties=species:S:1:pos:R:3:forces:R:3 energy=-7.567976534599e+01 dipole="3.7018026962e-09 -5.3318661831e-08 -6.7658534143e-01" quadrupole="-5.2410388746e+00 9.3457202656e-02 -1.7812803913e-08 9.3457202656e-02 -4.2108704922e+00 6.9073660263e-08 -1.7812803913e-08 6.9073660263e-08 -3.3403075851e+00" polarizability="7.7616685838e+00 -1.3372260782e-01 -7.8108922392e-12 -1.3372345331e-01 6.2876515240e+00 2.6879642922e-07 -9.9804265534e-07 3.6257609834e-07 9.7002125593e+00" dipole_derivatives="-3.4367009969e-01 1.1442408533e-07 -1.2800079263e-09 -1.1440652034e-07 -3.4367009985e-01 1.7226327876e-08 -5.6272486670e-09 -3.3117827924e-07 -1.2095949859e-01 3.4367037053e-01 8.2017677960e-10 1.2798309933e-09 -8.1379853426e-10 3.4367037067e-01 -1.7216960424e-08 5.6273041782e-09 3.3118707776e-07 1.2096338023e-01" charge=0 multiplicity=2 method=b3lyp basis=def2-svpd config_type=oh_q0_m2 sample_index=238 temperature=500.0 units=atomic
O        -0.0000000003       0.0000000049       0.0617521341   2.611431885482e-10  -3.760373861671e-09  -4.771790054996e-02
H         0.0000000054      -0.0000000772      -0.9800511810  -2.610911130167e-10   3.760389129840e-09   4.771780856955e-02
2
Properties=species:S:1:pos:R:3:forces:R:3 energy=-7.567853978356e+01 dipole="-4.0926085177e-09 5.9060547964e-08 -6.4459180829e-01" quadrupole="-4.1038871936e+00 1.9222685209e-02 5.4309986638e-09 1.9222685209e-02 -5.1365073803e+00 -1.4687651933e-07 5.4309986638e-09 -1.4687651933e-07 -3.5343015291e+00" polarizability="6.0450322114e+00 -2.5576356028e-02 9.6637423589e-09 -2.5576116963e-02 7.4189425927e+00 -4.7862693704e-08 -1.0695518175e-07 -5.7525593057e-07 7.9426327416e+00" dipole_derivatives="-3.7340196063e-01 1.8826348886e-08 1.9595283225e-09 -1.8376155076e-08 -3.7340195985e-01 -2.1130353560e-08 -1.0625389457e-07 -4.7384202118e-07 -1.4268757678e-01 3.7340361678e-01 3.8246468772e-08 -1.9419307865e-09 -3.8690145070e-08 3.7340361601e-01 2.1131763049e-08 1.0626566294e-07 4.7379530854e-07 1.4268238168e-01" charge=0 multiplicity=2 method=b3lyp basis=def2-svpd config_type=oh_q0_m2 sample_index=239 temperature=500.0 units=atomic
O         0.0000000003      -0.0000000050       0.0541475763   4.814464009787e-10  -6.947310649903e-09   7.582341421306e-02
H        -0.0000000055       0.0000000787      -0.8593613294  -4.814043326030e-10   6.947266114822e-09  -7.582304764545e-02
2
Properties=species:S:1:pos:R:3:forces:R:3 energy=-7.568281102325e+01 dipole="3.3675146814e-10 -5.1859801504e-09 -6.6288443161e-01" quadrupole="-4.1614956211e+00 -5.0380190909e-02 -1.3444520323e-11 -5.0380190909e-02 -5.1982077131e+00 1.3735537979e-08 -1.3444520323e-11 1.3735537979e-08 -3.4322493576e+00" polarizability="6.1688598816e+00 7.0129245597e-02 -1.9335663144e-09 7.0128636971e-02 7.6120312240e+00 9.8546071210e-09 2.1103381363e-08 6.2016508481e-07 8.8678601023e+00" dipole_derivatives="-3.5640491122e-01 -1.6787838156e-06 -8.5600939161e-11 1.6787598357e-06 -3.5640491118e-01 1.7689369588e-09 -2.6408930598e-07 3.6287639560e-10 -1.3090022661e-01 3.5640466295e-01 -3.3916502601e-07 1.0927562343e-10 3.3916523224e-07 3.5640466296e-01 -1.7639621223e-09 2.6408922271e-07 -3.5679792454e-10 1.3089397292e-01" charge=0 multiplicity=2 method=b3lyp basis=def2-svpd config_type=oh_q0_m2 sample_index=240 temperature=500.0 units=atomic
O        -0.0000000000       0.0000000005       0.0583396320   2.747143075790e-12  -4.239665147384e-11  -5.413916651180e-03
H         0.0000000005      -0.0000000072      -0.9258922952  -2.749931969042e-12   4.235171010121e-11   5.413461500250e-03
2
Properties=species:S:1:pos:R:3:forces:R:3 energy=-7.568282554845e+01 dipole="-2.7120869243e-10 3.7279059899e-09 -6.6034647731e-01" quadrupole="-5.1901623068e+00 4.0190562401e-02 9.7206100068e-10 4.0190562401e-02 -4.1527530336e+00 -4.0297743586e-09 9.7206100068e-10 -4.0297743586e-09 -3.4477506844e+00" polarizability="7.5851270455e+00 -5.5626580151e-02 1.5187772005e-10 -5.5627048775e-02 6.1491998078e+00 -1.4614423089e-08 3.0003145392e-08 2.1035682813e-07 8.7279676740e+00" dipole_derivatives="-3.5875545542e-01 -1.3059659830e-06 8.3940534825e-11 1.3059904761e-06 -3.5875545548e-01 -1.3056186368e-09 -1.5179474344e-07 -3.0121627415e-08 -1.3268653247e-01 3.5875506394e-01 -3.4078817069e-07 -9.1806428361e-11 3.4078804292e-07 3.5875506399e-01 1.2986999429e-09 1.5177670232e-07 3.0099256421e-08 1.3264554369e-01" charge=0 multiplicity=2 method=b3lyp basis=def2-svpd config_type=oh_q0_m2 sample_index=241 temperature=500.0 units=atomic
O         0.0000000000      -0.0000000003       0.0577355202   1.682231577012e-12  -2.270521373567e-11   4.016390049695e-03
H        -0.0000000004       0.0000000052      -0.9163046023  -1.648740347545e-12   2.268045692413e-11  -4.016683060409e-03
2
Properties=species:S:1:pos:R:3:forces:R:3 energy=-7.568279754934e+01 dipole="-4.0750117126e-10 6.1124608619e-09 -6.5965128110e-01" quadrupole="-4.1523227360e+00 5.8203515825e-02 1.0163323084e-09 5.8203515825e-02 -5.1860078359e+00 -1.6146104334e-08 1.0163323084e-09 -1.6146104334e-08 -3.4519181772e+00" polarizability="6.1466181404e+00 -8.0434499794e-02 8.2547143198e-10 -8.0433843190e-02 7.5751202676e+00 -1.0289894709e-08 -2.2849071363e-08 -6.0375358691e-07 8.6903505325e+00" dipole_derivatives="-3.5939910630e-01 -1.6394558839e-06 1.4473237190e-10 1.6394597730e-06 -3.5939910639e-01 -2.0927606922e-09 -4.3452430543e-07 4.8178211420e-08 -1.3286631391e-01 3.5939877726e-01 -3.7289206040e-07 -1.4667566877e-10 3.7289194177e-07 3.5939877734e-01 2.0887633472e-09 4.3452902387e-07 -4.8174825240e-08 1.3312145036e-01" charge=0 multiplicity=2 method=b3lyp basis=def2-svpd config_type=oh_q0_m2 sample_index=242 temperature=500.0 units=atomic
O         0.0000000000      -0.0000000005       0.0575714121   4.133810770818e-12  -6.205383156530e-11   6.694522093461e-03
H        -0.0000000006       0.0000000085      -0.9137000884  -4.136753757715e-12   6.203703005054e-11  -6.694978777738e-03
2
Properties=species:S:1:pos:R:3:forces:R:3 energy=-7.567729949426e+01 dipole="-4.6114862639e-09 6.6690884428e-08 -6.4241692947e-01" quadrupole="-4.1253765624e+00 -1.6855559305e-01 -1.3349878875e-08 -1.6855559305e-01 -5.1010632243e+00 -1.6029304593e-07 -1.3349878875e-08 -1.6029304593e-07 -3.5450147365e+00" polarizability="6.0692533042e+00 2.2291042575e-01 3.5652378439e-08 2.2290952847e-01 7.3595837253e+00 -5.1918780297e-08 -7.8684326578e-08 -5.4378238841e-07 7.8442181830e+00" dipole_derivatives="-3.7544238361e-01 -3.6797377131e-09 1.9570208802e-09 3.6681094123e-09 -3.7544238339e-01 -2.4079429652e-08 5.6784354996e-08 1.2458728493e-08 -1.4384283152e-01 3.7544410950e-01 7.1418475515e-08 -1.9186069810e-09 -7.1418654148e-08 3.7544410930e-01 2.4070630962e-08 -5.6803617365e-08 -1.2484430156e-08 1.4395093767e-01" charge=0 multiplicity=2 method=b3lyp basis=def2-svpd config_type=oh_q0_m2 sample_index=243 temperature=500.0 units=atomic
O         0.0000000004      -0.0000000056       0.0536715888   6.298507808225e-10  -9.109676677169e-09   8.775133184516e-02
H        -0.0000000061       0.0000000884      -0.8518070631  -6.298688141405e-10   9.109714548783e-09  -8.775171347861e-02
2
Properties=species:S:1:pos:R:3:forces:R:3 energy=-7.566977181149e+01 dipole="-6.9745014394e-09 1.0047781794e-07 -6.3291251944e-01" quadrupole="-4.9040249925e+00 4.0107962687e-01 7.8132274805e-08 4.0107962687e-01 -4.2618786362e+00 -1.1130883337e-07 7.8132274805e-08 -1.1130883337e-07 -3.5885625694e+00" polarizability="7.0528182170e+00 -5.1548148483e-01 -7.7001289889e-08 -5.1548170128e-01 6.2275170910e+00 -1.8543188195e-07 9.5878378143e-08 -3.5158140664e-07 7.4385484801e+00" dipole_derivatives="-3.8446105855e-01 -1.7182510134e-07 2.5466678071e-09 1.6781027028e-07 -3.8446102417e-01 -3.7435005085e-08 1.0273948081e-06 3.1203284401e-07 -1.4921015005e-01 3.8446309475e-01 4.2741928310e-07 -2.5613995328e-09 -4.2320488790e-07 3.8446306039e-01 3.7467780599e-08 -1.0276842433e-06 -3.1206606743e-07 1.4906388819e-01" charge=0 multiplicity=2 method=b3lyp basis=def2-svpd config_type=oh_q0_m2 sample_index=244 temperature=500.0 units=atomic
O         0.0000000006      -0.0000000082       0.0516372086   1.615783380591e-09  -2.327732110508e-08   1.466246577766e-01
H        -0.0000000090       0.0000001301      -0.8195199725  -1.615772521222e-09   2.327723285449e-08  -1.466242123431e-01
2
Properties=species:S:1:pos:R:3:forces:R:3 energy=-7.568283861705e+01 dipole="-1.3537276390e-10 1.5568355170e-09 -6.6095033960e-01" quadrupole="-4.1540564261e+00 -3.2149763633e-02 8.4494938370e-11 -3.2149763633e-02 -5.1928457706e+00 -4.1578980152e-09 8.4494938370e-11 -4.1578980152e-09 -3.4441036068e+00" polarizability="6.1527548510e+00 4.4556582433e-02 -8.7815851649e-08 4.4556199299e-02 7.5925496062e+00 -9.2497019526e-09 -7.7886327905e-09 -1.7862349461e-07 8.7608837292e+00" dipole_derivatives="-3.5819657044e-01 -3.1826384168e-07 5.5596402380e-11 3.1826312739e-07 -3.5819657049e-01 -5.1456329900e-10 2.2050927750e-07 4.9900916732e-08 -1.3223499563e-01 3.5819610633e-01 -2.2526471911e-07 -4.6400949495e-11 2.2526473117e-07 3.5819610639e-01 5.3225212621e-10 -2.2051610538e-07 -4.9909076871e-08 1.3222895803e-01" charge=0 multiplicity=2 method=b3lyp basis=def2-svpd config_type=oh_q0_m2 sample_index=245 temperature=500.0 units=atomic
O         0.0000000000      -0.0000000001       0.0578785335   3.437862892497e-13  -4.006760028737e-12   1.723465331303e-03
H        -0.0000000002       0.0000000022      -0.9185743279  -3.521222860726e-13   4.060614952735e-12  -1.723957285649e-03
2
Properties=species:S:1:pos:R:3:forces:R:3 energy=-7.568270313397e+01 dipole="-7.5074315626e-10 1.0835271670e-08 -6.5830087085e-01" quadrupole="-4.6263303696e+00 5.1839717026e-01 9.8183070050e-09 5.1839717026e-01 -4.7031141157e+00 -2.1107427946e-08 9.8183070050e-09 -2.1107427946e-08 -3.4599173021e+00" polarizability="6.7957646632e+00 -7.1407237352e-01 -9.6042811649e-09 -7.1407245941e-01 6.9015259640e+00 -2.7384596632e-08 6.8247300705e-08 -9.4249332881e-07 8.6181261844e+00" dipole_derivatives="-3.6064987296e-01 -1.5225178070e-06 1.1238411863e-10 1.5225376802e-06 -3.6064987298e-01 -4.0063840097e-09 -2.3915486258e-07 -1.4202530818e-07 -1.3415578613e-01 3.6064948025e-01 -3.7848378484e-07 -9.8700233681e-11 3.7848432199e-07 3.6064948027e-01 4.0405341152e-09 2.3915158742e-07 1.4203688226e-07 1.3402609383e-01" charge=0 multiplicity=2 method=b3lyp basis=def2-svpd config_type=oh_q0_m2 sample_index=246 temperature=500.0 units=atomic
O         0.0000000001      -0.0000000009       0.0572543067   1.370200927655e-11  -1.978363243230e-10   1.201648348670e-02
H        -0.0000000010       0.0000000150      -0.9086673955  -1.367448790894e-11   1.978461440502e-10  -1.201681869833e-02
2
Properties=species:S:1:pos:R:3:forces:R:3 energy=-7.568277156776e+01 dipole="-4.7515412006e-10 7.7518061951e-09 -6.5919476158e-01" quadrupole="-4.2357286685e+00 2.8955987347e-01 4.0199809376e-09 2.8955987347e-01 -5.0995940790e+00 -1.9522329443e-08 4.0199809376e-09 -1.9522329443e-08 -3.4546367058e+00" polarizability="6.2604760597e+00 -3.9976138386e-01 -3.0005911062e-09 -3.9976139705e-01 7.4531115020e+00 -1.3974619503e-08 4.3119038260e-08 -7.8285671625e-07 8.6658064405e+00" dipole_derivatives="-3.5982179050e-01 -1.8698144108e-06 2.2286265843e-10 1.8698461063e-06 -3.5982179059e-01 -2.5785242445e-09 -1.2367665225e-07 -6.3907601433e-08 -1.3343385315e-01 3.5982153398e-01 -3.8932153820e-07 -2.3345012657e-10 3.8932156803e-07 3.5982153411e-01 2.5986003268e-09 1.2368406299e-07 6.3898386582e-08 1.3342197672e-01" charge=0 multiplicity=2 method=b3lyp basis=def2-svpd config_type=oh_q0_m2 sample_index=247 temperature=500.0 units=atomic
O         0.0000000000      -0.0000000007       0.0574639505   6.149520135890e-12  -9.965965792121e-11   8.476065387095e-03
H        -0.0000000007       0.0000000107      -0.9119945954  -6.116678351045e-12   9.967775802594e-11  -8.476582766742e-03
2
Properties=species:S:1:pos:R:3:forces:R:3 energy=-7.568153745051e+01 dipole="2.3723366124e-09 -3.4330595021e-08 -6.7119424753e-01" quadrupole="-4.2526419598e+00 -2.5681837238e-01 1.0028825162e-08 -2.5681837238e-01 -5.1626504988e+00 9.0348697540e-08 1.0028825162e-08 9.0348697540e-08 -3.3782091101e+00" polarizability="6.3255449119e+00 3.6374586932e-01 5.0986616565e-07 3.6374590829e-01 7.6144437179e+00 -3.0918220020e-08 -4.8175071995e-07 7.2884916895e-08 9.3561498486e+00" dipole_derivatives="-3.4869614440e-01 -1.3559995560e-06 -8.7207154116e-10 1.3560006939e-06 -3.4869614424e-01 1.1465245208e-08 -2.5431498574e-07 2.4024915390e-07 -1.2497506261e-01 3.4869593734e-01 -2.2067631620e-07 8.7321155186e-10 2.2067660692e-07 3.4869593713e-01 -1.1467825026e-08 2.5431048933e-07 -2.4023991130e-07 1.2496853655e-01" charge=0 multiplicity=2 method=b3lyp basis=def2-svpd config_type=oh_q0_m2 sample_index=248 temperature=500.0 units=atomic
O        -0.0000000002       0.0000000031       0.0603769708   1.155990990185e-10  -1.672910931092e-09  -3.270727801875e-02
H         0.0000000034      -0.0000000490      -0.9582263407  -1.155817860889e-10   1.672917394947e-09   3.270712276725e-02
2
Properties=species:S:1:pos:R:3:forces:R:3 energy=-7.568073365642e+01 dipole="-2.8575212187e-09 4.1677770064e-08 -6.4950567021e-01" quadrupole="-4.9330931425e+00 -4.2415911742e-01 -2.0899606454e-08 -4.2415911742e-01 -4.3389933452e+00 -5.1446299643e-08 -2.0899606454e-08 -5.1446299643e-08 -3.5090255753e+00" polarizability="7.1727679584e+00 5.7167704669e-01 1.2912601688e-08 5.7167738628e-01 6.3720501555e+00 -5.7089051047e-08 2.2201074633e-07 -5.7694428627e-07 8.1733640215e+00" dipole_derivatives="-3.6881385990e-01 4.0919880231e-08 1.0738150716e-09 -4.1954279973e-08 -3.6881385981e-01 -1.4452098134e-08 2.5598928532e-07 -2.1665932937e-07 -1.3994737447e-01 3.6881533396e-01 1.5832732781e-08 -1.0439287051e-09 -1.4915625551e-08 3.6881533383e-01 1.4477794313e-08 -2.5573007600e-07 2.1720550358e-07 1.3971584613e-01" charge=0 multiplicity=2 method=b3lyp basis=def2-svpd config_type=oh_q0_m2 sample_index=249 temperature=500.0 units=atomic
O         0.0000000002      -0.0000000035       0.0552390763   2.234660911550e-10  -3.258796956682e-09   5.078495477581e-02
H        -0.0000000039       0.0000000563      -0.8766842270  -2.234457678074e-10   3.258794548846e-09  -5.078496228273e-02
2
Properties=species:S:1:pos:R:3:forces:R:3 energy=-7.567897987954e+01 dipole="-3.8726208637e-09 5.5977076421e-08 -6.4544404604e-01" quadrupole="-4.1215624423e+00 1.2562056317e-01 1.4475549944e-08 1.2562056317e-01 -5.1243137599e+00 -1.3903576868e-07 1.4475549944e-08 -1.3903576868e-07 -3.5300246122e+00" polarizability="6.0702789866e+00 -1.6747799124e-01 -3.0091157174e-09 -1.6747709059e-01 7.4071757510e+00 -4.8864683191e-08 -1.1497674635e-07 -6.1916756438e-07 7.9818005958e+00" dipole_derivatives="-3.7260404826e-01 2.0200178259e-08 1.3636637738e-09 -2.0199785313e-08 -3.7260404821e-01 -1.9953107981e-08 1.5028356337e-07 -1.8463852669e-07 -1.4246862169e-01 3.7260567495e-01 3.4861260146e-08 -1.3843439221e-09 -3.4860078931e-08 3.7260567493e-01 1.9981222077e-08 -1.5028420175e-07 1.8462073537e-07 1.4219098173e-01" charge=0 multiplicity=2 method=b3lyp basis=def2-svpd config_type=oh_q0_m2 sample_index=250 temperature=500.0 units=atomic
O         0.0000000003      -0.0000000047       0.0543352610   4.277524043339e-10  -6.183089057199e-09   7.129397898240e-02
H        -0.0000000052       0.0000000748      -0.8623400217  -4.277569271807e-10   6.183043125634e-09  -7.129362634579e-02
2
Properties=species:S:1:pos:R:3:forces:R:3 energy=-7.568273040425e+01 dipole="7.3826643074e-10 -9.9330169311e-09 -6.6422919948e-01" quadrupole="-4.1648481424e+00 4.0944964145e-02 -1.3922107726e-09 4.0944964145e-02 -5.2037847031e+00 2.6634491538e-08 -1.3922107726e-09 2.6634491538e-08 -3.4238499675e+00" polarizability="6.1776999999e+00 -5.7159989035e-02 -2.2256446713e-09 -5.7159453869e-02 7.6281923896e+00 1.9597675457e-08 5.1883595850e-08 1.0454102997e-06 8.9436636657e+00" dipole_derivatives="-3.5515953042e-01 -1.1786784578e-06 -2.6163799446e-10 1.1786893374e-06 -3.5515953038e-01 3.3710463021e-09 -4.1049219579e-08 -1.7410373143e-07 -1.2994705745e-01 3.5515918808e-01 -2.8934428651e-07 2.5039483638e-10 2.8934414731e-07 3.5515918807e-01 -3.3673979487e-09 4.1054132316e-08 1.7410101139e-07 1.2995377634e-01" charge=0 multiplicity=2 method=b3lyp basis=def2-svpd config_type=oh_q0_m2 sample_index=251 temperature=500.0 units=atomic
O        -0.0000000001       0.0000000009       0.0586630201   1.134399978655e-11  -1.524832895478e-10  -1.019520912178e-02
H         0.0000000010      -0.0000000139      -0.9310246998  -1.133142043925e-11   1.524554238173e-10   1.019479381448e-02
2
Properties=species:S:1:pos:R:3:forces:R:3 energy=-7.567840993618e+01 dipole="-4.0951088421e-09 5.9873115482e-08 -6.4434941584e-01" quadrupole="-4.1031109594e+00 1.7657015017e-02 5.3013900400e-09 1.7657015017e-02 -5.1357263090e+00 -1.4883697840e-07 5.3013900400e-09 -1.4883697840e-07 -3.5355097642e+00" polarizability="6.0435252164e+00 -2.3477340363e-02 9.7755107601e-09 -2.3477114358e-02 7.4165217896e+00 -4.7750263230e-08 -1.0563331238e-07 -5.6817850780e-07 7.9315552771e+00" dipole_derivatives="-3.7362895469e-01 1.1632111798e-08 1.4456883279e-09 -1.1587105818e-08 -3.7362895497e-01 -2.1444682361e-08 7.3546779777e-08 -2.0867838013e-07 -1.4282963156e-01 3.7363061903e-01 4.5613061035e-08 -1.4646494391e-09 -4.5640469391e-08 3.7363061930e-01 2.1446790200e-08 -7.3528433342e-08 2.0866827710e-07 1.4282442997e-01" charge=0 multiplicity=2 method=b3lyp basis=def2-svpd config_type=oh_q0_m2 sample_index=252 temperature=500.0 units=atomic
O         0.0000000003      -0.0000000050       0.0540943181   4.901616332619e-10  -7.166618193204e-09   7.712636878554e-02
H        -0.0000000055       0.0000000798      -0.8585160840  -4.901570776613e-10   7.166567984234e-09  -7.712599847293e-02
2
Properties=species:S:1:pos:R:3:forces:R:3 energy=-7.568232833602e+01 dipole="-1.4416531011e-09 2.0800987684e-08 -6.5545965390e-01" quadrupole="-4.1434719789e+00 8.6473583132e-02 4.2418710799e-09 8.6473583132e-02 -5.1673458716e+00 -5.3849227288e-08 4.2418710799e-09 -5.3849227288e-08 -3.4763410410e+00" polarizability="6.1230859599e+00 -1.1832031156e-01 1.4121328287e-09 -1.1831944714e-01 7.5240339998e+00 -2.9768153288e-08 -6.6342953170e-08 -9.7558159304e-07 8.4697102315e+00" dipole_derivatives="-3.6328261092e-01 -1.5330519693e-06 4.8627663490e-10 1.5330576519e-06 -3.6328261113e-01 -7.2305229439e-09 1.7931456320e-07 2.0884924345e-07 -1.3589977726e-01 3.6328214297e-01 -4.0531581326e-07 -4.9987535252e-10 4.0531585168e-07 3.6328214316e-01 7.2156979793e-09 -1.7930695817e-07 -2.0884718954e-07 1.3591140885e-01" charge=0 multiplicity=2 method=b3lyp basis=def2-svpd config_type=oh_q0_m2 sample_index=253 temperature=500.0 units=atomic
O         0.0000000001      -0.0000000018       0.0565940584   5.223867516803e-11  -7.534500934069e-10   2.374313256869e-02
H        -0.0000000020       0.0000000285      -0.8981887759  -5.222339523580e-11   7.535053367058e-10  -2.374367341920e-02
2
Properties=species:S:1:pos:R:3:forces:R:3 energy=-7.568189078093e+01 dipole="2.0506806732e-09 -2.9171693457e-08 -6.6974174861e-01" quadrupole="-4.8193431549e+00 -5.0901205543e-01 1.7808361772e-08 -5.0901205543e-01 -4.5861589662e+00 5.0646273571e-08 1.7808361772e-08 5.0646273571e-08 -3.3880294336e+00" polarizability="7.1205068155e+00 7.1899520995e-01 -3.8076074065e-08 7.1899529027e-01 6.7911299042e+00 1.1026877351e-07 -4.7046814121e-07 9.0047172865e-08 9.2672677022e+00" dipole_derivatives="-3.5004625692e-01 -1.3244495868e-06 -6.7738706055e-10 1.3244508475e-06 -3.5004625708e-01 9.7609817331e-09 6.0063704010e-08 1.0872031053e-07 -1.2601266537e-01 3.5004602568e-01 -2.3655473499e-07 6.8385705955e-10 2.3655446928e-07 3.5004602584e-01 -9.7462510978e-09 -6.0051463802e-08 -1.0873704714e-07 1.2602218106e-01" charge=0 multiplicity=2 method=b3lyp basis=def2-svpd config_type=oh_q0_m2 sample_index=254 temperature=500.0 units=atomic
O        -0.0000000002       0.0000000026       0.0600139324   8.672797296336e-11  -1.233175851546e-09  -2.831329040416e-02
H         0.0000000029      -0.0000000415      -0.9524646582  -8.668146242481e-11   1.233172650548e-09   2.831290161021e-02
2
Properties=species:S:1:pos:R:3:forces:R:3 energy=-7.568229582630e+01 dipole="1.5296712325e-09 -2.2080430149e-08 -6.6769796300e-01" quadrupole="-5.2123585373e+00 -7.4327515779e-02 -1.7363007626e-09 -7.4327515779e-02 -4.1794240221e+00 2.5512301961e-08 -1.7363007626e-09 2.5512301961e-08 -3.4015744867e+00" polarizability="7.6623357457e+00 1.0454275906e-01 -6.8704740618e-09 1.0454329774e-01 6.2094946005e+00 9.7546123180e-08 -2.6401389680e-07 2.8957020303e-07 9.1448120781e+00" dipole_derivatives="-3.5194361051e-01 -1.4071127777e-06 -4.7758412374e-10 1.4070953377e-06 -3.5194361045e-01 7.3097393682e-09 2.1391238780e-07 -1.9820978192e-08 -1.2744696555e-01 3.5194336942e-01 -2.6627791082e-07 4.9598548512e-10 2.6627803927e-07 3.5194336937e-01 -7.3094335657e-09 -2.1390980653e-07 1.9815843411e-08 1.2748102210e-01" charge=0 multiplicity=2 method=b3lyp basis=def2-svpd config_type=oh_q0_m2 sample_index=255 temperature=500.0 units=atomic
O        -0.0000000001       0.0000000020       0.0595082165   5.010062061839e-11  -7.230874528761e-10  -2.186690663380e-02
H         0.0000000022      -0.0000000312      -0.9444385792  -5.009556216471e-11   7.231159908118e-10   2.186656839584e-02
2
Properties=species:S:1:pos:R:3:forces:R:3 energy=-7.568195632837e+01 dipole="1.9860288810e-09 -2.8135360059e-08 -6.6944490441e-01" quadrupole="-4.2054599831e+00 1.6223215373e-01 -9.2093791441e-09 1.6223215373e-01 -5.1980466704e+00 7.6493220397e-08 -9.2093791441e-09 7.6493220397e-08 -3.3900161598e+00" polarizability="6.2523095530e+00 -2.2900387653e-01 7.6392763307e-10 -2.2900389193e-01 7.6533952294e+00 6.6379609912e-08 -3.1262630247e-07 5.0769498717e-08 9.2492985232e+00" dipole_derivatives="-3.5032196648e-01 -1.3148633149e-06 -6.8255132477e-10 1.3148374660e-06 -3.5032196646e-01 9.4038495561e-09 -1.9474047375e-07 4.2505904352e-07 -1.2624447691e-01 3.5032172928e-01 -2.3954028953e-07 6.6478476734e-10 2.3954055502e-07 3.5032172929e-01 -9.4178406650e-09 1.9473800350e-07 -4.2506759224e-07 1.2623403012e-01" charge=0 multiplicity=2 method=b3lyp basis=def2-svpd config_type=oh_q0_m2 sample_index=256 temperature=500.0 units=atomic
O        -0.0000000002       0.0000000025       0.0599401235   8.132991883256e-11  -1.151387906242e-09  -2.739643597042e-02
H         0.0000000028      -0.0000000400      -0.9512932566  -8.127502871231e-11   1.151397154486e-09   2.739601789226e-02
2
Properties=species:S:1:pos:R:3:forces:R:3 energy=-7.568276649810e+01 dipole="5.3762889515e-10 -8.1316043151e-09 -6.6372459372e-01" quadrupole="-4.1746306036e+00 1.1550415664e-01 -2.0801487131e-09 1.1550415664e-01 -5.1906485893e+00 2.1722242838e-08 -2.0801487131e-09 2.1722242838e-08 -3.4270170270e+00" polarizability="6.1897649763e+00 -1.6108695931e-01 -2.2173107492e-10 -1.6108581518e-01 7.6066909598e+00 1.5887138054e-08 3.7556542467e-08 9.4429679808e-07 8.9150798556e+00" dipole_derivatives="-3.5562675814e-01 -1.6149057984e-06 -2.1525508853e-10 1.6149282578e-06 -3.5562675811e-01 2.7508797309e-09 -1.1810269429e-07 1.3494169671e-07 -1.3022726746e-01 3.5562650529e-01 -3.2593100521e-07 1.8458623643e-10 3.2593122106e-07 3.5562650525e-01 -2.7597861611e-09 1.1810910583e-07 -1.3495302098e-07 1.3031106068e-01" charge=0 multiplicity=2 method=b3lyp basis=def2-svpd config_type=oh_q0_m2 sample_index=257 temperature=500.0 units=atomic
O        -0.0000000000       0.0000000007       0.0585413985   6.836963307904e-12  -1.031488866294e-10  -8.418243671199e-03
H         0.0000000008      -0.0000000114      -0.9290944760  -6.818129415122e-12   1.031299738068e-10   8.417802198480e-03
2
Properties=species:S:1:pos:R:3:forces:R:3 energy=-7.564365852985e+01 dipole="-1.1642412002e-08 1.6778774284e-07 -6.1450444703e-01" quadrupole="-4.0162936732e+00 -7.0214913412e-03 4.8663900273e-09 -7.0214913412e-03 -5.0338031871e+00 -3.7530648752e-07 4.8663900273e-09 -3.7530648752e-07 -3.6586688727e+00" polarizability="5.8936376439e+00 8.4747161019e-03 1.8388529259e-08 8.4746477861e-03 7.1211650312e+00 1.0134918071e-07 -6.9140297511e-08 -3.7548857788e-08 6.7491960418e+00" dipole_derivatives="-4.0267599916e-01 -3.0636300503e-11 4.6326025523e-09 -8.0735675669e-12 -4.0267599912e-01 -6.7107736335e-08 -3.8467987129e-07 -1.0981954235e-07 -1.5687032828e-01 4.0267542774e-01 -3.3778856682e-13 -4.6550027465e-09 -2.2784678061e-13 4.0267542764e-01 6.7117275145e-08 3.8469635810e-07 1.0982048604e-07 1.5687064769e-01" charge=0 multiplicity=2 method=b3lyp basis=def2-svpd config_type=oh_q0_m2 sample_index=258 temperature=500.0 units=atomic
O         0.0000000009      -0.0000000131       0.0478673781   5.657600780210e-09  -8.153492124473e-08   2.986128350555e-01
H        -0.0000000144       0.0000002074      -0.7596900270  -5.657498909799e-09   8.153453834112e-08  -2.986114277771e-01
2
Properties=species:S:1:pos:R:3:forces:R:3 energy=-7.568192186539e+01 dipole="-1.9391164237e-09 2.7807223785e-08 -6.5347832418e-01" quadrupole="-4.1583862282e+00 -1.6866909013e-01 -5.2361466580e-09 -1.6866909013e-01 -5.1394981182e+00 -6.9782159056e-08 -5.2361466580e-09 -6.9782159056e-08 -3.4874746223e+00" polarizability="6.1383661364e+00 2.2968200869e-01 1.6270058026e-08 2.2968196660e-01 7.4743771701e+00 -3.8750232348e-08 1.3907820560e-07 -9.6919788057e-07 8.3689435812e+00" dipole_derivatives="-3.6512052741e-01 -1.5305955986e-06 1.0847945760e-09 1.5305894326e-06 -3.6512052730e-01 -9.9546146001e-09 1.8083706754e-07 1.0016287799e-07 -1.3720003494e-01 3.6511999900e-01 -4.2120203308e-07 -1.0793797725e-09 4.2120155480e-07 3.6511999892e-01 9.9760683442e-09 -1.8084095332e-07 -1.0015652196e-07 1.3719978745e-01" charge=0 multiplicity=2 method=b3lyp basis=def2-svpd config_type=oh_q0_m2 sample_index=259 temperature=500.0 units=atomic
O         0.0000000002      -0.0000000024       0.0561389601   9.557299453113e-11  -1.376967393375e-09   3.236151505469e-02
H        -0.0000000026       0.0000000379      -0.8909660364  -9.560117370350e-11   1.376984243179e-09  -3.236183018292e-02
2
Properties=species:S:1:pos:R:3:forces:R:3 energy=-7.567922695844e+01 dipole="4.0120928366e-09 -5.7916902836e-08 -6.7789803903e-01" quadrupole="-5.2538636674e+00 -1.8129783640e-02 -9.7914719405e-09 -1.8129783640e-02 -4.2070308902e+00 7.4767313964e-08 -9.7914719405e-09 7.4767313964e-08 -3.3307222330e+00" polarizability="7.7893358131e+00 2.6006611176e-02 -1.4056464178e-08 2.6006822964e-02 6.2876725222e+00 2.9976481725e-07 -1.0987714477e-06 3.4060995023e-07 9.7875423818e+00" dipole_derivatives="-3.4244161386e-01 1.1522875122e-07 -1.3179857019e-09 -1.1520152407e-07 -3.4244161385e-01 1.9517218940e-08 -3.1308930448e-07 -4.6124956632e-07 -1.1997696814e-01 3.4244182703e-01 1.3093807354e-09 1.3259487932e-09 -1.3139203951e-09 3.4244182702e-01 -1.9526790760e-08 3.1310988524e-07 4.6121798047e-07 1.1997287384e-01" charge=0 multiplicity=2 method=b3lyp basis=def2-svpd config_type=oh_q0_m2 sample_index=260 temperature=500.0 units=atomic
O        -0.0000000004       0.0000000053       0.0620939056   3.023147620560e-10  -4.363619411912e-09  -5.107527124121e-02
H         0.0000000058      -0.0000000842      -0.9854753427  -3.022895044821e-10   4.363668883190e-09   5.107570374226e-02
2
Properties=species:S:1:pos:R:3:forces:R:3 energy=-7.568268655886e+01 dipole="8.0429911528e-10 -1.1662387871e-08 -6.6474213912e-01" quadrupole="-5.1402832795e+00 2.5550490203e-01 -6.5270737889e-09 2.5550490203e-01 -4.2317629995e+00 1.4579580993e-08 -6.5270737889e-09 1.4579580993e-08 -3.4206116974e+00" polarizability="7.5426083406e+00 -3.5709722002e-01 -1.0307568300e-07 -3.5709772287e-01 6.2728425879e+00 -3.5903745180e-07 -1.1870093691e-07 7.6617260730e-07 8.9728921519e+00" dipole_derivatives="-3.5468412361e-01 -1.4658148586e-06 -8.5463994066e-11 1.4657923035e-06 -3.5468412378e-01 4.0934176958e-09 -1.5184181690e-07 -1.5096374151e-07 -1.2958080275e-01 3.5468384752e-01 -3.0508109648e-07 6.5901081177e-11 3.0508148642e-07 3.5468384769e-01 -4.0829261188e-09 1.5184778435e-07 1.5096221495e-07 1.2959850050e-01" charge=0 multiplicity=2 method=b3lyp basis=def2-svpd config_type=oh_q0_m2 sample_index=261 temperature=500.0 units=atomic
O        -0.0000000001       0.0000000010       0.0587869907   1.446002243495e-11  -2.102318340297e-10  -1.198068292259e-02
H         0.0000000011      -0.0000000164      -0.9329922036  -1.448469241641e-11   2.101979497731e-10   1.198022229631e-02
2
Properties=species:S:1:pos:R:3:forces:R:3 energy=-7.568151031697e+01 dipole="2.3715141052e-09 -3.4650475669e-08 -6.7129746096e-01" quadrupole="-5.1626732156e+00 2.5743513949e-01 -1.9611584949e-08 2.5743513949e-01 -4.2533160424e+00 4.6138964928e-08 -1.9611584949e-08 4.6138964928e-08 -3.3775050802e+00" polarizability="7.6151366035e+00 -3.6469243208e-01 -7.6953148063e-08 -3.6469352372e-01 6.3268986210e+00 -1.9066491906e-07 -5.2317233010e-07 6.3779981003e-07 9.3625254440e+00" dipole_derivatives="-3.4860013184e-01 -1.3839242750e-06 -5.5519230284e-10 1.3839287895e-06 -3.4860013177e-01 1.2559227575e-08 -4.8024112465e-08 3.5498909368e-08 -1.2488552080e-01 3.4859993291e-01 -2.2088485213e-07 5.3037619168e-10 2.2088503288e-07 3.4859993282e-01 -1.2550016157e-08 4.8017784193e-08 -3.5502212281e-08 1.2488625014e-01" charge=0 multiplicity=2 method=b3lyp basis=def2-svpd config_type=oh_q0_m2 sample_index=262 temperature=500.0 units=atomic
O        -0.0000000002       0.0000000031       0.0604028850   1.166139314672e-10  -1.704134279429e-09  -3.301392401493e-02
H         0.0000000034      -0.0000000495      -0.9586376184  -1.166222191085e-10   1.704151934577e-09   3.301358665776e-02
2
Properties=species:S:1:pos:R:3:forces:R:3 energy=-7.564528654172e+01 dipole="-1.1464883153e-08 1.6445648682e-07 -6.1537115459e-01" quadrupole="-4.0372899870e+00 1.3625989905e-01 4.3517399844e-08 1.3625989905e-01 -5.0182334538e+00 -3.6669880988e-07 4.3517399844e-08 -3.6669880988e-07 -3.6557704336e+00" polarizability="5.9197506844e+00 -1.6491948507e-01 -2.7853391766e-08 -1.6491889664e-01 7.1070395833e+00 9.0628715241e-08 -1.1476470383e-07 -5.3150717168e-08 6.7791863687e+00" dipole_derivatives="-4.0178681715e-01 3.4750896194e-11 4.5603231967e-09 2.7910286792e-11 -4.0178681722e-01 -6.5543387229e-08 -6.2506250176e-08 -1.9958024122e-07 -1.5656272461e-01 4.0178624934e-01 -4.0076931201e-13 -4.5691961043e-09 4.4167606592e-15 4.0178624944e-01 6.5535584165e-08 6.2502308884e-08 1.9958695807e-07 1.5656538426e-01" charge=0 multiplicity=2 method=b3lyp basis=def2-svpd config_type=oh_q0_m2 sample_index=263 temperature=500.0 units=atomic
O         0.0000000009      -0.0000000128       0.0480408619   5.405126921561e-09  -7.753310244106e-08   2.901170810976e-01
H        -0.0000000142       0.0000002038      -0.7624433405  -5.405096969535e-09   7.753272257975e-08  -2.901156419781e-01
2
Properties=species:S:1:pos:R:3:forces:R:3 energy=-7.568130253211e+01 dipole="2.5636350801e-09 -3.7311201760e-08 -6.7205596884e-01" quadrupole="-5.2328937582e+00 -1.7921142969e-02 -6.1421396401e-09 -1.7921142969e-02 -4.1882194390e+00 4.5223982602e-08 -6.1421396401e-09 4.5223982602e-08 -3.3723058599e+00" polarizability="7.7199025350e+00 2.5430226321e-02 -7.8649448389e-09 2.5430389951e-02 6.2375008346e+00 1.7675454842e-07 -5.4099705961e-07 2.5188687136e-07 9.4096262427e+00" dipole_derivatives="-3.4789511387e-01 1.0714717822e-07 -8.3229110883e-10 -1.0711876510e-07 -3.4789511405e-01 1.2695991986e-08 8.7274978910e-08 -2.1568397068e-07 -1.2433390760e-01 3.4789559559e-01 2.2551514014e-09 8.5515786268e-10 -2.2314780507e-09 3.4789559580e-01 -1.2709015105e-08 -8.7267693072e-08 2.1570067954e-07 1.2432953874e-01" charge=0 multiplicity=2 method=b3lyp basis=def2-svpd config_type=oh_q0_m2 sample_index=264 temperature=500.0 units=atomic
O        -0.0000000002       0.0000000034       0.0605937991   1.344136403741e-10  -1.958284434517e-09  -3.524196678408e-02
H         0.0000000037      -0.0000000534      -0.9616675629  -1.344522714826e-10   1.958304086359e-09   3.524213149302e-02
2
Properties=species:S:1:pos:R:3:forces:R:3 energy=-7.568140756162e+01 dipole="2.5007136050e-09 -3.5997156457e-08 -6.7167921281e-01" quadrupole="-5.2279073711e+00 6.4123434477e-02 -1.0367518204e-08 6.4123434477e-02 -4.1906601312e+00 4.4011617819e-08 -1.0367518204e-08 4.4011617819e-08 -3.3748937526e+00" polarizability="7.7101217011e+00 -9.0905890345e-02 -3.8800008252e-09 -9.0906434831e-02 6.2395544744e+00 1.6563677732e-07 -5.2020525365e-07 2.7563913232e-07 9.3861776687e+00" dipole_derivatives="-3.4824504120e-01 -1.3299591236e-06 -8.2954923158e-10 1.3299250194e-06 -3.4824504124e-01 1.2140033718e-08 -5.7698595901e-08 -2.7831004168e-07 -1.2458888412e-01 3.4824483248e-01 -2.1332327360e-07 8.2671133237e-10 2.1332338528e-07 3.4824483252e-01 -1.2133571927e-08 5.7694876654e-08 2.7828736537e-07 1.2460640647e-01" charge=0 multiplicity=2 method=b3lyp basis=def2-svpd config_type=oh_q0_m2 sample_index=265 temperature=500.0 units=atomic
O        -0.0000000002       0.0000000032       0.0604988709   1.271469326771e-10  -1.829699962318e-09  -3.414073481359e-02
H         0.0000000036      -0.0000000515      -0.9601609848  -1.271069405335e-10   1.829679809096e-09   3.414040633989e-02
2
Properties=species:S:1:pos:R:3:forces:R:3 energy=-7.567849432700e+01 dipole="4.4449729513e-09 -6.3711231556e-08 -6.7954423617e-01" quadrupole="-5.2516918892e+00 9.3643161109e-02 -2.1436363514e-08 9.3643161109e-02 -4.2205145299e+00 8.5133255661e-08 -2.1436363514e-08 8.5133255661e-08 -3.3184985710e+00" polarizability="7.7973768110e+00 -1.3469124178e-01 -1.0472895130e-09 -1.3469216792e-01 6.3141860027e+00 3.3593724767e-07 -1.3605081437e-06 4.1470578123e-07 9.8991167105e+00" dipole_derivatives="-3.4089807321e-01 1.1866533802e-07 -1.2685247653e-09 -1.1865680963e-07 -3.4089807321e-01 2.2979742675e-08 2.3100882318e-08 -7.4532963135e-08 -1.1872407363e-01 3.4089821744e-01 2.2218209701e-10 1.2572226263e-09 -2.2733628889e-10 3.4089821740e-01 -2.2987220712e-08 -2.3096441426e-08 7.4504555303e-08 1.1872557988e-01" charge=0 multiplicity=2 method=b3lyp basis=def2-svpd config_type=oh_q0_m2 sample_index=266 temperature=500.0 units=atomic
O        -0.0000000004       0.0000000059       0.0625265281   3.605952343604e-10  -5.168646889346e-09  -5.512893410486e-02
H         0.0000000065      -0.0000000930      -0.9923413752  -3.606052397438e-10   5.168673294732e-09   5.512905602509e-02
2
Properties=species:S:1:pos:R:3:forces:R:3 energy=-7.568108621285e+01 dipole="-2.6416193909e-09 3.8164505872e-08 -6.5052220192e-01" quadrupole="-5.1573880925e+00 3.9072845286e-03 6.9758895690e-09 3.9072845286e-03 -4.1212835931e+00 -3.6197028173e-08 6.9758895690e-09 -3.6197028173e-08 -3.5036074258e+00" polarizability="7.4811554290e+00 -5.2877270437e-03 -1.7744771202e-08 -5.2877087162e-03 6.0809146745e+00 1.5477452298e-07 1.6847365254e-07 -2.3983241225e-07 8.2226360547e+00" dipole_derivatives="-3.6786682884e-01 -1.5495555277e-06 9.2279280990e-10 1.5494958809e-06 -3.6786682909e-01 -1.3386389712e-08 -4.1962822106e-09 -1.0238593307e-07 -1.3908423604e-01 3.6786621232e-01 -4.4343780484e-07 -9.2914210472e-10 4.4343743323e-07 3.6786621249e-01 1.3419214965e-08 4.1974757004e-09 1.0238393466e-07 1.3908177981e-01" charge=0 multiplicity=2 method=b3lyp basis=def2-svpd config_type=oh_q0_m2 sample_index=267 temperature=500.0 units=atomic
O         0.0000000002      -0.0000000033       0.0554678104   1.864959425838e-10  -2.694074955578e-09   4.592056275890e-02
H        -0.0000000036       0.0000000516      -0.8803144036  -1.864747293630e-10   2.694068584396e-09  -4.592098208927e-02
2
Properties=species:S:1:pos:R:3:forces:R:3 energy=-7.568172549716e+01 dipole="2.1787920071e-09 -3.1691568360e-08 -6.7044887609e-01" quadrupole="-5.1998373240e+00 1.6762652174e-01 -1.3821508528e-08 1.6762652174e-01 -4.2104264324e+00 3.9701280288e-08 -1.3821508528e-08 3.9701280288e-08 -3.3832691000e+00" polarizability="7.6624853616e+00 -2.3710459171e-01 5.9159583327e-09 -2.3710556286e-01 6.2629893726e+00 1.4362957216e-07 -4.4360747372e-07 4.3367635600e-07 9.3103420529e+00" dipole_derivatives="-3.4938917881e-01 -1.3854579683e-06 -6.9357714623e-10 1.3854763367e-06 -3.4938917886e-01 1.0860705041e-08 -2.3455803966e-07 2.3992197118e-08 -1.2540220058e-01 3.4938897083e-01 -2.3144196793e-07 6.9216375180e-10 2.3144210898e-07 3.4938897089e-01 -1.0840508337e-08 2.3457058518e-07 -2.3996415965e-08 1.2549581087e-01" charge=0 multiplicity=2 method=b3lyp basis=def2-svpd config_type=oh_q0_m2 sample_index=269 temperature=500.0 units=atomic
O        -0.0000000002       0.0000000028       0.0601902770   9.904725315704e-11  -1.440245000032e-09  -3.047132324248e-02
H         0.0000000031      -0.0000000452      -0.9552633747  -9.903734544649e-11   1.440243890893e-09   3.047114313980e-02
2
Properties=species:S:1:pos:R:3:forces:R:3 energy=-7.568172745815e+01 dipole="2.1790632534e-09 -3.1626075897e-08 -6.7044069820e-01" quadrupole="-5.1026412675e+00 3.3881377565e-01 -2.1564678653e-08 3.3881377565e-01 -4.3075677276e+00 4.4750067086e-08 -2.1564678653e-08 4.4750067086e-08 -3.3833239083e+00" polarizability="7.5249727293e+00 -4.7924590239e-01 1.7005259137e-08 -4.7924598778e-01 6.4003671341e+00 1.3618607958e-07 -4.6168958407e-07 1.2445162910e-07 9.3098478175e+00" dipole_derivatives="-3.4939671030e-01 -1.3789916991e-06 -7.7835398482e-10 1.3789871787e-06 -3.4939671010e-01 1.0324173553e-08 2.8000354813e-07 4.6551415500e-07 -1.2554159849e-01 3.4939650058e-01 -2.3118943805e-07 7.7193409950e-10 2.3118953518e-07 3.4939650038e-01 -1.0340106910e-08 -2.8000729513e-07 -4.6552581234e-07 1.2550308943e-01" charge=0 multiplicity=2 method=b3lyp basis=def2-svpd config_type=oh_q0_m2 sample_index=270 temperature=500.0 units=atomic
O        -0.0000000002       0.0000000028       0.0601882530   9.893190234566e-11  -1.436288481611e-09  -3.044677570517e-02
H         0.0000000031      -0.0000000451      -0.9552312521  -9.893797592465e-11   1.436276074441e-09   3.044663445721e-02
2
Properties=species:S:1:pos:R:3:forces:R:3 energy=-7.568271021679e+01 dipole="7.3780203856e-10 -1.0731502128e-08 -6.6447571479e-01" quadrupole="-5.1965488038e+00 -1.0017110956e-01 -3.0852663383e-10 -1.0017110956e-01 -4.1737236602e+00 1.2085334907e-08 -3.0852663383e-10 1.2085334907e-08 -3.4222960593e+00" polarizability="7.6196472115e+00 1.3993111433e-01 -3.7605039387e-09 1.3993158595e-01 6.1908764601e+00 4.4991567050e-08 -1.0833267182e-07 4.2082282082e-07 8.9576891352e+00" dipole_derivatives="-3.5493097807e-01 -1.4801045692e-06 -2.0579888716e-10 1.4800985234e-06 -3.5493097808e-01 3.6266069605e-09 -2.8314572909e-08 -5.8490573496e-08 -1.2967888886e-01 3.5493070092e-01 -3.0910109176e-07 2.4548638381e-10 3.0910108138e-07 3.5493070094e-01 -3.6404937268e-09 2.8313573708e-08 5.8498955680e-08 1.2978724368e-01" charge=0 multiplicity=2 method=b3lyp basis=def2-svpd config_type=oh_q0_m2 sample_index=271 temperature=500.0 units=atomic
O        -0.0000000001       0.0000000009       0.0587225566   1.227159722489e-11  -1.785364455851e-10  -1.105571538864e-02
H         0.0000000010      -0.0000000151      -0.9319695864  -1.229456593949e-11   1.785528040275e-10   1.105548505453e-02
2
Properties=species:S:1:pos:R:3:forces:R:3 energy=-7.567935478271e+01 dipole="3.9506045534e-09 -5.6794074660e-08 -6.7759522709e-01" quadrupole="-5.2527689389e+00 -1.8201295237e-02 -9.6184783874e-09 -1.8201295237e-02 -4.2060500382e+00 7.3079280353e-08 -9.6184783874e-09 7.3079280353e-08 -3.3329460328e+00" polarizability="7.7856753979e+00 2.6095400143e-02 -1.3749164466e-08 2.6095609676e-02 6.2849819306e+00 2.9263983945e-07 -1.0687594476e-06 3.3470791865e-07 9.7672697467e+00" dipole_derivatives="-3.4272517263e-01 1.1493764912e-07 -1.2952229776e-09 -1.1495433185e-07 -3.4272517269e-01 1.8709076033e-08 -2.2478077732e-07 -3.6452764418e-07 -1.2020643769e-01 3.4272539884e-01 4.8716813622e-10 1.2983179305e-09 -4.8242600511e-10 3.4272539893e-01 -1.8702825897e-08 2.2479612616e-07 3.6454167462e-07 1.2020228013e-01" charge=0 multiplicity=2 method=b3lyp basis=def2-svpd config_type=oh_q0_m2 sample_index=272 temperature=500.0 units=atomic
O        -0.0000000004       0.0000000052       0.0620148161   2.933670819626e-10  -4.217271562972e-09  -5.031067727230e-02
H         0.0000000057      -0.0000000825      -0.9842201346  -2.933342987246e-10   4.217279663698e-09   5.031109946890e-02
2
Properties=species:S:1:pos:R:3:forces:R:3 energy=-7.568211590998e+01 dipole="-1.6522739581e-09 2.4714769469e-08 -6.5435122925e-01" quadrupole="-5.1686538848e+00 4.6370766154e-02 6.0610569784e-09 4.6370766154e-02 -4.1349243713e+00 -2.4790185800e-08 6.0610569784e-09 -2.4790185800e-08 -3.4826011050e+00" polarizability="7.5191923981e+00 -6.3275029694e-02 -1.1498330567e-10 -6.3275294423e-02 6.1085858010e+00 -8.6533795314e-08 1.2990047315e-07 -2.6004203362e-07 8.4130732206e+00" dipole_derivatives="-3.6431038353e-01 -1.6709093406e-06 5.3248676502e-10 1.6709039100e-06 -3.6431038352e-01 -8.6381708831e-09 5.9106886052e-08 2.8427690757e-07 -1.3663982488e-01 3.6430991802e-01 -4.2494837693e-07 -5.7490048297e-10 4.2494852769e-07 3.6430991802e-01 8.6375798540e-09 -5.9116517237e-08 -2.8428803756e-07 1.3663786777e-01" charge=0 multiplicity=2 method=b3lyp basis=def2-svpd config_type=oh_q0_m2 sample_index=273 temperature=500.0 units=atomic
O         0.0000000001      -0.0000000021       0.0563389586   7.201164021506e-11  -1.077158615504e-09   2.851837473725e-02
H        -0.0000000023       0.0000000338      -0.8941401568  -7.201107185523e-11   1.077156047764e-09  -2.851891033452e-02
2
Properties=species:S:1:pos:R:3:forces:R:3 energy=-7.568275964877e+01 dipole="6.0509261856e-10 -8.4650758649e-09 -6.6382818056e-01" quadrupole="-4.4847698489e+00 4.8181793673e-01 -7.0497634542e-09 4.8181793673e-01 -4.8811979639e+00 1.9050150088e-08 -7.0497634542e-09 1.9050150088e-08 -3.4263686369e+00" polarizability="6.6226780561e+00 -6.7205000410e-01 6.5428843413e-09 -6.7205007281e-01 7.1756295520e+00 2.1680195632e-08 -7.9197928531e-08 1.1030508583e-06 8.9209306457e+00" dipole_derivatives="-3.5553101316e-01 -1.3482676362e-06 -2.3560858750e-10 1.3482761543e-06 -3.5553101306e-01 2.8786993930e-09 9.7559738066e-08 -2.2692592250e-07 -1.3009381033e-01 3.5553069467e-01 -3.0728515186e-07 2.6099431400e-10 3.0728512400e-07 3.5553069460e-01 -2.8886142050e-09 -9.7546137834e-08 2.2694157664e-07 1.3022992253e-01" charge=0 multiplicity=2 method=b3lyp basis=def2-svpd config_type=oh_q0_m2 sample_index=274 temperature=500.0 units=atomic
O        -0.0000000001       0.0000000007       0.0585663249   7.998157045397e-12  -1.120219784338e-10  -8.784518387853e-03
H         0.0000000008      -0.0000000119      -0.9294900760  -7.996206613462e-12   1.120253223093e-10   8.784052249662e-03
2
Properties=species:S:1:pos:R:3:forces:R:3 energy=-7.567416554566e+01 dipole="6.3653606976e-09 -9.1446875287e-08 -6.8736875937e-01" quadrupole="-4.8889985519e+00 -5.1006400754e-01 5.2748731797e-08 -5.1006400754e-01 -4.6376127386e+00 1.7892890432e-07 5.2748731797e-08 1.7892890432e-07 -3.2571799127e+00" polarizability="7.3253632578e+00 7.4293299665e-01 -1.2870416883e-07 7.4293300486e-01 6.9592151570e+00 4.7393445218e-07 1.2083841541e-08 4.6444666191e-07 1.0463019744e+01" dipole_derivatives="-3.3350792335e-01 1.2167517355e-07 -1.0909483544e-09 -1.2166704173e-07 -3.3350792318e-01 2.9027291939e-08 -2.0912263587e-07 1.1014425483e-07 -1.1271559169e-01 3.3350774798e-01 -5.9687527709e-10 1.0875373371e-09 5.9824795751e-10 3.3350774785e-01 -2.9030333805e-08 2.0907869880e-07 -1.1014751611e-07 1.1267260598e-01" charge=0 multiplicity=2 method=b3lyp basis=def2-svpd config_type=oh_q0_m2 sample_index=275 temperature=500.0 units=atomic
O        -0.0000000006       0.0000000086       0.0646479252   6.678858893338e-10  -9.594819954340e-09  -7.212038280372e-02
H         0.0000000095      -0.0000001365      -1.0260094869  -6.678792253936e-10   9.594892062675e-09   7.212086477041e-02
2
Properties=species:S:1:pos:R:3:forces:R:3 energy=-7.568101095458e+01 dipole="-2.7128176261e-09 3.8951348814e-08 -6.5029697521e-01" quadrupole="-4.2140155365e+00 2.9675359694e-01 2.0771448833e-08 2.9675359694e-01 -5.0631945493e+00 -9.4605366608e-08 2.0771448833e-08 -9.4605366608e-08 -3.5048140182e+00" polarizability="6.2056621339e+00 -4.0085052196e-01 -1.5507139076e-08 -4.0085055542e-01 7.3527215578e+00 -4.9765249322e-08 1.3649641117e-07 -3.9586315635e-08 8.2116503603e+00" dipole_derivatives="-3.6807649666e-01 -1.5241253826e-06 9.3716550752e-10 1.5241635334e-06 -3.6807649656e-01 -1.3712702305e-08 9.5509572473e-08 6.8043015666e-08 -1.3921682417e-01 3.6807586710e-01 -4.4267944343e-07 -9.5478184384e-10 4.4267970673e-07 3.6807586702e-01 1.3707696488e-08 -9.5521424104e-08 -6.8050648450e-08 1.3922130307e-01" charge=0 multiplicity=2 method=b3lyp basis=def2-svpd config_type=oh_q0_m2 sample_index=276 temperature=500.0 units=atomic
O         0.0000000002      -0.0000000033       0.0554170101   1.960109486597e-10  -2.814568191670e-09   4.699008426765e-02
H        -0.0000000037       0.0000000527      -0.8795081660  -1.960155896839e-10   2.814617588775e-09  -4.699028401297e-02
2
Properties=species:S:1:pos:R:3:forces:R:3 energy=-7.568283955507e+01 dipole="-6.7663238229e-11 1.2858304975e-09 -6.6102905781e-01" quadrupole="-5.1849328850e+00 -9.7333790981e-02 -3.6607963438e-12 -9.7333790981e-02 -4.1624888511e+00 -1.4041351483e-09 -3.6607963438e-12 -1.4041351483e-09 -3.4436264842e+00" polarizability="7.5820244699e+00 1.3493274331e-01 -1.4136292240e-07 1.3493371496e-01 6.1646741010e+00 1.4891392618e-06 8.2528025298e-09 7.4175306053e-08 8.7651900032e+00" dipole_derivatives="-3.5812274362e-01 -2.0733091874e-06 2.2494522086e-11 2.0733142811e-06 -3.5812274373e-01 -4.7638970229e-10 7.3133721301e-08 -1.2275183647e-07 -1.3217531381e-01 3.5812267808e-01 -3.6682230190e-07 -2.3086988922e-11 3.6682221782e-07 3.5812267817e-01 4.3936483117e-10 -7.3136469103e-08 1.2273346228e-07 1.3217544919e-01" charge=0 multiplicity=2 method=b3lyp basis=def2-svpd config_type=oh_q0_m2 sample_index=277 temperature=500.0 units=atomic
O         0.0000000000      -0.0000000001       0.0578972020   1.367694284778e-13  -2.800950356414e-12   1.427089540823e-03
H        -0.0000000001       0.0000000018      -0.9188706105  -1.463896001434e-13   2.776441598307e-12  -1.427500851505e-03
2
Properties=species:S:1:pos:R:3:forces:R:3 energy=-7.567865080492e+01 dipole="-4.0199236195e-09 5.8253522760e-08 -6.4480220556e-01" quadrupole="-5.1372844115e+00 -1.7818062028e-02 8.4365066044e-09 -1.7818062028e-02 -4.1044623375e+00 -5.1489403547e-08 8.4365066044e-09 -5.1489403547e-08 -3.5332498758e+00" polarizability="7.4211924473e+00 2.3720797850e-02 5.4420205205e-09 2.3720888695e-02 6.0462120750e+00 -1.7153407613e-07 1.9241838140e-07 -2.5861796489e-07 7.9522705334e+00" dipole_derivatives="-3.7320483614e-01 1.5550731825e-08 1.4090013426e-09 -1.5530472943e-08 -3.7320483590e-01 -2.0725309517e-08 3.3761127227e-07 -7.5198847149e-08 -1.4256362125e-01 3.7320648510e-01 4.0818446891e-08 -1.4350001409e-09 -4.0826649338e-08 3.7320648487e-01 2.0728056110e-08 -3.3763630780e-07 7.5218137274e-08 1.4255843199e-01" charge=0 multiplicity=2 method=b3lyp basis=def2-svpd config_type=oh_q0_m2 sample_index=278 temperature=500.0 units=atomic
O         0.0000000003      -0.0000000049       0.0541938474   4.656557296120e-10  -6.748456151204e-09   7.469776937275e-02
H        -0.0000000054       0.0000000777      -0.8600956852  -4.656903945912e-10   6.748417457329e-09  -7.469740609501e-02
2
Properties=species:S:1:pos:R:3:forces:R:3 energy=-7.568270538087e+01 dipole="-7.4962328339e-10 1.0767418702e-08 -6.5832599799e-01" quadrupole="-4.1450102725e+00 -5.3448943105e-03 6.4956755853e-10 -5.3448943105e-03 -5.1845988149e+00 -2.8250245362e-08 6.4956755853e-10 -2.8250245362e-08 -3.4597693459e+00" polarizability="6.1328312742e+00 7.3710367828e-03 -5.2543282823e-07 7.3709312204e-03 7.5650377575e+00 -3.9352932327e-08 -3.8209932960e-08 -8.0774755543e-07 8.6194614658e+00" dipole_derivatives="-3.6062655898e-01 -1.4984799795e-06 2.5780562637e-10 1.4984394149e-06 -3.6062655910e-01 -3.7252506793e-09 1.4770770718e-07 -5.1358500786e-08 -1.3402275651e-01 3.6062616117e-01 -3.7641008131e-07 -2.5820888090e-10 3.7641010517e-07 3.6062616131e-01 3.7064168769e-09 -1.4770035195e-07 5.1361304099e-08 1.3401323369e-01" charge=0 multiplicity=2 method=b3lyp basis=def2-svpd config_type=oh_q0_m2 sample_index=279 temperature=500.0 units=atomic
O         0.0000000001      -0.0000000009       0.0572602008   1.364491103182e-11  -1.949520457416e-10   1.191556701309e-02
H        -0.0000000010       0.0000000149      -0.9087609392  -1.356843020039e-11   1.948963355428e-10  -1.191611587224e-02
2
Properties=species:S:1:pos:R:3:forces:R:3 energy=-7.567712137137e+01 dipole="-4.6859476716e-09 6.7733259400e-08 -6.4212730743e-01" quadrupole="-5.1280550484e+00 -1.7841158367e-02 9.6494453359e-09 -1.7841158367e-02 -4.0965300066e+00 -5.7841891283e-08 9.6494453359e-09 -5.7841891283e-08 -3.5464203288e+00" polarizability="7.3936653240e+00 2.3575626993e-02 5.6664357528e-09 2.3575714613e-02 6.0305852144e+00 -1.8917335384e-07 1.9452330673e-07 -2.6798513711e-07 7.8312823845e+00" dipole_derivatives="-3.7571469346e-01 -6.2527725574e-09 1.6649999210e-09 6.2409158853e-09 -3.7571469391e-01 -2.3990042582e-08 8.9890622723e-08 -3.0402144691e-07 -1.4411343364e-01 3.7571642793e-01 7.6156475214e-08 -1.6848058938e-09 -7.6142800714e-08 3.7571642835e-01 2.3986948658e-08 -8.9890705990e-08 3.0400476581e-07 1.4410818739e-01" charge=0 multiplicity=2 method=b3lyp basis=def2-svpd config_type=oh_q0_m2 sample_index=280 temperature=500.0 units=atomic
O         0.0000000004      -0.0000000057       0.0536085129   6.522222588089e-10  -9.428219573640e-09   8.938167724555e-02
H        -0.0000000062       0.0000000897      -0.8508060021  -6.522636860655e-10   9.428172728735e-09  -8.938126505341e-02
2
Properties=species:S:1:pos:R:3:forces:R:3 energy=-7.567681478581e+01 dipole="5.2338410772e-09 -7.5506009224e-08 -6.8288458582e-01" quadrupole="-4.2315523318e+00 -9.4050409450e-02 3.2237687979e-09 -9.4050409450e-02 -5.2637468190e+00 2.1720053521e-07 3.2237687979e-09 2.1720053521e-07 -3.2929838517e+00" polarizability="6.3454484803e+00 1.3603600224e-01 -4.4207423593e-08 1.3603543254e-01 7.8384139678e+00 2.5468539890e-07 -7.1052291912e-07 2.5007138339e-07 1.0132857790e+01" dipole_derivatives="-3.3775480854e-01 1.1984370129e-07 -1.8503897675e-09 -1.1983401347e-07 -3.3775480854e-01 2.4524494253e-08 -3.1273757195e-07 5.6067206433e-08 -1.1599086555e-01 3.3775481759e-01 -8.7850734479e-11 1.8466781128e-09 8.9154240893e-11 3.3775481762e-01 -2.4521547658e-08 3.1272028023e-07 -5.6061030818e-08 1.1616065555e-01" charge=0 multiplicity=2 method=b3lyp basis=def2-svpd config_type=oh_q0_m2 sample_index=281 temperature=500.0 units=atomic
O        -0.0000000005       0.0000000070       0.0634186264   4.815677701043e-10  -6.947152254202e-09  -6.283085496971e-02
H         0.0000000077      -0.0000001113      -1.0064996229  -4.815475954058e-10   6.947216488305e-09   6.283139224520e-02
2
Properties=species:S:1:pos:R:3:forces:R:3 energy=-7.567790888912e+01 dipole="-4.3873839059e-09 6.3051423468e-08 -6.4344827706e-01" quadrupole="-4.1004495084e+00 1.8043071080e-02 5.5502256086e-09 1.8043071080e-02 -5.1326029072e+00 -1.5616216889e-07 5.5502256086e-09 -1.5616216889e-07 -3.5399703052e+00" polarizability="6.0382521936e+00 -2.3929983503e-02 1.0240646423e-08 -2.3929758144e-02 7.4072171722e+00 -4.7248887670e-08 -1.0836998160e-07 -5.4392563613e-07 7.8906154277e+00" dipole_derivatives="-3.7447389937e-01 5.1862772067e-09 1.6939653498e-09 -5.1971501041e-09 -3.7447389940e-01 -2.2613712211e-08 -1.5161244482e-07 1.5513182405e-07 -1.4342776735e-01 3.7447559332e-01 5.6558192530e-08 -1.7075900645e-09 -5.6549319645e-08 3.7447559336e-01 2.2609062776e-08 1.5159221101e-07 -1.5510484563e-07 1.4334701363e-01" charge=0 multiplicity=2 method=b3lyp basis=def2-svpd config_type=oh_q0_m2 sample_index=282 temperature=500.0 units=atomic
O         0.0000000004      -0.0000000053       0.0538967840   5.592807167795e-10  -8.037905213755e-09   8.202770898546e-02
H        -0.0000000058       0.0000000838      -0.8553810731  -5.593157294004e-10   8.037901263413e-09  -8.202789267476e-02
2
Properties=species:S:1:pos:R:3:forces:R:3 energy=-7.567243519019e+01 dipole="7.0063389934e-09 -1.0065365723e-07 -6.8995912452e-01" quadrupole="-5.2895965659e+00 9.4469120155e-02 -3.4591614002e-08 9.4469120155e-02 -4.2552736160e+00 1.4975359748e-07 -3.4591614002e-08 1.4975359748e-07 -3.2356535589e+00" polarizability="7.9284185505e+00 -1.3811143199e-01 -7.5142028927e-09 -1.3811249843e-01 6.4162823835e+00 6.1910092943e-07 4.2777169825e-08 6.7312330652e-07 1.0662868240e+01" dipole_derivatives="-3.3103819347e-01 1.2200773961e-07 -2.2195889000e-09 -1.2197816412e-07 -3.3103819309e-01 3.2590237990e-08 8.6062601490e-08 3.6770275713e-07 -1.1061831976e-01 3.3103791939e-01 -2.6416240216e-10 2.2022432004e-09 2.6918557647e-10 3.3103791900e-01 -3.2588864612e-08 -8.6083654094e-08 -3.6767958123e-07 1.1061946794e-01" charge=0 multiplicity=2 method=b3lyp basis=def2-svpd config_type=oh_q0_m2 sample_index=283 temperature=500.0 units=atomic
O        -0.0000000007       0.0000000095       0.0653756593   7.815349100508e-10  -1.122790544450e-08  -7.696504525994e-02
H         0.0000000105      -0.0000001514      -1.0375591555  -7.815640512931e-10   1.122801390814e-08   7.696560820435e-02
2
Properties=species:S:1:pos:R:3:forces:R:3 energy=-7.568153136561e+01 dipole="-2.2855358150e-09 3.3046686817e-08 -6.5197361533e-01" quadrupole="-5.1605390842e+00 4.4447234913e-02 8.0831732617e-09 4.4447234913e-02 -4.1275549430e+00 -3.2204616485e-08 8.0831732617e-09 -3.2204616485e-08 -3.4957568663e+00" polarizability="7.4940134326e+00 -6.0289018996e-02 -2.2804161996e-10 -6.0289273121e-02 6.0927739990e+00 -1.1085472272e-07 1.5725213660e-07 -2.5040769442e-07 8.2938793791e+00" dipole_derivatives="-3.6651758141e-01 -1.5507437599e-06 8.1536640191e-10 1.5507214883e-06 -3.6651758162e-01 -1.1555664441e-08 -1.4712953078e-08 -1.7811804809e-07 -1.3816222204e-01 3.6651701089e-01 -4.3389460718e-07 -8.0368617557e-10 4.3389458381e-07 3.6651701108e-01 1.1601007882e-08 1.4704071294e-08 1.7811938036e-07 1.3816663193e-01" charge=0 multiplicity=2 method=b3lyp basis=def2-svpd config_type=oh_q0_m2 sample_index=284 temperature=500.0 units=atomic
O         0.0000000002      -0.0000000028       0.0557962146   1.373287535197e-10  -1.984136206322e-09   3.915565912400e-02
H        -0.0000000031       0.0000000449      -0.8855264162  -1.372697035580e-10   1.984172041953e-09  -3.915610186658e-02
2
Properties=species:S:1:pos:R:3:forces:R:3 energy=-7.568281745684e+01 dipole="-2.7133923038e-10 4.5450573290e-09 -6.6010659597e-01" quadrupole="-5.1785854765e+00 -1.1240149114e-01 -3.3457649116e-11 -1.1240149114e-01 -4.1627469907e+00 -4.8632904823e-09 -3.3457649116e-11 -4.8632904823e-09 -3.4491925714e+00" polarizability="7.5675700646e+00 1.5549354055e-01 6.6243619187e-09 1.5549457509e-01 6.1623367671e+00 -6.7482302164e-08 3.1627893116e-08 2.4873820639e-07 8.7149541960e+00" dipole_derivatives="-3.5897721460e-01 -1.9170087127e-06 8.8092113299e-11 1.9170054097e-06 -3.5897721473e-01 -1.5603635639e-09 1.3595607973e-07 7.7908707263e-08 -1.3276057886e-01 3.5897700466e-01 -3.8047746582e-07 -9.3335499501e-11 3.8047737172e-07 3.5897700473e-01 1.5575079036e-09 -1.3594950166e-07 -7.7916811891e-08 1.3279750355e-01" charge=0 multiplicity=2 method=b3lyp basis=def2-svpd config_type=oh_q0_m2 sample_index=285 temperature=500.0 units=atomic
O         0.0000000000      -0.0000000004       0.0576788245   2.030885689246e-12  -3.394955003702e-11   4.935793809672e-03
H        -0.0000000004       0.0000000063      -0.9154048007  -2.028830602672e-12   3.398750921712e-11  -4.936228419305e-03
2
Properties=species:S:1:pos:R:3:forces:R:3 energy=-7.568103346626e+01 dipole="-2.6426765977e-09 3.8736152836e-08 -6.5036365976e-01" quadrupole="-4.1221674573e+00 -3.7729145885e-02 2.9384416734e-10 -3.7729145885e-02 -5.1554766754e+00 -9.8184656058e-08 2.9384416734e-10 -9.8184656058e-08 -3.5044566953e+00" polarizability="6.0817491117e+00 5.0969669310e-02 1.1645689710e-08 5.0969238678e-02 7.4776971633e+00 -4.4143493573e-08 -8.6700080710e-08 -7.7367735433e-07 8.2149016442e+00" dipole_derivatives="-3.6801426327e-01 -1.6070488132e-06 8.9620475642e-10 1.6071183858e-06 -3.6801426331e-01 -1.3646457057e-08 -1.8176599115e-08 -2.0571544468e-08 -1.3918149280e-01 3.6801365554e-01 -4.4914806483e-07 -9.2964202278e-10 4.4914783325e-07 3.6801365557e-01 1.3629524139e-08 1.8186202544e-08 2.0564522307e-08 1.3918093242e-01" charge=0 multiplicity=2 method=b3lyp basis=def2-svpd config_type=oh_q0_m2 sample_index=286 temperature=500.0 units=atomic
O         0.0000000002      -0.0000000033       0.0554320739   1.896033158552e-10  -2.779828361010e-09   4.667215789757e-02
H        -0.0000000036       0.0000000524      -0.8797472384  -1.896481840443e-10   2.779852723576e-09  -4.667255956886e-02
2
Properties=species:S:1:pos:R:3:forces:R:3 energy=-7.567063635969e+01 dipole="7.5768585776e-09 -1.0961603479e-07 -6.9245037076e-01" quadrupole="-5.2254000139e+00 -2.8198709726e-01 2.2603568804e-08 -2.8198709726e-01 -4.3371523857e+00 1.7460687993e-07 2.2603568804e-08 1.7460687993e-07 -3.2143449550e+00" polarizability="7.8535143959e+00 4.1365292370e-01 -9.8787157657e-08 4.1365289770e-01 6.5505179279e+00 6.8824169533e-07 8.6742234830e-09 6.8333136030e-07 1.0861774300e+01" dipole_derivatives="-3.2865013533e-01 1.2054586394e-07 -2.4044084517e-09 -1.2064854048e-07 -3.2865013737e-01 3.4826647842e-08 3.3067058813e-07 -2.9638035082e-07 -1.0846829918e-01 3.2864977589e-01 1.8224818407e-10 2.4137982177e-09 -9.8481494752e-11 3.2864977787e-01 -3.4794502920e-08 -3.3070153560e-07 2.9639231347e-07 1.0862435534e-01" charge=0 multiplicity=2 method=b3lyp basis=def2-svpd config_type=oh_q0_m2 sample_index=287 temperature=500.0 units=atomic
O        -0.0000000007       0.0000000105       0.0660884455   8.894394291107e-10  -1.286687733130e-08  -8.128012995835e-02
H         0.0000000115      -0.0000001660      -1.0488715888  -8.894379827010e-10   1.286698558717e-08   8.128091909758e-02
2
Properties=species:S:1:pos:R:3:forces:R:3 energy=-7.568137671393e+01 dipole="2.5000013787e-09 -3.6446965112e-08 -6.7179127295e-01" quadrupole="-4.9109962019e+00 -4.8225503356e-01 2.0412839843e-08 -4.8225503356e-01 -4.5083287684e+00 5.9718825603e-08 2.0412839843e-08 5.9718825603e-08 -3.3741254182e+00" polarizability="7.2614076629e+00 6.8383544971e-01 -4.5297196254e-08 6.8383553787e-01 6.6904252981e+00 1.4954320886e-07 -6.4462687875e-07 1.3401248379e-07 9.3931382805e+00" dipole_derivatives="-3.4814079386e-01 -1.3678537015e-06 -1.1190817760e-09 1.3678186764e-06 -3.4814079393e-01 1.2997561467e-08 -5.6079418886e-08 3.7923211793e-07 -1.2453727748e-01 3.4814059566e-01 -2.1395757869e-07 1.1039853449e-09 2.1395734983e-07 3.4814059574e-01 -1.3045421620e-08 5.6080584621e-08 -3.7923611473e-07 1.2452013889e-01" charge=0 multiplicity=2 method=b3lyp basis=def2-svpd config_type=oh_q0_m2 sample_index=288 temperature=500.0 units=atomic
O        -0.0000000002       0.0000000033       0.0605270760   1.282527112826e-10  -1.870092627357e-09  -3.446938000160e-02
H         0.0000000036      -0.0000000521      -0.9606086189  -1.282714570297e-10   1.870060602626e-09   3.446906164688e-02
2
Properties=species:S:1:pos:R:3:forces:R:3 energy=-7.568233931883e+01 dipole="1.4641602865e-09 -2.1163743079e-08 -6.6743923255e-01" quadrupole="-4.1758218314e+00 5.1349355716e-02 -3.3613319812e-09 5.1349355716e-02 -5.2142281705e+00 5.7517180631e-08 -3.3613319812e-09 5.7517180631e-08 -3.4032667297e+00" polarizability="6.2035496290e+00 -7.2180631046e-02 -4.1338970254e-09 -7.2180004239e-02 7.6632608865e+00 4.6322532613e-08 1.2205954760e-07 3.4494671668e-08 9.1295219793e+00" dipole_derivatives="-3.5218364231e-01 -1.4157498061e-06 -4.8009495075e-10 1.4157320133e-06 -3.5218364225e-01 7.1323557772e-09 -5.9347859960e-08 -9.5963792468e-08 -1.2769072089e-01 3.5218339930e-01 -2.6992463568e-07 4.9328330820e-10 2.6992491383e-07 3.5218339921e-01 -7.1183822953e-09 5.9351662474e-08 9.5963764712e-08 1.2768167412e-01" charge=0 multiplicity=2 method=b3lyp basis=def2-svpd config_type=oh_q0_m2 sample_index=289 temperature=500.0 units=atomic
O        -0.0000000001       0.0000000019       0.0594446119   4.611230500505e-11  -6.667742938427e-10  -2.102848812463e-02
H         0.0000000021      -0.0000000299      -0.9434291285  -4.612974461381e-11   6.667785300378e-10   2.102811995372e-02
2
Properties=species:S:1:pos:R:3:forces:R:3 energy=-7.568169407400e+01 dipole="2.2440600331e-09 -3.2142968761e-08 -6.7057750628e-01" quadrupole="-4.2754325498e+00 2.9638514208e-01 -1.7197155127e-08 2.9638514208e-01 -5.1356981532e+00 8.5016262291e-08 -1.7197155127e-08 8.5016262291e-08 -3.3823989948e+00" polarizability="6.3554382340e+00 -4.1933878857e-01 1.0275469063e-08 -4.1933884643e-01 7.5725710629e+00 8.2276466132e-08 -4.1790384112e-07 6.2469221058e-08 9.3182173026e+00" dipole_derivatives="-3.4926964695e-01 -1.3334590425e-06 -7.8374079846e-10 1.3334389736e-06 -3.4926964679e-01 1.0751387985e-08 -1.5273499132e-07 2.5129665016e-07 -1.2541485156e-01 3.4926942780e-01 -2.2695217107e-07 7.9368518466e-10 2.2695214852e-07 3.4926942762e-01 -1.0721126490e-08 1.5272072496e-07 -2.5131652315e-07 1.2541248579e-01" charge=0 multiplicity=2 method=b3lyp basis=def2-svpd config_type=oh_q0_m2 sample_index=290 temperature=500.0 units=atomic
O        -0.0000000002       0.0000000029       0.0602224349   1.032580638151e-10  -1.479222296579e-09  -3.086018941412e-02
H         0.0000000032      -0.0000000458      -0.9557737444  -1.032725207605e-10   1.479213183350e-09   3.085985430891e-02
2
Properties=species:S:1:pos:R:3:forces:R:3 energy=-7.568214097888e+01 dipole="-1.6517590234e-09 2.4294551796e-08 -6.5447246234e-01" quadrupole="-5.1710587728e+00 -9.8556328434e-03 3.9494562971e-09 -9.8556328434e-03 -4.1333102724e+00 -2.4145832728e-08 3.9494562971e-09 -2.4145832728e-08 -3.4819204857e+00" polarizability="7.5231395485e+00 1.3444675087e-02 5.2190798182e-09 1.3444719679e-02 6.1066854892e+00 -4.6860822547e-08 1.3291775005e-07 -2.4584491311e-07 8.4192350555e+00" dipole_derivatives="-3.6419799198e-01 -1.6102310875e-06 5.7210908659e-10 1.6102388546e-06 -3.6419799217e-01 -8.4512988132e-09 3.0947910901e-08 1.2133413718e-07 -1.3654745930e-01 3.6419751367e-01 -4.1956547399e-07 -5.7429069882e-10 4.1956511715e-07 3.6419751384e-01 8.4517621676e-09 -3.0942498563e-08 -1.2132900240e-07 1.3655697310e-01" charge=0 multiplicity=2 method=b3lyp basis=def2-svpd config_type=oh_q0_m2 sample_index=291 temperature=500.0 units=atomic
O         0.0000000001      -0.0000000021       0.0563667884   7.060730031173e-11  -1.039035434411e-09   2.799062587609e-02
H        -0.0000000023       0.0000000332      -0.8945818362  -7.064440257746e-11   1.039054321213e-09  -2.799114385655e-02
2
Properties=species:S:1:pos:R:3:forces:R:3 energy=-7.567634272252e+01 dipole="-4.9851684219e-09 7.1998109867e-08 -6.4091549216e-01" quadrupole="-4.1080712748e+00 1.2521702125e-01 1.8407683974e-08 1.2521702125e-01 -5.1087613561e+00 -1.7581842311e-07 1.8407683974e-08 -1.7581842311e-07 -3.5522451079e+00" polarizability="6.0435599266e+00 -1.6483526963e-01 -4.9712634958e-09 -1.6483443497e-01 7.3608896091e+00 -4.5564076644e-08 -1.2198324542e-07 -4.9092546012e-07 7.7775495730e+00" dipole_derivatives="-3.7685531985e-01 -1.3410726139e-08 1.6938390967e-09 1.3432409242e-08 -3.7685531973e-01 -2.6083974079e-08 2.1634394276e-07 -6.8884897786e-08 -1.4479251408e-01 3.7685708813e-01 9.0434925888e-08 -1.6732164872e-09 -9.0434505378e-08 3.7685708808e-01 2.6084321023e-08 -2.1636764602e-07 6.8896721661e-08 1.4479393411e-01" charge=0 multiplicity=2 method=b3lyp basis=def2-svpd config_type=oh_q0_m2 sample_index=292 temperature=500.0 units=atomic
O         0.0000000004      -0.0000000060       0.0533453955   7.490091119423e-10  -1.081860163362e-08   9.630524711234e-02
H        -0.0000000066       0.0000000951      -0.8466301381  -7.490021175557e-10   1.081863628501e-08  -9.630560351918e-02
2
Properties=species:S:1:pos:R:3:forces:R:3 energy=-7.568045173981e+01 dipole="-3.0732260655e-09 4.4401704107e-08 -6.4875562818e-01" quadrupole="-5.1432227266e+00 9.0942243794e-02 1.3897866911e-08 9.0942243794e-02 -4.1240113991e+00 -4.2221784052e-08 1.3897866911e-08 -4.2221784052e-08 -3.5129810833e+00" polarizability="7.4515917596e+00 -1.2232429265e-01 -5.0666699690e-09 -1.2232472985e-01 6.0806298151e+00 -1.3960217282e-07 1.7331350396e-07 -2.7627627136e-07 8.1373652024e+00" dipole_derivatives="-3.6951246503e-01 3.9301803972e-08 1.0948227676e-09 -3.9307647157e-08 -3.6951246489e-01 -1.5696396189e-08 1.0309747500e-07 8.0887241349e-08 -1.4017731603e-01 3.6951396852e-01 1.6495789566e-08 -1.0857133533e-09 -1.6501512116e-08 3.6951396836e-01 1.5705146361e-08 -1.0313139231e-07 -8.0892542664e-08 1.4017877742e-01" charge=0 multiplicity=2 method=b3lyp basis=def2-svpd config_type=oh_q0_m2 sample_index=293 temperature=500.0 units=atomic
O         0.0000000003      -0.0000000038       0.0550709706   2.577837637725e-10  -3.726746905249e-09   5.444119751320e-02
H        -0.0000000041       0.0000000598      -0.8740162669  -2.578261144623e-10   3.726749779913e-09  -5.444146202652e-02
2
Properties=species:S:1:pos:R:3:forces:R:3 energy=-7.566517820893e+01 dipole="9.2540005135e-09 -1.3369592367e-07 -6.9913210273e-01" quadrupole="-4.2788064108e+00 -2.2373317705e-02 -1.0609739925e-08 -2.2373317705e-02 -5.3317953956e+00 4.1616737715e-07 -1.0609739925e-08 4.1616737715e-07 -3.1541101309e+00" polarizability="6.5067977601e+00 3.3087369338e-02 -7.1611687127e-08 3.3087059680e-02 8.0641443526e+00 6.4401621576e-07 -2.0607291159e-07 6.4296089036e-07 1.1430326806e+01" dipole_derivatives="-3.2217135262e-01 7.9511574362e-12 -2.9066779218e-09 2.0692740588e-11 -3.2217135260e-01 4.1875136381e-08 9.1221488696e-08 9.6290128648e-08 -1.0317809800e-01 3.2217158226e-01 -2.6350958002e-14 2.8986197137e-09 7.2577215720e-14 3.2217158226e-01 -4.1876951635e-08 -9.1204821473e-08 -9.6276556172e-08 1.0317886954e-01" charge=0 multiplicity=2 method=b3lyp basis=def2-svpd config_type=oh_q0_m2 sample_index=294 temperature=500.0 units=atomic
O        -0.0000000009       0.0000000130       0.0680674748   1.208168227304e-09  -1.745498681767e-08  -9.127695373432e-02
H         0.0000000143      -0.0000002066      -1.0802802200  -1.208191415386e-09   1.745518026812e-08   9.127784693352e-02
2
Properties=species:S:1:pos:R:3:forces:R:3 energy=-7.567783307862e+01 dipole="4.7489553620e-09 -6.8539388865e-08 -6.8092102605e-01" quadrupole="-5.2369213456e+00 1.6959907858e-01 -3.0573267116e-08 1.6959907858e-01 -4.2447783584e+00 9.5505208655e-08 -3.0573267116e-08 9.5505208655e-08 -3.3080988104e+00" polarizability="7.7859652314e+00 -2.4454952025e-01 9.3367463288e-09 -2.4455077818e-01 6.3553509508e+00 3.6523908268e-07 1.1848120990e-07 5.3230309933e-07 9.9942456040e+00" dipole_derivatives="-3.3960441239e-01 1.1959976478e-07 -1.5176043505e-09 -1.1942691969e-07 -3.3960441986e-01 2.2458159118e-08 -2.7610330688e-07 -1.3106060681e-07 -1.1766905772e-01 3.3960450076e-01 -4.1371141124e-10 1.5293068764e-09 3.5776081148e-10 3.3960450822e-01 -2.2462371853e-08 2.7624749710e-07 1.3104584085e-07 1.1767275258e-01" charge=0 multiplicity=2 method=b3lyp basis=def2-svpd config_type=oh_q0_m2 sample_index=295 temperature=500.0 units=atomic
O        -0.0000000004       0.0000000063       0.0628918766   4.072151921480e-10  -5.877068751081e-09  -5.838708738632e-02
H         0.0000000070      -0.0000001005      -0.9981397210  -4.072126846398e-10   5.877074417074e-09   5.838728880076e-02
2
Properties=species:S:1:pos:R:3:forces:R:3 energy=-7.568076960123e+01 dipole="3.0099994610e-09 -4.3448657313e-08 -6.7380211430e-01" quadrupole="-4.2343177182e+00 2.0256078815e-01 -1.6931881979e-08 2.0256078815e-01 -5.1986288755e+00 1.1949981213e-07 -1.6931881979e-08 1.1949981213e-07 -3.3601645517e+00" polarizability="6.3097751080e+00 -2.8839454636e-01 4.3214254768e-09 -2.8839449520e-01 7.6827138560e+00 1.1715155844e-07 -6.0017347910e-07 1.0456033023e-07 9.5197286237e+00" dipole_derivatives="-3.4626860415e-01 1.1065554306e-07 -9.1869322748e-10 -1.1068949031e-07 -3.4626860421e-01 1.4404048272e-08 -8.1059797763e-08 -2.7183384710e-07 -1.2299247291e-01 3.4626900381e-01 1.7756549648e-09 9.3856882168e-10 -1.7735378420e-09 3.4626900388e-01 -1.4404323551e-08 8.1068748936e-08 2.7182728290e-07 1.2305236050e-01" charge=0 multiplicity=2 method=b3lyp basis=def2-svpd config_type=oh_q0_m2 sample_index=296 temperature=500.0 units=atomic
O        -0.0000000003       0.0000000039       0.0610366079   1.796749705088e-10  -2.593393056007e-09  -4.021872109848e-02
H         0.0000000043      -0.0000000625      -0.9686952608  -1.796561184014e-10   2.593408726196e-09   4.021858939416e-02
2
Properties=species:S:1:pos:R:3:forces:R:3 energy=-7.568194677578e+01 dipole="1.9837835951e-09 -2.8330121429e-08 -6.6948874284e-01" quadrupole="-4.2465505323e+00 -2.5552275734e-01 8.2998297570e-09 -2.5552275734e-01 -5.1572514566e+00 7.4084976451e-08 8.2998297570e-09 7.4084976451e-08 -3.3897233976e+00" polarizability="6.3104648885e+00 3.6068378136e-01 4.7264951042e-07 3.6068383803e-01 7.5959616463e+00 -3.9504090694e-08 -3.6969670309e-07 5.0696722488e-08 9.2519463528e+00" dipole_derivatives="-3.5028126272e-01 -1.3385100648e-06 -7.0014078032e-10 1.3384836574e-06 -3.5028126275e-01 9.5012944073e-09 -9.3853813610e-09 -1.3646425656e-07 -1.2628538131e-01 3.5028103140e-01 -2.4046217227e-07 6.8303960834e-10 2.4046227090e-07 3.5028103142e-01 -9.4902261131e-09 9.3832719372e-09 1.3644710362e-07 1.2619470899e-01" charge=0 multiplicity=2 method=b3lyp basis=def2-svpd config_type=oh_q0_m2 sample_index=297 temperature=500.0 units=atomic
O        -0.0000000002       0.0000000025       0.0599510097   8.161712870217e-11  -1.165017007023e-09  -2.753190884419e-02
H         0.0000000028      -0.0000000403      -0.9514660294  -8.160915764775e-11   1.165036210412e-09   2.753174935203e-02
2
Properties=species:S:1:pos:R:3:forces:R:3 energy=-7.567889166669e+01 dipole="-3.9454158132e-09 5.6635616526e-08 -6.4526922637e-01" quadrupole="-4.1058576759e+00 1.7987874494e-02 5.1327422445e-09 1.7987874494e-02 -5.1388919714e+00 -1.4120191190e-07 5.1327422445e-09 -1.4120191190e-07 -3.5309058429e+00" polarizability="6.0489985046e+00 -2.3977539279e-02 9.6211756570e-09 -2.3977307133e-02 7.4260179092e+00 -4.7968090229e-08 -1.0637120141e-07 -5.9450398770e-07 7.9737390745e+00" dipole_derivatives="-3.7276766132e-01 1.9024753064e-08 1.7846677388e-09 -1.9022308804e-08 -3.7276766138e-01 -2.0211113514e-08 3.3300104341e-07 -7.4231315539e-07 -1.4228807590e-01 3.7276929419e-01 3.6712268887e-08 -1.8115124762e-09 -3.6711408848e-08 3.7276929422e-01 2.0209266901e-08 -3.3301381097e-07 7.4232328617e-07 1.4228290021e-01" charge=0 multiplicity=2 method=b3lyp basis=def2-svpd config_type=oh_q0_m2 sample_index=298 temperature=500.0 units=atomic
O         0.0000000003      -0.0000000048       0.0542967000   4.414693586764e-10  -6.338529675167e-09   7.221672031766e-02
H        -0.0000000053       0.0000000756      -0.8617280316  -4.414832507758e-10   6.338471737354e-09  -7.221636465854e-02
2
Properties=species:S:1:pos:R:3:forces:R:3 energy=-7.567609172660e+01 dipole="-5.0609750191e-09 7.3348495449e-08 -6.4054212305e-01" quadrupole="-5.1225977109e+00 -1.7780438860e-02 1.0382627483e-08 -1.7780438860e-02 -4.0918460718e+00 -6.1444819375e-08 1.0382627483e-08 -6.1444819375e-08 -3.5540227248e+00" polarizability="7.3774736440e+00 2.3389699064e-02 5.6946025085e-09 2.3389784355e-02 6.0215456525e+00 -1.9836937845e-07 1.9321546203e-07 -2.7324405175e-07 7.7611285551e+00" dipole_derivatives="-3.7720734548e-01 -2.0864041334e-08 1.8425264129e-09 2.0875231684e-08 -3.7720734551e-01 -2.6213709071e-08 2.7056745733e-07 1.5932272168e-07 -1.4500837075e-01 3.7720912388e-01 9.9209668403e-08 -1.8235887081e-09 -9.9215183884e-08 3.7720912393e-01 2.6213730430e-08 -2.7057769914e-07 -1.5929024766e-07 1.4500310796e-01" charge=0 multiplicity=2 method=b3lyp basis=def2-svpd config_type=oh_q0_m2 sample_index=299 temperature=500.0 units=atomic
O         0.0000000004      -0.0000000061       0.0532645633   7.780135131994e-10  -1.127637195096e-08   9.847500344211e-02
H        -0.0000000067       0.0000000968      -0.8453472727  -7.780548453716e-10   1.127631243434e-08  -9.847453884091e-02
2
Properties=species:S:1:pos:R:3:forces:R:3 energy=-7.567042720437e+01 dipole="7.6327435924e-09 -1.1064369868e-07 -6.9272884309e-01" quadrupole="-5.0886200029e+00 -4.2772999988e-01 4.7601507267e-08 -4.2772999988e-01 -4.4759166444e+00 1.9713266120e-07 4.7601507267e-08 1.9713266120e-07 -3.2119252380e+00" polarizability="7.6549473562e+00 6.2768754366e-01 -1.3656524683e-07 6.2768756861e-01 6.7558233857e+00 6.6761616127e-07 -1.1399787251e-08 6.6048730857e-07 1.0884430148e+01" dipole_derivatives="-3.2838234368e-01 1.2012074234e-07 -2.4152975865e-09 -1.2009890281e-07 -3.2838234348e-01 3.5139680057e-08 1.2532710980e-08 1.3429941881e-07 -1.0836496823e-01 3.2838197495e-01 7.0568567435e-10 2.4095452977e-09 -6.9435669148e-10 3.2838197475e-01 -3.5137376669e-08 -1.2501208402e-08 -1.3430791201e-07 1.0840366372e-01" charge=0 multiplicity=2 method=b3lyp basis=def2-svpd config_type=oh_q0_m2 sample_index=300 temperature=500.0 units=atomic
O        -0.0000000007       0.0000000106       0.0661689361   9.006850048071e-10  -1.305597194716e-08  -8.174225964992e-02
H         0.0000000116      -0.0000001677      -1.0501490338  -9.006737031234e-10   1.305609837121e-08   8.174289128882e-02
2
Properties=species:S:1:pos:R:3:forces:R:3 energy=-7.568215162038e+01 dipole="1.7255761830e-09 -2.4821735661e-08 -6.6849070438e-01" quadrupole="-5.1930331889e+00 1.6707156618e-01 -1.0783339948e-08 1.6707156618e-01 -4.2040631686e+00 3.0443398422e-08 -1.0783339948e-08 3.0443398422e-08 -3.3963584211e+00" polarizability="7.6402879781e+00 -2.3538759291e-01 4.7876353899e-09 -2.3538847519e-01 6.2469338699e+00 1.0904000919e-07 -3.1336256507e-07 4.5672793590e-07 9.1919517693e+00" dipole_derivatives="-3.5120800284e-01 -1.3827741012e-06 -2.1422131023e-10 1.3827455417e-06 -3.5120800273e-01 9.4563713401e-09 -2.0992899086e-07 1.1387557564e-09 -1.2692385867e-01 3.5120776795e-01 -2.5521788712e-07 2.6659740236e-10 2.5521806305e-07 3.5120776787e-01 -9.4604062754e-09 2.0994112004e-07 -1.1415313139e-09 1.2692462952e-01" charge=0 multiplicity=2 method=b3lyp basis=def2-svpd config_type=oh_q0_m2 sample_index=301 temperature=500.0 units=atomic
O        -0.0000000002       0.0000000022       0.0597036606   6.300611487123e-11  -9.061594489453e-10  -2.440405290251e-02
H         0.0000000024      -0.0000000352      -0.9475404188  -6.299459240695e-11   9.061421861652e-10   2.440383403270e-02
2
Properties=species:S:1:pos:R:3:forces:R:3 energy=-7.568252331165e+01 dipole="-1.1633759661e-09 1.6423386751e-08 -6.5671191641e-01" quadrupole="-4.1417392646e+00 -4.1973741744e-02 1.4263131703e-10 -4.1973741744e-02 -5.1772766580e+00 -4.2670882641e-08 1.4263131703e-10 -4.2670882641e-08 -3.4691692366e+00" polarizability="6.1239872379e+00 5.7603064159e-02 5.6843055738e-09 5.7602568395e-02 7.5451855230e+00 -2.4857863494e-08 -5.2987299880e-08 -9.5448336608e-07 8.5345473931e+00" dipole_derivatives="-3.6212191594e-01 -1.4395707619e-06 4.2388764881e-10 1.4395813520e-06 -3.6212191587e-01 -5.6194848416e-09 -1.4198608955e-07 7.1486733200e-08 -1.3507618768e-01 3.6212146281e-01 -3.8671345394e-07 -4.0203164675e-10 3.8671321121e-07 3.6212146273e-01 5.6786937834e-09 1.4198231479e-07 -7.1480904529e-08 1.3508542165e-01" charge=0 multiplicity=2 method=b3lyp basis=def2-svpd config_type=oh_q0_m2 sample_index=302 temperature=500.0 units=atomic
O         0.0000000001      -0.0000000014       0.0568839410   3.283119437480e-11  -4.626116949969e-10   1.848446047070e-02
H        -0.0000000016       0.0000000226      -0.9027894234  -3.286216959721e-11   4.626286050816e-10  -1.848481518326e-02
2
Properties=species:S:1:pos:R:3:forces:R:3 energy=-7.565944369506e+01 dipole="-9.1341151467e-09 1.3211057160e-07 -6.2415215804e-01" quadrupole="-5.0664089883e+00 -1.9067311034e-02 1.7104482094e-08 -1.9067311034e-02 -4.0442028113e+00 -8.8675169467e-08 1.7104482094e-08 -8.8675169467e-08 -3.6241916437e+00" polarizability="7.2144408250e+00 2.3823191053e-02 3.2829016718e-09 2.3823265248e-02 5.9370962943e+00 -2.4400307718e-07 1.4810781328e-07 -2.9706761550e-07 7.0961263896e+00" dipole_derivatives="-3.9297770170e-01 -1.4646724815e-07 -2.5392356071e-09 1.4652570811e-07 -3.9297766797e-01 -5.1779061100e-08 -1.3800643961e-07 3.1638144882e-07 -1.5312551336e-01 3.9298007954e-01 3.3422866697e-07 2.5229576925e-09 -3.3411322181e-07 3.9298004573e-01 5.1776634409e-08 1.3804402066e-07 -3.1631569586e-07 1.5312013796e-01" charge=0 multiplicity=2 method=b3lyp basis=def2-svpd config_type=oh_q0_m2 sample_index=303 temperature=500.0 units=atomic
O         0.0000000007      -0.0000000105       0.0498190118   3.101738169944e-09  -4.486163073266e-08   2.119473563382e-01
H        -0.0000000116       0.0000001674      -0.7906638707  -3.101732660693e-09   4.486147547155e-08  -2.119465827502e-01
2
Properties=species:S:1:pos:R:3:forces:R:3 energy=-7.568197150409e+01 dipole="1.9863906549e-09 -2.7941963298e-08 -6.6937461410e-01" quadrupole="-4.2154666742e+00 1.9070114196e-01 -1.0380604565e-08 1.9070114196e-01 -5.1875675687e+00 7.5583927767e-08 -1.0380604565e-08 7.5583927767e-08 -3.3904857038e+00" polarizability="6.2661760763e+00 -2.6913650026e-01 2.4721209848e-09 -2.6913653137e-01 7.6381233448e+00 6.6255673854e-08 -3.2018757516e-07 4.8840902802e-08 9.2450516864e+00" dipole_derivatives="-3.5038726994e-01 -1.2908301348e-06 -1.4783095504e-09 1.2908399840e-06 -3.5038726981e-01 9.1890722909e-09 -1.1295431257e-07 3.0671018503e-07 -1.2639133964e-01 3.5038702666e-01 -2.3886711626e-07 1.4796428386e-09 2.3886722423e-07 3.5038702651e-01 -9.1906848408e-09 1.1294962188e-07 -3.0672675511e-07 1.2629515245e-01" charge=0 multiplicity=2 method=b3lyp basis=def2-svpd config_type=oh_q0_m2 sample_index=305 temperature=500.0 units=atomic
O        -0.0000000002       0.0000000025       0.0599226608   8.066548314143e-11  -1.134480678538e-09  -2.717810088382e-02
H         0.0000000028      -0.0000000397      -0.9510161111  -8.065836589974e-11   1.134495202487e-09   2.717789501091e-02
2
Properties=species:S:1:pos:R:3:forces:R:3 energy=-7.568281305950e+01 dipole="3.3722521982e-10 -4.9845949204e-09 -6.6283435392e-01" quadrupole="-4.1609529100e+00 -4.6222815109e-02 -5.9612514624e-11 -4.6222815109e-02 -5.1984183462e+00 1.3304343520e-08 -5.9612514624e-11 1.3304343520e-08 -3.4325596379e+00" polarizability="6.1679516703e+00 6.4335440491e-02 -1.8657698015e-09 6.4334877825e-02 7.6120161487e+00 9.4506930380e-09 2.1122553160e-08 5.9718752053e-07 8.8650600698e+00" dipole_derivatives="-3.5645137409e-01 -1.5594027123e-06 -1.4565919150e-10 1.5593677721e-06 -3.5645137410e-01 1.6708920489e-09 -2.7832597338e-08 1.4810105919e-07 -1.3093530492e-01 3.5645108814e-01 -3.3299791218e-07 1.0374675443e-10 3.3299776761e-07 3.5645108814e-01 -1.6965375502e-09 2.7849417217e-08 -1.4809023452e-07 1.3092919344e-01" charge=0 multiplicity=2 method=b3lyp basis=def2-svpd config_type=oh_q0_m2 sample_index=306 temperature=500.0 units=atomic
O        -0.0000000000       0.0000000004       0.0583276341   2.665632010853e-12  -3.937594202413e-11  -5.233013870641e-03
H         0.0000000005      -0.0000000070      -0.9257018798  -2.658748434184e-12   3.934952223071e-11   5.232566942626e-03
2
Properties=species:S:1:pos:R:3:forces:R:3 energy=-7.568251871219e+01 dipole="1.2021926258e-09 -1.6891130610e-08 -6.6623273496e-01" quadrupole="-4.3248908491e+00 3.7138116551e-01 -1.1072541020e-08 3.7138116551e-01 -5.0570932709e+00 4.2401320431e-08 -1.1072541020e-08 4.2401320431e-08 -3.4110920891e+00" polarizability="6.4085199410e+00 -5.2070467629e-01 -3.5450951465e-07 -5.2070475637e-01 7.4351260239e+00 -9.5780845703e-08 -1.7833844258e-07 3.0111254196e-09 9.0588385904e+00" dipole_derivatives="-3.5330260764e-01 -1.3338840415e-06 -2.8184880821e-10 1.3338720236e-06 -3.5330260770e-01 5.7644003285e-09 -6.8936689690e-08 2.2621585161e-07 -1.2846900700e-01 3.5330232653e-01 -2.7885342024e-07 3.0069132389e-10 2.7885361395e-07 3.5330232652e-01 -5.7338981645e-09 6.8924532748e-08 -2.2619281448e-07 1.2853581098e-01" charge=0 multiplicity=2 method=b3lyp basis=def2-svpd config_type=oh_q0_m2 sample_index=307 temperature=500.0 units=atomic
O        -0.0000000001       0.0000000015       0.0591492251   3.072944557563e-11  -4.323112435063e-10  -1.705085002720e-02
H         0.0000000017      -0.0000000238      -0.9387411254  -3.071951073227e-11   4.323039634344e-10   1.705062121237e-02
2
Properties=species:S:1:pos:R:3:forces:R:3 energy=-7.568193148517e+01 dipole="1.9854204282e-09 -2.8590134056e-08 -6.6955863110e-01" quadrupole="-4.1954106779e+00 1.2601440209e-01 -7.7432175516e-09 1.2601440209e-01 -5.2088606918e+00 7.8020955830e-08 -7.7432175516e-09 7.8020955830e-08 -3.3892558211e+00" polarizability="6.2385309016e+00 -1.7791424280e-01 -1.3193063829e-09 -1.7791423494e-01 7.6693270029e+00 6.7201689627e-08 -3.0173395407e-07 5.4150256943e-08 9.2561759623e+00" dipole_derivatives="-3.5021631382e-01 -1.3686147322e-06 -6.7259672637e-10 1.3686028221e-06 -3.5021631411e-01 9.5824718315e-09 -3.8383962675e-07 3.0271193885e-07 -1.2612969689e-01 3.5021609047e-01 -2.4140043267e-07 6.6431062617e-10 2.4140051713e-07 3.5021609077e-01 -9.5675870132e-09 3.8385031265e-07 -3.0270347340e-07 1.2614856130e-01" charge=0 multiplicity=2 method=b3lyp basis=def2-svpd config_type=oh_q0_m2 sample_index=308 temperature=500.0 units=atomic
O        -0.0000000002       0.0000000026       0.0599683861   8.227464450665e-11  -1.184850966887e-09  -2.774841079536e-02
H         0.0000000028      -0.0000000406      -0.9517418060  -8.228065904669e-11   1.184840828021e-09   2.774804570292e-02
2
Properties=species:S:1:pos:R:3:forces:R:3 energy=-7.568074522332e+01 dipole="3.0747188911e-09 -4.3763260028e-08 -6.7387646349e-01" quadrupole="-5.2393941761e+00 -1.8359962503e-02 -7.3573708839e-09 -1.8359962503e-02 -4.1940573017e+00 5.4066135721e-08 -7.3573708839e-09 5.4066135721e-08 -3.3596422873e+00" polarizability="7.7412763601e+00 2.6143915500e-02 -9.8410973740e-09 2.6144095450e-02 6.2527512434e+00 2.1307182289e-07 -7.0743062453e-07 2.7419032353e-07 9.5244716380e+00" dipole_derivatives="-3.4619931848e-01 1.1238028429e-07 -1.0464791726e-09 -1.1237456748e-07 -3.4619931864e-01 1.4497781891e-08 6.0920712919e-09 -2.0762443154e-07 -1.2299018383e-01 3.4619971472e-01 1.7758232243e-09 1.0230621091e-09 -1.7691444572e-09 3.4619971488e-01 -1.4506341343e-08 -6.0832033855e-09 2.0764159836e-07 1.2298590538e-01" charge=0 multiplicity=2 method=b3lyp basis=def2-svpd config_type=oh_q0_m2 sample_index=309 temperature=500.0 units=atomic
O        -0.0000000003       0.0000000040       0.0610555571   1.846165677365e-10  -2.625551342704e-09  -4.042565108327e-02
H         0.0000000044      -0.0000000629      -0.9689959974  -1.846179962812e-10   2.625567496448e-09   4.042562542616e-02
2
Properties=species:S:1:pos:R:3:forces:R:3 energy=-7.567756696867e+01 dipole="4.9342690264e-09 -7.0425160585e-08 -6.8145079604e-01" quadrupole="-5.1466308056e+00 3.3432142742e-01 -4.7836387182e-08 3.3432142742e-01 -4.3387315053e+00 1.0936892331e-07 -4.7836387182e-08 1.0936892331e-07 -3.3040532968e+00" polarizability="7.6593896764e+00 -4.8249994864e-01 3.2949671546e-08 -4.8249992792e-01 6.4934058709e+00 3.6278755784e-07 1.8769253783e-07 3.5614592482e-07 1.0031306154e+01" dipole_derivatives="-3.3910586615e-01 1.2008232961e-07 -1.6137741414e-09 -1.2027537921e-07 -3.3910585086e-01 2.2960187758e-08 1.0800239592e-06 -4.4373921204e-08 -1.1719421401e-01 3.3910593322e-01 1.0532151560e-09 1.6174583688e-09 -4.6026996864e-10 3.3910591795e-01 -2.2956606825e-08 -1.0804954709e-06 4.4369660723e-08 1.1725520806e-01" charge=0 multiplicity=2 method=b3lyp basis=def2-svpd config_type=oh_q0_m2 sample_index=310 temperature=500.0 units=atomic
O        -0.0000000005       0.0000000065       0.0630333404   4.316517696161e-10  -6.160399503680e-09  -5.960961044583e-02
H         0.0000000072      -0.0000001034      -1.0003848542  -4.316226800382e-10   6.160412896613e-09   5.960967196588e-02
2
Properties=species:S:1:pos:R:3:forces:R:3 energy=-7.568148712268e+01 dipole="-2.3558117486e-09 3.3604980389e-08 -6.5181884815e-01" quadrupole="-4.1254554180e+00 -1.6939603330e-02 1.4013640289e-09 -1.6939603330e-02 -5.1616326429e+00 -8.5749640946e-08 1.4013640289e-09 -8.5749640946e-08 -3.4966004643e+00" polarizability="6.0895614104e+00 2.2974874050e-02 9.0807961071e-09 2.2974630164e-02 7.4945984547e+00 -4.0923286598e-08 -8.5125264061e-08 -8.2399296813e-07 8.2862270243e+00" dipole_derivatives="-3.6666140472e-01 -1.4965986106e-06 8.4588401974e-10 1.4965719143e-06 -3.6666140487e-01 -1.1748699079e-08 8.5812079664e-08 2.0201915141e-07 -1.3826721450e-01 3.6666081716e-01 -4.3037848371e-07 -8.2542312575e-10 4.3037811008e-07 3.6666081728e-01 1.1775129773e-08 -8.5816881379e-08 -2.0202353679e-07 1.3826249634e-01" charge=0 multiplicity=2 method=b3lyp basis=def2-svpd config_type=oh_q0_m2 sample_index=311 temperature=500.0 units=atomic
O         0.0000000002      -0.0000000029       0.0557610921   1.440897922311e-10  -2.055383547727e-09   3.986705138255e-02
H        -0.0000000032       0.0000000456      -0.8849689970  -1.440891729349e-10   2.055398455940e-09  -3.986752841478e-02
2
Properties=species:S:1:pos:R:3:forces:R:3 energy=-7.568223521573e+01 dipole="-1.5132188362e-09 2.2684891482e-08 -6.5494938784e-01" quadrupole="-4.5848383684e+00 -5.1448077523e-01 -1.5228295530e-08 -5.1448077523e-01 -4.7226438920e+00 -4.1823136705e-08 -1.5228295530e-08 -4.1823136705e-08 -3.4792333595e+00" polarizability="6.7250169405e+00 7.0316877596e-01 2.8142968541e-08 7.0316894668e-01 6.9133632950e+00 -5.4482520998e-08 1.5624939385e-07 -1.0671197492e-06 8.4435498955e+00" dipole_derivatives="-3.6375569364e-01 -1.6772016484e-06 5.4831240297e-10 1.6772000481e-06 -3.6375569356e-01 -7.8712437443e-09 1.5312001667e-08 4.9751203157e-08 -1.3624892594e-01 3.6375524818e-01 -4.2034850818e-07 -5.2594748054e-10 4.2034803937e-07 3.6375524816e-01 7.8811630014e-09 -1.5300760658e-08 -4.9741266661e-08 1.3624797449e-01" charge=0 multiplicity=2 method=b3lyp basis=def2-svpd config_type=oh_q0_m2 sample_index=313 temperature=500.0 units=atomic
O         0.0000000001      -0.0000000020       0.0564764398   5.981774315622e-11  -8.980108253684e-10   2.592751898703e-02
H        -0.0000000021       0.0000000310      -0.8963220834  -5.986706828355e-11   8.980115921165e-10  -2.592800606686e-02
2
Properties=species:S:1:pos:R:3:forces:R:3 energy=-7.568234709397e+01 dipole="1.4643421667e-09 -2.0966706525e-08 -6.6739181657e-01" quadrupole="-4.2089874180e+00 1.9005339662e-01 -7.7762122610e-09 1.9005339662e-01 -5.1807456033e+00 5.6206914475e-08 -7.7762122610e-09 5.6206914475e-08 -3.4035760876e+00" polarizability="6.2500058152e+00 -2.6713291510e-01 2.1457606321e-09 -2.6713296874e-01 7.6158999845e+00 4.6858389010e-08 -2.1331045432e-07 2.4549112069e-08 9.1267262894e+00" dipole_derivatives="-3.5222762595e-01 -1.3841168169e-06 -5.5932986465e-10 1.3841533994e-06 -3.5222762581e-01 7.0177860090e-09 2.0783005872e-07 1.0602591027e-07 -1.2778461070e-01 3.5222737452e-01 -2.6853082840e-07 5.7510262154e-10 2.6853114339e-07 3.5222737442e-01 -7.0226403715e-09 -2.0785023702e-07 -1.0602790868e-07 1.2771902393e-01" charge=0 multiplicity=2 method=b3lyp basis=def2-svpd config_type=oh_q0_m2 sample_index=314 temperature=500.0 units=atomic
O        -0.0000000001       0.0000000019       0.0594329713   4.575653333771e-11  -6.557759538679e-10  -2.087436294821e-02
H         0.0000000021      -0.0000000296      -0.9432443839  -4.577255302897e-11   6.557871283598e-10   2.087400279505e-02
2
Properties=species:S:1:pos:R:3:forces:R:3 energy=-7.567921502122e+01 dipole="-3.7273376223e-09 5.4362915954e-08 -6.4592086267e-01" quadrupole="-5.1411538877e+00 -1.7712161314e-02 7.8376342699e-09 -1.7712161314e-02 -4.1077890953e+00 -4.8705295974e-08 7.8376342699e-09 -4.8705295974e-08 -3.5276128533e+00" polarizability="7.4327886674e+00 2.3651811505e-02 5.2750415675e-09 2.3651903102e-02 6.0528881574e+00 -1.6357714617e-07 1.8944984872e-07 -2.5480646975e-07 8.0038691684e+00" dipole_derivatives="-3.7215815620e-01 2.5767252479e-08 1.3143017586e-09 -2.2626755824e-08 -3.7215827618e-01 -1.9345846280e-08 5.9526272800e-09 1.4913544288e-06 -1.4189433218e-01 3.7215976599e-01 2.8280478782e-08 -1.3393456147e-09 -3.1265507709e-08 3.7215988598e-01 1.9338600618e-08 -5.9519889017e-09 -1.4898707268e-06 1.4189578313e-01" charge=0 multiplicity=2 method=b3lyp basis=def2-svpd config_type=oh_q0_m2 sample_index=315 temperature=500.0 units=atomic
O         0.0000000003      -0.0000000046       0.0544405455   3.970762573034e-10  -5.789975247366e-09   6.879448748436e-02
H        -0.0000000050       0.0000000727      -0.8640109634  -3.969848253780e-10   5.789997510998e-09  -6.879469144590e-02
2
Properties=species:S:1:pos:R:3:forces:R:3 energy=-7.568142220301e+01 dipole="2.5012749154e-09 -3.5804910970e-08 -6.7162559258e-01" quadrupole="-4.2536679386e+00 -2.5622433312e-01 1.0356373609e-08 -2.5622433312e-01 -5.1645375744e+00 9.4464609479e-08 1.0356373609e-08 9.4464609479e-08 -3.3752613509e+00" polarizability="6.3286708635e+00 3.6321193503e-01 5.1849681445e-07 3.6321196599e-01 7.6198822232e+00 -2.7911303708e-08 -5.1733176724e-07 7.8456172219e-08 9.3828475771e+00" dipole_derivatives="-3.4829494468e-01 -1.3130055416e-06 -7.0963193372e-10 1.3130603993e-06 -3.4829494480e-01 1.1919009771e-08 -1.9181464750e-07 -1.1144804524e-07 -1.2472180504e-01 3.4829473145e-01 -2.1304390107e-07 7.1745886542e-10 2.1304379258e-07 3.4829473157e-01 -1.1903124689e-08 1.9178517108e-07 1.1145398493e-07 1.2465248709e-01" charge=0 multiplicity=2 method=b3lyp basis=def2-svpd config_type=oh_q0_m2 sample_index=316 temperature=500.0 units=atomic
O        -0.0000000002       0.0000000032       0.0604853743   1.265725097350e-10  -1.811625581096e-09  -3.398286192351e-02
H         0.0000000036      -0.0000000512      -0.9599467827  -1.265373845518e-10   1.811641714526e-09   3.398272366516e-02
2
Properties=species:S:1:pos:R:3:forces:R:3 energy=-7.567405204899e+01 dipole="6.3621875091e-09 -9.2093660685e-08 -6.8754557298e-01" quadrupole="-4.2666292685e+00 -1.6937548134e-01 1.3334549378e-08 -1.6937548134e-01 -5.2612233291e+00 2.6701518470e-07 1.3334549378e-08 2.6701518470e-07 -3.2557306769e+00" polarizability="6.4197917399e+00 2.4679351329e-01 -7.0812142426e-08 2.4679256890e-01 7.8690016869e+00 3.5149896740e-07 -1.4176453056e-06 3.4520409658e-07 1.0476440713e+01" dipole_derivatives="-3.3333972682e-01 1.2081716568e-07 -2.0546465995e-09 -1.2098784016e-07 -3.3333971468e-01 2.9569649423e-08 1.0276871021e-07 1.0503073411e-07 -1.1252332707e-01 3.3333954439e-01 -2.2788651302e-10 2.0227288990e-09 4.6763740362e-10 3.3333953224e-01 -2.9572168656e-08 -1.0284199881e-07 -1.0505704640e-07 1.1252811789e-01" charge=0 multiplicity=2 method=b3lyp basis=def2-svpd config_type=oh_q0_m2 sample_index=317 temperature=500.0 units=atomic
O        -0.0000000006       0.0000000087       0.0646971799   6.705390658176e-10  -9.706082206657e-09  -7.246299509279e-02
H         0.0000000095      -0.0000001375      -1.0267911937  -6.705349706628e-10   9.706155608188e-09   7.246344689552e-02
2
Properties=species:S:1:pos:R:3:forces:R:3 energy=-7.567069556215e+01 dipole="-6.7403583989e-09 9.7049931685e-08 -6.3387126577e-01" quadrupole="-5.0920987475e+00 8.9778964594e-02 2.9719745279e-08 8.9778964594e-02 -4.0798827329e+00 -7.6858504809e-08 2.9719745279e-08 -7.6858504809e-08 -3.5844051742e+00" polarizability="7.2998321885e+00 -1.1572575842e-01 -1.5702786372e-08 -1.1572611119e-01 5.9950410813e+00 -2.2448093938e-07 1.6033597368e-07 -3.0246229391e-07 7.4777732426e+00" dipole_derivatives="-3.8354254523e-01 -1.1662773922e-07 2.6021358296e-09 1.1657762004e-07 -3.8354254441e-01 -3.4904963874e-08 6.1289529008e-08 -4.2929354516e-08 -1.4856081370e-01 3.8354457392e-01 2.9580051284e-07 -2.6098258974e-09 -2.9570615799e-07 3.8354457314e-01 3.4884724798e-08 -6.1290250652e-08 4.2842007719e-08 1.4856217992e-01" charge=0 multiplicity=2 method=b3lyp basis=def2-svpd config_type=oh_q0_m2 sample_index=318 temperature=500.0 units=atomic
O         0.0000000006      -0.0000000079       0.0518392996   1.490365252249e-09  -2.145818985303e-08   1.401539430231e-01
H        -0.0000000087       0.0000001260      -0.8227273040  -1.490372519250e-09   2.145819383086e-08  -1.401539512804e-01
2
Properties=species:S:1:pos:R:3:forces:R:3 energy=-7.568081201263e+01 dipole="3.0123336113e-09 -4.3005773660e-08 -6.7367174110e-01" quadrupole="-4.2014192535e+00 -9.3029515246e-02 2.2176297133e-09 -9.3029515246e-02 -5.2306437115e+00 1.1892575609e-07 2.2176297133e-09 1.1892575609e-07 -3.3610794864e+00" polarizability="6.2624303758e+00 1.3239409876e-01 -2.3054034169e-08 1.3239298803e-01 7.7271653724e+00 1.1447157842e-07 3.3448577798e-07 1.0691971533e-07 9.5114255503e+00" dipole_derivatives="-3.4639015914e-01 1.1166240343e-07 -4.9044595570e-10 -1.1165564914e-07 -3.4639015906e-01 1.4228986054e-08 3.9835335031e-07 1.9152679442e-07 -1.2313647658e-01 3.4639056499e-01 1.8554616542e-09 5.1212476283e-10 -1.8554648505e-09 3.4639056492e-01 -1.4212249267e-08 -3.9833875087e-07 -1.9151305541e-07 1.2313765973e-01" charge=0 multiplicity=2 method=b3lyp basis=def2-svpd config_type=oh_q0_m2 sample_index=319 temperature=500.0 units=atomic
O        -0.0000000003       0.0000000039       0.0610033813   1.781731260350e-10  -2.544202674792e-09  -3.985445439226e-02
H         0.0000000043      -0.0000000618      -0.9681679305  -1.781443560799e-10   2.544210121959e-09   3.985431556099e-02
2
Properties=species:S:1:pos:R:3:forces:R:3 energy=-7.568245125898e+01 dipole="-1.2332438655e-09 1.8225921387e-08 -6.5621297060e-01" quadrupole="-5.1485549487e+00 1.7018251639e-01 7.8858965964e-09 1.7018251639e-01 -4.1671909825e+00 -1.9598438774e-08 7.8858965964e-09 -1.9598438774e-08 -3.4720398146e+00" polarizability="7.5028969039e+00 -2.3330025846e-01 -4.5436782212e-09 -2.3330078148e-01 6.1575636843e+00 -6.4610565842e-08 1.0682269052e-07 -4.3493936309e-07 8.5085987362e+00" dipole_derivatives="-3.6258434911e-01 -1.6176829836e-06 3.4672098298e-10 1.6177219951e-06 -3.6258434914e-01 -6.5859264395e-09 1.0909018133e-07 -3.4947097993e-07 -1.3529745753e-01 3.6258392439e-01 -4.0507382710e-07 -3.3413949896e-10 4.0507369000e-07 3.6258392442e-01 6.5654908749e-09 -1.0908671189e-07 3.4946345817e-07 1.3541456669e-01" charge=0 multiplicity=2 method=b3lyp basis=def2-svpd config_type=oh_q0_m2 sample_index=320 temperature=500.0 units=atomic
O         0.0000000001      -0.0000000016       0.0567682016   3.864102513439e-11  -5.711346066913e-10   2.056345507475e-02
H        -0.0000000017       0.0000000250      -0.9009525548  -3.863864884787e-11   5.711460950944e-10  -2.056344150248e-02
2
Properties=species:S:1:pos:R:3:forces:R:3 energy=-7.567985980171e+01 dipole="3.6391889569e-09 -5.2443912564e-08 -6.7634410075e-01" quadrupole="-4.3221000501e+00 -3.3401450416e-01 2.0585432530e-08 -3.3401450416e-01 -5.1281598486e+00 1.3667682245e-07 2.0585432530e-08 1.3667682245e-07 -3.3420532077e+00" polarizability="6.4457616396e+00 4.7779222776e-01 -5.4750665609e-08 4.7779220077e-01 7.5988011840e+00 1.6433720853e-07 -1.0146689223e-06 1.5015307238e-07 9.6843267181e+00" dipole_derivatives="-3.4389559691e-01 1.1412714335e-07 -2.2487971301e-09 -1.1411675341e-07 -3.4389559708e-01 1.7947654851e-08 -1.0904022130e-07 4.4205833438e-08 -1.2122631226e-01 3.4389587859e-01 9.8520972247e-10 2.2623525659e-09 -9.7706238403e-10 3.4389587876e-01 -1.7950655684e-08 1.0905666648e-07 -4.4215034412e-08 1.2115285192e-01" charge=0 multiplicity=2 method=b3lyp basis=def2-svpd config_type=oh_q0_m2 sample_index=321 temperature=500.0 units=atomic
O        -0.0000000003       0.0000000048       0.0616896446   2.533696145467e-10  -3.651257518632e-09  -4.708849578207e-02
H         0.0000000053      -0.0000000759      -0.9790594275  -2.533638903930e-10   3.651258170020e-09   4.708855755394e-02
2
Properties=species:S:1:pos:R:3:forces:R:3 energy=-7.568222954976e+01 dipole="1.5945955825e-09 -2.3387392483e-08 -6.6807358182e-01" quadrupole="-5.1776144832e+00 -2.0370515400e-01 2.8327588661e-09 -2.0370515400e-01 -4.2166856610e+00 2.8117766904e-08 2.8327588661e-09 2.8117766904e-08 -3.3991086114e+00" polarizability="7.6157639622e+00 2.8671499872e-01 -1.2381804617e-08 2.8671589067e-01 6.2632260860e+00 1.0206857292e-07 -3.0577528230e-07 5.5698081102e-07 9.1670947221e+00" dipole_derivatives="-3.5159503197e-01 -1.4529054275e-06 -5.8889030440e-10 1.4529127155e-06 -3.5159503191e-01 7.9489095159e-09 -1.6098331002e-07 -2.6343510706e-08 -1.2729888901e-01 3.5159480843e-01 -2.6439218115e-07 5.7280195712e-10 2.6439254743e-07 3.5159480840e-01 -7.9479341946e-09 1.6100312750e-07 2.6342344972e-08 1.2723051847e-01" charge=0 multiplicity=2 method=b3lyp basis=def2-svpd config_type=oh_q0_m2 sample_index=322 temperature=500.0 units=atomic
O        -0.0000000001       0.0000000021       0.0596007228   5.507189616698e-11  -8.079651589095e-10  -2.307525480997e-02
H         0.0000000023      -0.0000000331      -0.9459067225  -5.510431079065e-11   8.079383576349e-10   2.307483743296e-02
2
Properties=species:S:1:pos:R:3:forces:R:3 energy=-7.568283043729e+01 dipole="-2.0368810411e-10 3.1171726089e-09 -6.6052270223e-01" quadrupole="-4.1539466081e+00 -4.7845662742e-02 1.4043914113e-11 -4.7845662742e-02 -5.1901317780e+00 -8.1787853815e-09 1.4043914113e-11 -8.1787853815e-09 -3.4466889941e+00" polarizability="6.1513610364e+00 6.6253506392e-02 1.1135082935e-09 6.6252950746e-02 7.5861711913e+00 -5.4520533393e-09 -1.1242257971e-08 -3.4376264680e-07 8.7375502228e+00" dipole_derivatives="-3.5859204338e-01 -1.6972230661e-06 8.6040266632e-11 1.6972331748e-06 -3.5859204327e-01 -1.0656381399e-09 -2.5181245977e-09 -1.7250062490e-07 -1.3252269708e-01 3.5859175218e-01 -3.6693609356e-07 -6.9503052868e-11 3.6693610255e-07 3.5859175207e-01 1.0666716014e-09 2.5129898162e-09 1.7248918960e-07 1.3252477869e-01" charge=0 multiplicity=2 method=b3lyp basis=def2-svpd config_type=oh_q0_m2 sample_index=323 temperature=500.0 units=atomic
O         0.0000000000      -0.0000000003       0.0577772103   1.037475986916e-12  -1.575546563175e-11   3.343900760292e-03
H        -0.0000000003       0.0000000043      -0.9169662559  -1.029718289693e-12   1.578239021971e-11  -3.344384025908e-03
2
Properties=species:S:1:pos:R:3:forces:R:3 energy=-7.568269597404e+01 dipole="-8.1840418395e-10 1.1168549251e-08 -6.5822197954e-01" quadrupole="-5.1827589095e+00 3.9501410535e-02 2.7754282179e-09 3.9501410535e-02 -4.1461668530e+00 -1.1662247621e-08 2.7754282179e-09 -1.1662247621e-08 -3.4603804261e+00" polarizability="7.5618891137e+00 -5.4403642088e-02 3.7253465202e-10 -5.4404081416e-02 6.1341400065e+00 -4.2299076615e-08 8.0225291378e-08 5.6327529407e-07 8.6139457776e+00" dipole_derivatives="-3.6072299209e-01 -1.2918435502e-06 2.7209519631e-10 1.2918579039e-06 -3.6072299206e-01 -4.0912276356e-09 3.2505359515e-08 2.6644400575e-07 -1.3407223999e-01 3.6072255006e-01 -3.6004482942e-07 -2.6676302419e-10 3.6004445433e-07 3.6072255003e-01 4.0874134034e-09 -3.2516850323e-08 -2.6646782003e-07 1.3408198637e-01" charge=0 multiplicity=2 method=b3lyp basis=def2-svpd config_type=oh_q0_m2 sample_index=324 temperature=500.0 units=atomic
O         0.0000000001      -0.0000000010       0.0572358643   1.533877045545e-11  -2.094328203228e-10   1.233188001937e-02
H        -0.0000000011       0.0000000154      -0.9083747020  -1.532622840473e-11   2.094539631325e-10  -1.233238482068e-02
2
Properties=species:S:1:pos:R:3:forces:R:3 energy=-7.567663330382e+01 dipole="-4.9083079111e-09 7.0495779064e-08 -6.4135789179e-01" quadrupole="-4.1562666995e+00 -2.4579637390e-01 -2.2367342599e-08 -2.4579637390e-01 -5.0633951170e+00 -1.6442039803e-07 -2.2367342599e-08 -1.6442039803e-07 -3.5501288058e+00" polarizability="6.1079118564e+00 3.2398525043e-01 4.8229610969e-08 3.2398524146e-01 7.3035841826e+00 -5.6691003569e-08 2.0859645503e-07 -5.2649487645e-07 7.7970872421e+00" dipole_derivatives="-3.7643869972e-01 -1.0429186583e-08 2.3100591294e-09 1.0435241791e-08 -3.7643870011e-01 -2.5666765648e-08 -2.5045679419e-07 -1.5459486469e-07 -1.4442477645e-01 3.7644045598e-01 8.4949585904e-08 -2.2784214595e-09 -8.4943736061e-08 3.7644045636e-01 2.5658683138e-08 2.5047536267e-07 1.5460902003e-07 1.4452977019e-01" charge=0 multiplicity=2 method=b3lyp basis=def2-svpd config_type=oh_q0_m2 sample_index=325 temperature=500.0 units=atomic
O         0.0000000004      -0.0000000059       0.0534413019   7.175206072988e-10  -1.030554217971e-08   9.375776766126e-02
H        -0.0000000065       0.0000000932      -0.8481522423  -7.175420336191e-10   1.030552512562e-08  -9.375776061435e-02
2
Properties=species:S:1:pos:R:3:forces:R:3 energy=-7.568110282490e+01 dipole="2.7562558547e-09 -3.9765284645e-08 -6.7273987113e-01" quadrupole="-5.2272877241e+00 9.3122171119e-02 -1.3185785738e-08 9.3122171119e-02 -4.1984561063e+00 4.9485934464e-08 -1.3185785738e-08 4.9485934464e-08 -3.3675792765e+00" polarizability="7.7161902231e+00 -1.3228931701e-01 7.5128574548e-10 -1.3229007214e-01 6.2546186061e+00 1.8893642052e-07 -6.1377554535e-07 3.1478001024e-07 9.4524669045e+00" dipole_derivatives="-3.4725839083e-01 1.0877321791e-07 -8.9274485630e-10 -1.0856916813e-07 -3.4725838456e-01 1.3182643771e-08 1.3120159126e-07 -3.2915042913e-07 -1.2402123641e-01 3.4725884056e-01 2.4548516764e-09 9.1031651415e-10 -2.6557814408e-09 3.4725883429e-01 -1.3177911906e-08 -1.3121194409e-07 3.2916924741e-07 1.2382893740e-01" charge=0 multiplicity=2 method=b3lyp basis=def2-svpd config_type=oh_q0_m2 sample_index=326 temperature=500.0 units=atomic
O        -0.0000000002       0.0000000036       0.0607666818   1.524528656950e-10  -2.199925373882e-09  -3.721645418204e-02
H         0.0000000040      -0.0000000570      -0.9644113372  -1.524726402415e-10   2.199963795079e-09   3.721664808110e-02
2
Properties=species:S:1:pos:R:3:forces:R:3 energy=-7.567462794915e+01 dipole="6.1891667531e-09 -8.8795513568e-08 -6.8663725099e-01" quadrupole="-4.7424509425e+00 -5.2488930010e-01 5.4569118809e-08 -5.2488930010e-01 -4.7790271766e+00 1.9134573596e-07 5.4569118809e-08 1.9134573596e-07 -3.2631454477e+00" polarizability="7.1073467440e+00 7.6371658099e-01 -1.2901013195e-07 7.6371657194e-01 7.1605657085e+00 4.2723023786e-07 4.2616808654e-09 4.1703427428e-07 1.0407821772e+01" dipole_derivatives="-3.3420306141e-01 1.2295528094e-07 -1.9727807095e-09 -1.2356044103e-07 -3.3420305931e-01 2.8444584788e-08 -3.4355826517e-07 -4.3397596627e-07 -1.1326431832e-01 3.3420291574e-01 -1.3275878989e-09 1.9518087010e-09 2.0477336808e-09 3.3420291363e-01 -2.8461604252e-08 3.4356156808e-07 4.3384304482e-07 1.1324143201e-01" charge=0 multiplicity=2 method=b3lyp basis=def2-svpd config_type=oh_q0_m2 sample_index=327 temperature=500.0 units=atomic
O        -0.0000000006       0.0000000083       0.0644448065   6.371492331120e-10  -9.140960113938e-09  -7.068442005081e-02
H         0.0000000092      -0.0000001323      -1.0227858454  -6.371673275790e-10   9.141003274289e-09   7.068485873375e-02
2
Properties=species:S:1:pos:R:3:forces:R:3 energy=-7.567249580234e+01 dipole="7.0068411518e-09 -1.0036628968e-07 -6.8987205987e-01" quadrupole="-4.2627876226e+00 1.3016647975e-01 -2.9316980773e-08 1.3016647975e-01 -5.2814593794e+00 2.9885992117e-07 -2.9316980773e-08 2.9885992117e-07 -3.2363875879e+00" polarizability="6.4267799505e+00 -1.9031903494e-01 2.5598195501e-07 -1.9031797042e-01 7.9158262650e+00 2.9125149768e-07 -1.0263322509e-06 3.9190694067e-07 1.0656012782e+01" dipole_derivatives="-3.3112160928e-01 1.2236423589e-07 -2.2114687790e-09 -1.2206679257e-07 -3.3112162791e-01 3.2098662362e-08 9.8831665074e-08 9.3478572105e-08 -1.1052535141e-01 3.3112133840e-01 -2.2555874409e-10 2.2343724356e-09 -2.1080353243e-10 3.3112135700e-01 -3.2069331953e-08 -9.8938524040e-08 -9.3442753535e-08 1.1068473528e-01" charge=0 multiplicity=2 method=b3lyp basis=def2-svpd config_type=oh_q0_m2 sample_index=328 temperature=500.0 units=atomic
O        -0.0000000007       0.0000000095       0.0653509177   7.801950189175e-10  -1.117434981246e-08  -7.680747675525e-02
H         0.0000000105      -0.0000001509      -1.0371664872  -7.802624979258e-10   1.117448069994e-08   7.680835574125e-02
2
Properties=species:S:1:pos:R:3:forces:R:3 energy=-7.567947237778e+01 dipole="-3.6520468240e-09 5.2392740899e-08 -6.4646225108e-01" quadrupole="-4.1094140236e+00 1.8011779965e-02 4.7721100374e-09 1.8011779965e-02 -5.1430158784e+00 -1.3127264123e-07 4.7721100374e-09 -1.3127264123e-07 -3.5248571030e+00" polarizability="6.0561668025e+00 -2.4087250303e-02 9.1556339304e-09 -2.4087013394e-02 7.4384021475e+00 -4.7772443606e-08 -1.0435455137e-07 -6.3096304152e-07 8.0290581217e+00" dipole_derivatives="-3.7165216929e-01 2.6060060380e-08 5.1477812357e-10 -2.6033825903e-08 -3.7165216933e-01 -1.8656667869e-08 1.4059253761e-07 1.2560022467e-07 -1.4157663676e-01 3.7165375955e-01 2.8210853731e-08 -5.1582057232e-10 -2.8232772946e-08 3.7165375958e-01 1.8665157295e-08 -1.4056536490e-07 -1.2562709206e-07 1.4157149817e-01" charge=0 multiplicity=2 method=b3lyp basis=def2-svpd config_type=oh_q0_m2 sample_index=329 temperature=500.0 units=atomic
O         0.0000000003      -0.0000000044       0.0545603541   3.724484417868e-10  -5.347983947060e-09   6.598751204990e-02
H        -0.0000000049       0.0000000702      -0.8659124129  -3.723829262141e-10   5.347946469118e-09  -6.598717990287e-02
2
Properties=species:S:1:pos:R:3:forces:R:3 energy=-7.565645055966e+01 dipole="-9.7045614077e-09 1.3974751942e-07 -6.2206785786e-01" quadrupole="-5.0518190126e+00 8.9129446238e-02 4.2137400448e-08 8.9129446238e-02 -4.0456948854e+00 -9.4309547202e-08 4.2137400448e-08 -9.4309547202e-08 -3.6320550829e+00" polarizability="7.1841063594e+00 -1.1050349127e-01 -2.7230834752e-08 -1.1050380400e-01 5.9366615881e+00 -2.3946836399e-07 -1.2246916426e-07 -3.0178930500e-07 7.0186438084e+00" dipole_derivatives="-3.9504084230e-01 -2.5026764640e-07 2.7179821286e-09 2.4972330592e-07 -3.9504083452e-01 -5.7944827926e-08 -2.9946850555e-07 -4.3474016054e-07 -1.5400899039e-01 3.9504323677e-01 6.2361044324e-07 -2.7280929643e-09 -6.2258466072e-07 3.9504322895e-01 5.7947333554e-08 2.9877633700e-07 4.3437042851e-07 1.5401018862e-01" charge=0 multiplicity=2 method=b3lyp basis=def2-svpd config_type=oh_q0_m2 sample_index=330 temperature=500.0 units=atomic
O         0.0000000008      -0.0000000111       0.0493933058   3.576637701978e-09  -5.150434208382e-08   2.292661513623e-01
H        -0.0000000122       0.0000001761      -0.7839076064  -3.576684630633e-09   5.150425622129e-08  -2.292657948234e-01
2
Properties=species:S:1:pos:R:3:forces:R:3 energy=-7.567241263304e+01 dipole="-6.2757858058e-09 9.0241852804e-08 -6.3577038952e-01" quadrupole="-5.0985999014e+00 8.9878741668e-02 2.7806007030e-08 8.9878741668e-02 -4.0854380809e+00 -7.3213178931e-08 2.7806007030e-08 -7.3213178931e-08 -3.5760165370e+00" polarizability="7.3188001552e+00 -1.1653077839e-01 -1.4078192198e-08 -1.1653114110e-01 6.0051634408e+00 -2.1783987441e-07 1.6698231934e-07 -2.9964684554e-07 7.5565549962e+00" dipole_derivatives="-3.8172898106e-01 -5.3758611164e-08 2.2499016593e-09 4.7195708498e-08 -3.8172883317e-01 -3.3528501281e-08 -1.5731192821e-05 -4.6487921845e-07 -1.4758153402e-01 3.8173093224e-01 1.2069725503e-07 -2.2681794455e-09 -1.1383594740e-07 3.8173078449e-01 3.3524390927e-08 1.5725829583e-05 4.6493084382e-07 1.4758295746e-01" charge=0 multiplicity=2 method=b3lyp basis=def2-svpd config_type=oh_q0_m2 sample_index=331 temperature=500.0 units=atomic
O         0.0000000005      -0.0000000074       0.0522415774   1.260608535006e-09  -1.812646525787e-08   1.277043702174e-01
H        -0.0000000082       0.0000001177      -0.8291117438  -1.260593150285e-09   1.812643961661e-08  -1.277042458302e-01
2
Properties=species:S:1:pos:R:3:forces:R:3 energy=-7.568082051418e+01 dipole="3.0123305314e-09 -4.2938831023e-08 -6.7364546430e-01" quadrupole="-5.1755556433e+00 2.4946036579e-01 -2.3977828014e-08 2.4946036579e-01 -4.2563288053e+00 5.8158317186e-08 -2.3977828014e-08 5.8158317186e-08 -3.3612637573e+00" polarizability="7.6485893239e+00 -3.5499837088e-01 1.4463486367e-08 -3.5499958834e-01 6.3404699802e+00 2.0099983543e-07 -7.6060298843e-07 6.0334108798e-07 9.5097544024e+00" dipole_derivatives="-3.4641465996e-01 1.1178900052e-07 -9.6920404860e-10 -1.1178247401e-07 -3.4641465987e-01 1.4328983695e-08 9.5394636634e-08 -1.6484849596e-07 -1.2308634591e-01 3.4641506708e-01 1.8511212441e-09 9.6524440304e-10 -1.8550919086e-09 3.4641506697e-01 -1.4336356174e-08 -9.5402297173e-08 1.6487136656e-07 1.2315724896e-01" charge=0 multiplicity=2 method=b3lyp basis=def2-svpd config_type=oh_q0_m2 sample_index=332 temperature=500.0 units=atomic
O        -0.0000000003       0.0000000039       0.0609966866   1.778073363667e-10  -2.535955248409e-09  -3.978081379819e-02
H         0.0000000043      -0.0000000617      -0.9680616809  -1.778220945267e-10   2.535933773399e-09   3.978073408082e-02
2
Properties=species:S:1:pos:R:3:forces:R:3 energy=-7.567744277426e+01 dipole="4.9949457449e-09 -7.1274241342e-08 -6.8169382157e-01" quadrupole="-4.2194489196e+00 1.8364386581e-02 -8.5925860312e-09 1.8364386581e-02 -5.2675944684e+00 2.0562310285e-07 -8.5925860312e-09 2.0562310285e-07 -3.3021900063e+00" polarizability="6.3223757829e+00 -2.6515145133e-02 -2.4566009987e-08 -2.6514862921e-02 7.8357286928e+00 2.3109537108e-07 9.0204541630e-07 2.2828007266e-07 1.0048384053e+01" dipole_derivatives="-3.3887713193e-01 1.1939252337e-07 -1.3638015360e-09 -1.1943529937e-07 -3.3887713200e-01 2.3197408923e-08 -2.0386239918e-07 -3.8700376237e-08 -1.1708362908e-01 3.3887718921e-01 1.0344993127e-09 1.4028946929e-09 -1.0248359426e-09 3.3887718929e-01 -2.3199319193e-08 2.0388057909e-07 3.8717681838e-08 1.1707972590e-01" charge=0 multiplicity=2 method=b3lyp basis=def2-svpd config_type=oh_q0_m2 sample_index=333 temperature=500.0 units=atomic
O        -0.0000000005       0.0000000066       0.0630983747   4.408586558984e-10  -6.290391190975e-09  -6.016393925340e-02
H         0.0000000073      -0.0000001047      -1.0014169952  -4.408397257759e-10   6.290471449823e-09   6.016445294869e-02
2
Properties=species:S:1:pos:R:3:forces:R:3 energy=-7.568219487126e+01 dipole="1.6602050815e-09 -2.3973406575e-08 -6.6826223306e-01" quadrupole="-5.2183568493e+00 -3.7191989233e-02 -3.2493792822e-09 -3.7191989233e-02 -4.1772077944e+00 2.7916162850e-08 -3.2493792822e-09 2.7916162850e-08 -3.3978663381e+00" polarizability="7.6743418233e+00 5.2365470220e-02 -5.6262191174e-09 5.2365769131e-02 6.2083086238e+00 1.0700867140e-07 -2.8970167078e-07 2.4453463608e-07 9.1783227111e+00" dipole_derivatives="-3.5141999061e-01 -1.3993342848e-06 -5.7321355735e-10 1.3992971344e-06 -3.5141999056e-01 8.0534399270e-09 1.3267531518e-07 2.5828256200e-07 -1.2708566747e-01 3.5141975632e-01 -2.5898016953e-07 5.5749245950e-10 2.5898027939e-07 3.5141975628e-01 -8.0488564922e-09 -1.3266446275e-07 -2.5827370798e-07 1.2708833275e-01" charge=0 multiplicity=2 method=b3lyp basis=def2-svpd config_type=oh_q0_m2 sample_index=334 temperature=500.0 units=atomic
O        -0.0000000001       0.0000000021       0.0596472551   5.880641874743e-11  -8.494292838340e-10  -2.367794442003e-02
H         0.0000000024      -0.0000000340      -0.9466452236  -5.882384317735e-11   8.494159464118e-10   2.367759225641e-02
2
Properties=species:S:1:pos:R:3:forces:R:3 energy=-7.568283036128e+01 dipole="2.0079981665e-10 -3.1700824054e-09 -6.6230296541e-01" quadrupole="-4.1596455440e+00 -4.9901413048e-02 -4.6044199449e-12 -4.9901413048e-02 -5.1962040957e+00 8.3843031762e-09 -4.6044199449e-12 8.3843031762e-09 -3.4358411205e+00" polarizability="6.1645227153e+00 6.9373369442e-02 -1.1562945452e-09 6.9372776316e-02 7.6056233204e+00 5.9048359597e-09 1.2321045450e-08 3.8521002397e-07 8.8354475030e+00" dipole_derivatives="-3.5694339553e-01 -1.7333385206e-06 -7.2039473492e-11 1.7333819187e-06 -3.5694339554e-01 1.0594929729e-09 -1.1640721720e-07 -1.9502693904e-07 -1.3129915303e-01 3.5694315506e-01 -3.4860166573e-07 6.9084369913e-11 3.4860160403e-07 3.5694315504e-01 -1.0800693510e-09 1.1640061137e-07 1.9501678050e-07 1.3129779502e-01" charge=0 multiplicity=2 method=b3lyp basis=def2-svpd config_type=oh_q0_m2 sample_index=335 temperature=500.0 units=atomic
O        -0.0000000000       0.0000000003       0.0582005148   1.054802628940e-12  -1.581543134137e-11  -3.300792925878e-03
H         0.0000000003      -0.0000000044      -0.9236844049  -1.008924397171e-12   1.579786032728e-11   3.300322890375e-03
2
Properties=species:S:1:pos:R:3:forces:R:3 energy=-7.568277812512e+01 dipole="4.7085208119e-10 -7.4631305798e-09 -6.6353712687e-01" quadrupole="-4.3100961663e+00 3.6475833068e-01 -4.7803137540e-09 3.6475833068e-01 -5.0539386604e+00 1.8491785734e-08 -4.7803137540e-09 1.8491785734e-08 -3.4281890613e+00" polarizability="6.3780068085e+00 -5.0845726728e-01 3.3307790214e-07 -5.0845729800e-01 7.4148930731e+00 1.3080891531e-07 -5.8044367697e-08 9.8217522911e-07 8.9045019730e+00" dipole_derivatives="-3.5580032507e-01 -1.7452591536e-06 -1.9526806765e-10 1.7452810690e-06 -3.5580032499e-01 2.5475972765e-09 -1.5016241028e-07 -2.8127666862e-08 -1.3059081752e-01 3.5580011442e-01 -3.3443935744e-07 1.6090877924e-10 3.3443913371e-07 3.5580011435e-01 -2.5284772221e-09 1.5016013433e-07 2.8128388507e-08 1.3043519593e-01" charge=0 multiplicity=2 method=b3lyp basis=def2-svpd config_type=oh_q0_m2 sample_index=336 temperature=500.0 units=atomic
O        -0.0000000000       0.0000000007       0.0584962954   5.505954909890e-12  -8.719084641552e-11  -7.752689441434e-03
H         0.0000000007      -0.0000000104      -0.9283786570  -5.498470185831e-12   8.719538345286e-11   7.752357475311e-03
2
Properties=species:S:1:pos:R:3:forces:R:3 energy=-7.568150930215e+01 dipole="-2.2861664792e-09 3.3390598963e-08 -6.5189625928e-01" quadrupole="-4.1540079991e+00 -1.6979293557e-01 -6.3957517115e-09 -1.6979293557e-01 -5.1335814770e+00 -8.3220455509e-08 -6.3957517115e-09 -8.3220455509e-08 -3.4961792653e+00" polarizability="6.1284680499e+00 2.3029522457e-01 1.9261077174e-08 2.3029517978e-01 7.4570914109e+00 -4.3479771709e-08 1.5171946232e-07 -8.9966658149e-07 8.2900440363e+00" dipole_derivatives="-3.6658958161e-01 -1.5919065195e-06 8.0208324061e-10 1.5919329632e-06 -3.6658958149e-01 -1.1703063624e-08 -2.8994862067e-08 1.6039780615e-07 -1.3821682511e-01 3.6658901858e-01 -4.3777957975e-07 -8.0135735880e-10 4.3777981181e-07 3.6658901851e-01 1.1712512439e-08 2.9015817526e-08 -1.6038392836e-07 1.3821456122e-01" charge=0 multiplicity=2 method=b3lyp basis=def2-svpd config_type=oh_q0_m2 sample_index=337 temperature=500.0 units=atomic
O         0.0000000002      -0.0000000029       0.0557786203   1.385244698553e-10  -2.023781519865e-09   3.951167182216e-02
H        -0.0000000031       0.0000000453      -0.8852471816  -1.385278296991e-10   2.023836163951e-09  -3.951212712909e-02
2
Properties=species:S:1:pos:R:3:forces:R:3 energy=-7.567890600558e+01 dipole="4.1977422930e-09 -6.0512104837e-08 -6.7863684479e-01" quadrupole="-4.2094354132e+00 1.8167204090e-02 -7.0703856805e-09 1.8167204090e-02 -5.2565295589e+00 1.7225879421e-07 -7.0703856805e-09 1.7225879421e-07 -3.3252644477e+00" polarizability="6.2942923020e+00 -2.6094435739e-02 -1.9620041857e-08 -2.6094170866e-02 7.7982833254e+00 1.8161134272e-07 6.3850784326e-07 1.7817000803e-07 9.8373301909e+00" dipole_derivatives="-3.4174928756e-01 1.1572935778e-07 -1.3655526198e-09 -1.1569709357e-07 -3.4174928763e-01 1.9818536352e-08 -1.6904780353e-07 -1.2795839388e-07 -1.1941820437e-01 3.4174946936e-01 1.3954694188e-09 1.3653136768e-09 -1.4277189668e-09 3.4174946943e-01 -1.9824714943e-08 1.6902887423e-07 1.2796433357e-07 1.1941414429e-01" charge=0 multiplicity=2 method=b3lyp basis=def2-svpd config_type=oh_q0_m2 sample_index=338 temperature=500.0 units=atomic
O        -0.0000000004       0.0000000056       0.0622875048   3.273062046887e-10  -4.718341692327e-09  -5.291584556229e-02
H         0.0000000061      -0.0000000881      -0.9885479012  -3.273169148714e-10   4.718396157872e-09   5.291630002020e-02
2
Properties=species:S:1:pos:R:3:forces:R:3 energy=-7.567877499458e+01 dipole="-3.9469347298e-09 5.7443311796e-08 -6.4504095555e-01" quadrupole="-4.4872473366e+00 -4.9899501056e-01 -3.8553630663e-08 -4.9899501056e-01 -4.7560359736e+00 -1.0598466234e-07 -3.8553630663e-08 -1.0598466234e-07 -3.5320526914e+00" polarizability="6.5565162862e+00 6.6461529091e-01 6.7344568840e-08 6.6461544131e-01 6.9145116183e+00 -9.7154281052e-08 2.5037699137e-07 -6.3784210515e-07 7.9632357872e+00" dipole_derivatives="-3.7298119611e-01 1.7043347427e-08 1.4733922123e-09 -1.7152369064e-08 -3.7298119553e-01 -2.0539091840e-08 2.1044224696e-07 -1.3833317825e-07 -1.4252584907e-01 3.7298283690e-01 3.8489949376e-08 -1.4601199320e-09 -3.8396549532e-08 3.7298283629e-01 2.0557923403e-08 -2.1044413434e-07 1.3831363832e-07 1.4243157124e-01" charge=0 multiplicity=2 method=b3lyp basis=def2-svpd config_type=oh_q0_m2 sample_index=339 temperature=500.0 units=atomic
O         0.0000000003      -0.0000000048       0.0542464269   4.492491312828e-10  -6.538834926582e-09   7.342536982923e-02
H        -0.0000000053       0.0000000767      -0.8609301603  -4.492912012544e-10   6.538816134541e-09  -7.342542159910e-02
2
Properties=species:S:1:pos:R:3:forces:R:3 energy=-7.566475063499e+01 dipole="9.4228608521e-09 -1.3544605338e-07 -6.9961284577e-01" quadrupole="-4.2800196743e+00 -4.9335091028e-04 -1.5154598335e-08 -4.9335091028e-04 -5.3340760195e+00 4.2292027313e-07 -1.5154598335e-08 4.2292027313e-07 -3.1495954213e+00" polarizability="6.5118278820e+00 7.3008539207e-04 -6.7046981728e-08 7.3036762147e-04 8.0715876193e+00 6.5845917729e-07 -1.3838967091e-07 6.6627259514e-07 1.1473338197e+01" dipole_derivatives="-3.2170075068e-01 -1.2960979855e-11 -2.9329874265e-09 -1.3689347197e-12 -3.2170075055e-01 4.2358109640e-08 -6.1029098442e-08 -4.3303932662e-07 -1.0277910154e-01 3.2170097116e-01 1.0461897719e-13 2.9484555231e-09 -1.5394053711e-13 3.2170097105e-01 -4.2382077756e-08 6.1021410147e-08 4.3303940989e-07 1.0277965914e-01" charge=0 multiplicity=2 method=b3lyp basis=def2-svpd config_type=oh_q0_m2 sample_index=340 temperature=500.0 units=atomic
O        -0.0000000009       0.0000000132       0.0682138944   1.237952031244e-09  -1.779413459664e-08  -9.191142215347e-02
H         0.0000000146      -0.0000002096      -1.0826040059  -1.237938029067e-09   1.779436189549e-08   9.191234685183e-02
2
Properties=species:S:1:pos:R:3:forces:R:3 energy=-7.566316543546e+01 dipole="-8.4796931966e-09 1.2188670400e-07 -6.2698106210e-01" quadrupole="-5.0761156271e+00 -1.7805511779e-02 1.6302997043e-08 -1.7805511779e-02 -4.0523071148e+00 -8.5130917967e-08 1.6302997043e-08 -8.5130917967e-08 -3.6131451032e+00" polarizability="7.2421437343e+00 2.2463112800e-02 3.8221921970e-09 2.2463183500e-02 5.9505407550e+00 -2.4233751335e-07 1.5904369950e-07 -2.9772879191e-07 7.2036642216e+00" dipole_derivatives="-3.9020091137e-01 -1.6408786418e-07 3.3155797777e-09 1.6489753067e-07 -3.9020092702e-01 -4.7206566168e-08 -5.1043377858e-07 -3.8049843831e-07 -1.5187849971e-01 3.9020307843e-01 3.7867810105e-07 -3.2661009106e-09 -3.7953769252e-07 3.9020309410e-01 4.7210318125e-08 5.1059492745e-07 3.8060807284e-07 1.5187305694e-01" charge=0 multiplicity=2 method=b3lyp basis=def2-svpd config_type=oh_q0_m2 sample_index=341 temperature=500.0 units=atomic
O         0.0000000007      -0.0000000098       0.0504008465   2.563970181852e-09  -3.685407963311e-08   1.895762747209e-01
H        -0.0000000108       0.0000001555      -0.7998980096  -2.563939947790e-09   3.685382421763e-08  -1.895750999953e-01
2
Properties=species:S:1:pos:R:3:forces:R:3 energy=-7.568214845122e+01 dipole="-1.6515969823e-09 2.4154660385e-08 -6.5450898780e-01" quadrupole="-5.1692831406e+00 4.5483829172e-02 5.9892851113e-09 4.5483829172e-02 -4.1353247751e+00 -2.4212168802e-08 5.9892851113e-09 -2.4212168802e-08 -3.4817150645e+00" polarizability="7.5209923769e+00 -6.2087547001e-02 -2.6870823455e-12 -6.2087806877e-02 6.1095278344e+00 -8.4810167532e-08 1.3106198202e-07 -2.6060868238e-07 8.4210924039e+00" dipole_derivatives="-3.6416409354e-01 -1.5889888327e-06 5.4546271549e-10 1.5889977542e-06 -3.6416409365e-01 -8.5506493878e-09 1.0369233250e-08 -7.5319250836e-08 -1.3653831286e-01 3.6416361085e-01 -4.1765728562e-07 -5.6851232900e-10 4.1765748004e-07 3.6416361096e-01 8.5285015058e-09 -1.0353579105e-08 7.5328770999e-08 1.3653567931e-01" charge=0 multiplicity=2 method=b3lyp basis=def2-svpd config_type=oh_q0_m2 sample_index=342 temperature=500.0 units=atomic
O         0.0000000001      -0.0000000021       0.0563751858   7.026331831653e-11  -1.027085714346e-09   2.783165644073e-02
H        -0.0000000023       0.0000000330      -0.8947151082  -7.023304408508e-11   1.027147223711e-09  -2.783220847680e-02
2
Properties=species:S:1:pos:R:3:forces:R:3 energy=-7.568273585404e+01 dipole="-6.8084400997e-10 9.4637284901e-09 -6.5869066117e-01" quadrupole="-5.1844445931e+00 3.8939200239e-02 2.2936631095e-09 3.8939200239e-02 -4.1475624897e+00 -9.9827367560e-09 2.2936631095e-09 -9.9827367560e-09 -3.4576209734e+00" polarizability="7.5670770234e+00 -5.3689493638e-02 3.4236270289e-10 -5.3689932319e-02 6.1373541328e+00 -3.5752357704e-08 6.8579915214e-08 4.8890209925e-07 8.6388643375e+00" dipole_derivatives="-3.6028885768e-01 -1.3634551870e-06 2.3709568041e-10 1.3634622355e-06 -3.6028885767e-01 -3.2682072868e-09 8.3751977575e-08 1.5666831721e-07 -1.3375498523e-01 3.6028844012e-01 -3.6193653169e-07 -2.3440306432e-10 3.6193661491e-07 3.6028844009e-01 3.2551063299e-09 -8.3755308244e-08 -1.5665502229e-07 1.3376786228e-01" charge=0 multiplicity=2 method=b3lyp basis=def2-svpd config_type=oh_q0_m2 sample_index=343 temperature=500.0 units=atomic
O         0.0000000001      -0.0000000008       0.0573456309   1.082548281696e-11  -1.503449454884e-10   1.046353875150e-02
H        -0.0000000009       0.0000000131      -0.9101167771  -1.081601932961e-11   1.503419509481e-10  -1.046406616091e-02
2
Properties=species:S:1:pos:R:3:forces:R:3 energy=-7.567902955710e+01 dipole="4.1363726248e-09 -5.9524647713e-08 -6.7835598312e-01" quadrupole="-4.2716284388e+00 -2.4984191269e-01 1.6191935670e-08 -2.4984191269e-01 -5.1924092834e+00 1.6208058245e-07 1.6191935670e-08 1.6208058245e-07 -3.3273447284e+00" polarizability="6.3823516291e+00 3.5861579597e-01 -5.2666888786e-08 3.5861561881e-01 7.7040121554e+00 1.8772501163e-07 -1.1118351312e-06 1.7649473171e-07 9.8183462592e+00" dipole_derivatives="-3.4201256544e-01 1.1698033257e-07 -1.3366083983e-09 -1.1701307375e-07 -3.4201256616e-01 1.9596491686e-08 1.1497147678e-07 1.9421131370e-08 -1.1958323175e-01 3.4201275910e-01 2.7329492336e-10 1.3654820687e-09 -2.4796032418e-10 3.4201275979e-01 -1.9583176723e-08 -1.1498910157e-07 -1.9419355013e-08 1.1963743313e-01" charge=0 multiplicity=2 method=b3lyp basis=def2-svpd config_type=oh_q0_m2 sample_index=344 temperature=500.0 units=atomic
O        -0.0000000004       0.0000000055       0.0622138004   3.183697002932e-10  -4.582274606182e-09  -5.222073295621e-02
H         0.0000000060      -0.0000000866      -0.9873781590  -3.184202712146e-10   4.582283113880e-09   5.222071534666e-02
2
Properties=species:S:1:pos:R:3:forces:R:3 energy=-7.568280506672e+01 dipole="3.3649053774e-10 -5.6553707870e-09 -6.6302213666e-01" quadrupole="-4.4375005791e+00 -4.6076608547e-01 3.3815072923e-09 -4.6076608547e-01 -4.9231145100e+00 1.2487896378e-08 3.3815072923e-09 1.2487896378e-08 -3.4313954802e+00" polarizability="6.5536620367e+00 6.4169911785e-01 -6.6975449143e-09 6.4169914930e-01 7.2299643206e+00 1.4384936065e-08 -5.1639734318e-08 7.6365621157e-07 8.8755635199e+00" dipole_derivatives="-3.5627723329e-01 -1.8772756778e-06 -1.3194419450e-10 1.8772329297e-06 -3.5627723326e-01 1.9203686026e-09 2.3450319464e-07 -3.2182015386e-07 -1.3085705727e-01 3.5627707253e-01 -3.4481353084e-07 1.1424134143e-10 3.4481343623e-07 3.5627707246e-01 -1.9263716132e-09 -2.3451024456e-07 3.2181216025e-07 1.3081232402e-01" charge=0 multiplicity=2 method=b3lyp basis=def2-svpd config_type=oh_q0_m2 sample_index=345 temperature=500.0 units=atomic
O        -0.0000000000       0.0000000005       0.0583726285   3.026816770873e-12  -5.043516538257e-11  -5.910054795854e-03
H         0.0000000005      -0.0000000079      -0.9264159734  -2.999866248410e-12   5.040814788281e-11   5.909648854840e-03
2
Properties=species:S:1:pos:R:3:forces:R:3 energy=-7.568084853052e+01 dipole="3.0116907817e-09 -4.2625923751e-08 -6.7355841842e-01" quadrupole="-4.2010243987e+00 -9.2852265323e-02 2.1584627301e-09 -9.2852265323e-02 -5.2302693880e+00 1.1777317804e-07 2.1584627301e-09 1.1777317804e-07 -3.3618735944e+00" polarizability="6.2614269779e+00 1.3211332718e-01 -2.2941855105e-08 1.3211222008e-01 7.7258761479e+00 1.1310970893e-07 3.3258839922e-07 1.0550580061e-07 9.5042195817e+00" dipole_derivatives="-3.4649567608e-01 1.2037813458e-07 -7.5186181428e-10 -1.2036642939e-07 -3.4649567575e-01 1.4135562941e-08 1.7552093112e-07 -2.1572188480e-09 -1.2322210490e-01 3.4649608731e-01 -5.2917548237e-09 7.8292433867e-10 5.2979311601e-09 3.4649608701e-01 -1.4128465030e-08 -1.7551378406e-07 2.1766755065e-09 1.2322328803e-01" charge=0 multiplicity=2 method=b3lyp basis=def2-svpd config_type=oh_q0_m2 sample_index=346 temperature=500.0 units=atomic
O        -0.0000000003       0.0000000039       0.0609745262   1.767018127869e-10  -2.502114246619e-09  -3.953692178671e-02
H         0.0000000043      -0.0000000612      -0.9677099783  -1.767786601479e-10   2.502076865441e-09   3.953677681419e-02
2
Properties=species:S:1:pos:R:3:forces:R:3 energy=-7.568216333827e+01 dipole="1.7258566070e-09 -2.4626622636e-08 -6.6842950740e-01" quadrupole="-4.1961848794e+00 1.4231209379e-01 -7.2492432808e-09 1.4231209379e-01 -5.2005019176e+00 6.6820544789e-08 -7.2492432808e-09 6.6820544789e-08 -3.3967623352e+00" polarizability="6.2356188714e+00 -2.0046695651e-01 -2.0222351965e-10 -2.0046697693e-01 7.6502900656e+00 5.6122920869e-08 -2.5463423642e-07 4.0023808898e-08 9.1883012082e+00" dipole_derivatives="-3.5126474426e-01 -1.3562090308e-06 -5.8525069713e-10 1.3562158589e-06 -3.5126474418e-01 8.2538351332e-09 3.7637198913e-08 1.8370266419e-07 -1.2695752981e-01 3.5126450228e-01 -2.5432901664e-07 5.7911376371e-10 2.5432940179e-07 3.5126450218e-01 -8.2635299817e-09 -3.7628733462e-08 -1.8369591959e-07 1.2696633042e-01" charge=0 multiplicity=2 method=b3lyp basis=def2-svpd config_type=oh_q0_m2 sample_index=347 temperature=500.0 units=atomic
O        -0.0000000002       0.0000000022       0.0596885617   6.253244075843e-11  -8.919565268020e-10  -2.421031227366e-02
H         0.0000000024      -0.0000000349      -0.9473007896  -6.250818042019e-11   8.919529595602e-10   2.420991374426e-02
2
Properties=species:S:1:pos:R:3:forces:R:3 energy=-7.568272278159e+01 dipole="-7.4655660807e-10 1.0081549463e-08 -6.5852859910e-01" quadrupole="-4.2413171285e+00 3.0059057866e-01 5.4507624430e-09 3.0059057866e-01 -5.0896225055e+00 -2.5280902435e-08 5.4507624430e-09 -2.5280902435e-08 -3.4585774231e+00" polarizability="6.2661395174e+00 -4.1434618962e-01 -3.7053261474e-09 -4.1434620672e-01 7.4354766870e+00 -1.7823478801e-08 6.6332394668e-08 -9.2015718894e-07 8.6302252508e+00" dipole_derivatives="-3.6043915047e-01 -1.2183652445e-06 2.5582024882e-10 1.2183267696e-06 -3.6043915053e-01 -3.4625777326e-09 -1.2439962949e-07 -3.7611247450e-08 -1.3392933861e-01 3.6043870374e-01 -3.5040087169e-07 -2.5602116626e-10 3.5040082208e-07 3.6043870378e-01 3.4794596771e-09 1.2440082298e-07 3.7607583714e-08 1.3386436208e-01" charge=0 multiplicity=2 method=b3lyp basis=def2-svpd config_type=oh_q0_m2 sample_index=348 temperature=500.0 units=atomic
O         0.0000000001      -0.0000000009       0.0573076137   1.260493123290e-11  -1.700032069871e-10   1.110801354449e-02
H        -0.0000000010       0.0000000139      -0.9095134159  -1.263879102430e-11   1.700472949839e-10  -1.110848905242e-02
2
Properties=species:S:1:pos:R:3:forces:R:3 energy=-7.568283818312e+01 dipole="1.3504007968e-10 -1.7555796558e-09 -6.6190229912e-01" quadrupole="-5.1970999550e+00 -9.6516832598e-03 -3.4806638040e-10 -9.6516832598e-03 -4.1560965061e+00 1.8444726941e-09 -3.4806638040e-10 1.8444726941e-09 -3.4383021365e+00" polarizability="7.6043421026e+00 1.3398407902e-02 -2.0298174698e-09 1.3398506685e-02 6.1583901018e+00 1.3535165683e-08 -1.6403386730e-08 -1.0783225872e-07 8.8132221129e+00" dipole_derivatives="-3.5731483715e-01 -1.0346059205e-06 -7.9770774282e-11 1.0346014855e-06 -3.5731483705e-01 6.2585503896e-10 -5.5434101753e-08 1.6904927458e-07 -1.3157749753e-01 3.5731443480e-01 -3.0029540074e-07 4.5913254631e-11 3.0029552629e-07 3.5731443475e-01 -5.9881267865e-10 5.5444815406e-08 -1.6906598344e-07 1.3157497477e-01" charge=0 multiplicity=2 method=b3lyp basis=def2-svpd config_type=oh_q0_m2 sample_index=349 temperature=500.0 units=atomic
O        -0.0000000000       0.0000000002       0.0581048990   3.978603054830e-13  -4.820285925905e-12  -1.828399662336e-03
H         0.0000000002      -0.0000000024      -0.9221669128  -3.728113321701e-13   4.849321307302e-12   1.827932209970e-03
2
Properties=species:S:1:pos:R:3:forces:R:3 energy=-7.568158984441e+01 dipole="2.3071794242e-09 -3.3557892446e-08 -6.7099204702e-01" quadrupole="-4.1870015395e+00 -5.0814788031e-02 -2.4476721063e-10 -5.0814788031e-02 -5.2269265744e+00 9.2236816304e-08 -2.4476721063e-10 9.2236816304e-08 -3.3795857398e+00" polarizability="6.2318356380e+00 7.1949534990e-02 -1.4358980443e-08 7.1948881574e-02 7.7042493437e+00 8.2212529515e-08 2.2500344348e-07 7.4746339405e-08 9.3436866609e+00" dipole_derivatives="-3.4888412931e-01 -1.3750511253e-06 -8.9444705003e-10 1.3750629731e-06 -3.4888412936e-01 1.1217261496e-08 -4.5427439588e-08 2.0659557398e-08 -1.2521346470e-01 3.4888392483e-01 -2.2418782425e-07 8.7596008432e-10 2.2418788817e-07 3.4888392490e-01 -1.1196445691e-08 4.5460496478e-08 -2.0659890465e-08 1.2511949218e-01" charge=0 multiplicity=2 method=b3lyp basis=def2-svpd config_type=oh_q0_m2 sample_index=350 temperature=500.0 units=atomic
O        -0.0000000002       0.0000000030       0.0603262587   1.103964852457e-10  -1.605677165977e-09  -3.210484396284e-02
H         0.0000000033      -0.0000000479      -0.9574215029  -1.104063750286e-10   1.605632317076e-09   3.210468140767e-02
2
Properties=species:S:1:pos:R:3:forces:R:3 energy=-7.568030923842e+01 dipole="-3.2149980507e-09 4.5638714723e-08 -6.4839430634e-01" quadrupole="-4.1228671200e+00 -9.0591339182e-02 -3.3952800566e-09 -9.0591339182e-02 -5.1420314975e+00 -1.1404600933e-07 -3.3952800566e-09 -1.1404600933e-07 -3.5148739437e+00" polarizability="6.0782970524e+00 1.2173725234e-01 1.8589143740e-08 1.2173644307e-01 7.4478901167e+00 -4.7945379635e-08 -8.9032630745e-08 -7.1224977274e-07 8.1201263734e+00" dipole_derivatives="-3.6984920718e-01 3.8509996400e-08 1.1875987852e-09 -3.7708917493e-08 -3.6984922207e-01 -1.6134513869e-08 7.3912792553e-08 1.6063325670e-07 -1.4045024558e-01 3.6985072469e-01 1.7302152500e-08 -1.1476003580e-09 -1.8289203361e-08 3.6985073957e-01 1.6150793169e-08 -7.3928474453e-08 -1.6082563059e-07 1.4039806406e-01" charge=0 multiplicity=2 method=b3lyp basis=def2-svpd config_type=oh_q0_m2 sample_index=351 temperature=500.0 units=atomic
O         0.0000000003      -0.0000000039       0.0549901876   2.787988477348e-10  -3.957438939339e-09   5.622355200864e-02
H        -0.0000000043       0.0000000614      -0.8727341819  -2.787834089644e-10   3.957432776445e-09  -5.622367532013e-02
2
Properties=species:S:1:pos:R:3:forces:R:3 energy=-7.563672291291e+01 dipole="-1.2590353048e-08 1.8079389666e-07 -6.1104939113e-01" quadrupole="-4.0609725655e+00 -2.2897565034e-01 -5.9721180065e-08 -2.2897565034e-01 -4.9675109164e+00 -3.7918290435e-07 -5.9721180065e-08 -3.7918290435e-07 -3.6698385765e+00" polarizability="5.9441516423e+00 2.7261238883e-01 9.4355526429e-08 2.7261191788e-01 7.0234221664e+00 1.1030648101e-07 1.7653735199e-08 -1.1225813893e-08 6.6318395839e+00" dipole_derivatives="-4.0625288673e-01 -1.5929921489e-11 5.5926779242e-09 -2.0033054567e-11 -4.0625288714e-01 -7.3556353538e-08 -1.0561496122e-08 -2.8952923392e-08 -1.5802148651e-01 4.0625236270e-01 4.6773608134e-12 -5.6169089755e-09 4.4296768529e-12 4.0625236310e-01 7.3539849597e-08 1.0565215369e-08 2.8958335729e-08 1.5802134215e-01" charge=0 multiplicity=2 method=b3lyp basis=def2-svpd config_type=oh_q0_m2 sample_index=352 temperature=500.0 units=atomic
O         0.0000000010      -0.0000000140       0.0471791073   6.881849455727e-09  -9.882203223392e-08   3.339998942943e-01
H        -0.0000000154       0.0000002215      -0.7487666693  -6.881845783317e-09   9.882157642167e-08  -3.339983716459e-01
2
Properties=species:S:1:pos:R:3:forces:R:3 energy=-7.567836870202e+01 dipole="4.5060536343e-09 -6.4694031023e-08 -6.7981290446e-01" quadrupole="-5.2607796354e+00 -1.8239874040e-02 -1.1170907805e-08 -1.8239874040e-02 -4.2132755586e+00 8.5167006459e-08 -1.1170907805e-08 8.5167006459e-08 -3.3164817784e+00" polarizability="7.8126071285e+00 2.6252008891e-02 -1.6459672978e-08 2.6252243974e-02 6.3049631610e+00 3.4462340432e-07 -1.3172215661e-06 3.7898208697e-07 9.9175523525e+00" dipole_derivatives="-3.4064582916e-01 1.1760007792e-07 -1.0914978779e-09 -1.1762855507e-07 -3.4064582922e-01 1.7574596250e-08 -1.2139234062e-07 -3.0984392829e-07 -1.1870013947e-01 3.4064596237e-01 9.8353121573e-10 1.0809444765e-09 -9.7694354742e-10 3.4064596243e-01 -1.7584087905e-08 1.2138078043e-07 3.0982817700e-07 1.1852259673e-01" charge=0 multiplicity=2 method=b3lyp basis=def2-svpd config_type=oh_q0_m2 sample_index=353 temperature=500.0 units=atomic
O        -0.0000000004       0.0000000060       0.0625975665   3.697230383715e-10  -5.307695651041e-09  -5.577371182835e-02
H         0.0000000066      -0.0000000945      -0.9934688064  -3.696923504626e-10   5.307726359116e-09   5.577419306136e-02
2
Properties=species:S:1:pos:R:3:forces:R:3 energy=-7.568153925178e+01 dipole="2.3721424880e-09 -3.4265315564e-08 -6.7118740927e-01" quadrupole="-5.1054639395e+00 3.3868038125e-01 -2.3411857437e-08 3.3868038125e-01 -4.3097811517e+00 4.8730251088e-08 -2.3411857437e-08 4.8730251088e-08 -3.3782554867e+00" polarizability="7.5336116891e+00 -4.7976621073e-01 1.8252383666e-08 -4.7976629881e-01 6.4064796199e+00 1.4936726705e-07 -5.2638059557e-07 1.3834427967e-07 9.3557316524e+00" dipole_derivatives="-3.4870248604e-01 -1.3499907880e-06 -7.7045217335e-10 1.3499804936e-06 -3.4870248588e-01 1.1464004037e-08 -4.6202847104e-08 6.4687144530e-09 -1.2505880732e-01 3.4870227736e-01 -2.2043345157e-07 7.7945585221e-10 2.2043346676e-07 3.4870227719e-01 -1.1457065752e-08 4.6188219915e-08 -6.4541427758e-09 1.2496987566e-01" charge=0 multiplicity=2 method=b3lyp basis=def2-svpd config_type=oh_q0_m2 sample_index=354 temperature=500.0 units=atomic
O        -0.0000000002       0.0000000031       0.0603752604   1.155128697569e-10  -1.668770985842e-09  -3.268713665084e-02
H         0.0000000034      -0.0000000489      -0.9581991950  -1.155074459970e-10   1.668748780481e-09   3.268688168996e-02
2
Properties=species:S:1:pos:R:3:forces:R:3 energy=-7.567951133506e+01 dipole="-3.5810865899e-09 5.2100822452e-08 -6.4654609390e-01" quadrupole="-4.1096555822e+00 1.7761882978e-02 4.6755383631e-09 1.7761882978e-02 -5.1433145761e+00 -1.3055130070e-07 4.6755383631e-09 -1.3055130070e-07 -3.5244287105e+00" polarizability="6.0566626968e+00 -2.3758321120e-02 8.9948362464e-09 -2.3758085822e-02 7.4392862415e+00 -4.7747991867e-08 -1.0274741374e-07 -6.3348094072e-07 8.0329718356e+00" dipole_derivatives="-3.7157384148e-01 2.7054251156e-08 1.2544351916e-09 -2.7099145384e-08 -3.7157384119e-01 -1.7770231969e-08 -1.6077442155e-07 -5.2229470748e-08 -1.4152536079e-01 3.7157542864e-01 2.6461699885e-08 -1.2718686522e-09 -2.6460243506e-08 3.7157542836e-01 1.7770098453e-08 1.6086257326e-07 5.2167020703e-08 1.4152022489e-01" charge=0 multiplicity=2 method=b3lyp basis=def2-svpd config_type=oh_q0_m2 sample_index=355 temperature=500.0 units=atomic
O         0.0000000003      -0.0000000044       0.0545789330   3.631283071440e-10  -5.282695977773e-09   6.555555723857e-02
H        -0.0000000048       0.0000000698      -0.8662072729  -3.630919252972e-10   5.282656598683e-09  -6.555522704899e-02
2
Properties=species:S:1:pos:R:3:forces:R:3 energy=-7.568284062866e+01 dipole="-6.7718904052e-11 8.7951627173e-10 -6.6115198279e-01" quadrupole="-4.2720872352e+00 -3.3048582865e-01 -3.4698011941e-10 -3.3048582865e-01 -5.0761462310e+00 -2.1103208858e-09 -3.4698011941e-10 -2.1103208858e-09 -3.4428802250e+00" polarizability="6.3170334057e+00 4.5832182050e-01 -3.6964950820e-08 4.5832183072e-01 7.4320968950e+00 1.0108465925e-08 8.4127430729e-09 -1.1215252724e-07 8.7719257174e+00" dipole_derivatives="-3.5800967881e-01 -1.0385177686e-06 1.1698616415e-11 1.0385150131e-06 -3.5800967878e-01 -1.0567894761e-10 1.3757947559e-07 5.6672916360e-08 -1.3204822945e-01 3.5800926307e-01 -3.0804322061e-07 1.6100673513e-11 3.0804315657e-07 3.5800926303e-01 1.0843280079e-10 -1.3758533202e-07 -5.6665394599e-08 1.3208791658e-01" charge=0 multiplicity=2 method=b3lyp basis=def2-svpd config_type=oh_q0_m2 sample_index=356 temperature=500.0 units=atomic
O         0.0000000000      -0.0000000001       0.0579263820   1.205730924030e-13  -1.326880634753e-12   9.654288269554e-04
H        -0.0000000001       0.0000000012      -0.9193337190  -8.999918744981e-14   1.298363583323e-12  -9.653528048535e-04
2
Properties=species:S:1:pos:R:3:forces:R:3 energy=-7.568139650723e+01 dipole="-2.4270047802e-09 3.4671436690e-08 -6.5150989276e-01" quadrupole="-5.1608350480e+00 2.9537540499e-05 6.2041006750e-09 2.9537540499e-05 -4.1242458793e+00 -3.3267497231e-08 6.2041006750e-09 -3.3267497231e-08 -3.4982799045e+00" polarizability="7.4916366444e+00 -4.7578748978e-05 1.7345828000e-08 -4.6037940208e-05 6.0871985320e+00 1.0474282565e-07 8.5152415526e-08 -1.1945070126e-07 8.2709966455e+00" dipole_derivatives="-3.6694852335e-01 -1.5029050077e-06 8.4813014435e-10 1.5029397729e-06 -3.6694852329e-01 -1.2109180548e-08 2.1204862866e-07 2.5800850345e-07 -1.3846330946e-01 3.6694792746e-01 -4.3302578327e-07 -8.5033350107e-10 4.3302565926e-07 3.6694792740e-01 1.2137547713e-08 -2.1204704659e-07 -2.5800622749e-07 1.3846076893e-01" charge=0 multiplicity=2 method=b3lyp basis=def2-svpd config_type=oh_q0_m2 sample_index=357 temperature=500.0 units=atomic
O         0.0000000002      -0.0000000030       0.0556910508   1.538244500848e-10  -2.197614972173e-09   4.129435720605e-02
H        -0.0000000033       0.0000000470      -0.8838573904  -1.538305056447e-10   2.197588722739e-09  -4.129481452724e-02
2
Properties=species:S:1:pos:R:3:forces:R:3 energy=-7.568076938821e+01 dipole="3.0100299328e-09 -4.3448595550e-08 -6.7380279676e-01" quadrupole="-4.2569390544e+00 -2.4966283099e-01 1.2127670714e-08 -2.4966283099e-01 -5.1760135351e+00 1.1602133177e-07 1.2127670714e-08 1.1602133177e-07 -3.3601598827e+00" polarizability="6.3419764160e+00 3.5539382911e-01 -3.7309582587e-08 3.5539381457e-01 7.6502686632e+00 1.2214876092e-07 -6.8257195431e-07 1.0787116615e-07 9.5197722615e+00" dipole_derivatives="-3.4626799759e-01 1.1066242584e-07 -1.0209006454e-09 -1.1063362336e-07 -3.4626799761e-01 1.4395831061e-08 -1.3246009845e-07 -1.8920241762e-07 -1.2303913328e-01 3.4626839724e-01 1.8257491286e-09 1.0209179183e-09 -1.8248758150e-09 3.4626839727e-01 -1.4394604603e-08 1.3245946007e-07 1.8920651157e-07 1.2304031677e-01" charge=0 multiplicity=2 method=b3lyp basis=def2-svpd config_type=oh_q0_m2 sample_index=358 temperature=500.0 units=atomic
O        -0.0000000003       0.0000000039       0.0610367741   1.796860882317e-10  -2.593547999850e-09  -4.022054065070e-02
H         0.0000000043      -0.0000000625      -0.9686978974  -1.796708046673e-10   2.593518356027e-09   4.022040897642e-02
2
Properties=species:S:1:pos:R:3:forces:R:3 energy=-7.567337283143e+01 dipole="6.6573205310e-09 -9.5777645943e-08 -6.8858228143e-01" quadrupole="-4.2423814779e+00 1.8252568932e-02 -1.2197498693e-08 1.8252568932e-02 -5.2927667089e+00 2.8475726729e-07 -1.2197498693e-08 2.8475726729e-07 -3.2471738637e+00" polarizability="6.3899589641e+00 -2.6636795429e-02 -3.6617408704e-08 -2.6636606449e-02 7.9228293504e+00 3.6588976787e-07 -2.7183787614e-07 3.6402373276e-07 1.0555785458e+01" dipole_derivatives="-3.3235251381e-01 1.2184722112e-07 -1.8563601103e-09 -1.2176279772e-07 -3.3235251420e-01 3.0638491515e-08 1.7347231984e-07 2.2402675548e-07 -1.1171352754e-01 3.3235229079e-01 -2.2916846753e-10 1.8527536710e-09 2.2133123632e-10 3.3235229122e-01 -3.0651090149e-08 -1.7346638015e-07 -2.2415325152e-07 1.1170998940e-01" charge=0 multiplicity=2 method=b3lyp basis=def2-svpd config_type=oh_q0_m2 sample_index=359 temperature=500.0 units=atomic
O        -0.0000000006       0.0000000090       0.0649871932   7.196083442138e-10  -1.035359168752e-08  -7.443597675288e-02
H         0.0000000100      -0.0000001435      -1.0313939156  -7.196636767487e-10   1.035370657778e-08   7.443677937522e-02
2
Properties=species:S:1:pos:R:3:forces:R:3 energy=-7.568222842021e+01 dipole="1.5945794682e-09 -2.3387000391e-08 -6.6807982162e-01" quadrupole="-5.2108815916e+00 -9.1892013759e-02 -1.1609796343e-09 -9.1892013759e-02 -4.1834598907e+00 2.7222233400e-08 -1.1609796343e-09 2.7222233400e-08 -3.3990677086e+00" polarizability="7.6626660732e+00 1.2934776560e-01 -8.1424266687e-09 1.2934840575e-01 6.2164828703e+00 1.0386528665e-07 -2.8426924086e-07 3.1246061477e-07 9.1674649241e+00" dipole_derivatives="-3.5158924918e-01 -1.4527785448e-06 -5.1989933430e-10 1.4528035286e-06 -3.5158924925e-01 7.8920611429e-09 -9.4454888355e-08 9.1257695845e-08 -1.2721439186e-01 3.5158902576e-01 -2.6431023107e-07 5.3576684994e-10 2.6431000375e-07 3.5158902582e-01 -7.8552381204e-09 9.4471763745e-08 -9.1245289102e-08 1.2721895824e-01" charge=0 multiplicity=2 method=b3lyp basis=def2-svpd config_type=oh_q0_m2 sample_index=360 temperature=500.0 units=atomic
O        -0.0000000001       0.0000000021       0.0596022593   5.512925471893e-11  -8.084853437195e-10  -2.309511214931e-02
H         0.0000000023      -0.0000000331      -0.9459311065  -5.512130799935e-11   8.084619308147e-10   2.309476701740e-02
2
Properties=species:S:1:pos:R:3:forces:R:3 energy=-7.568280333422e+01 dipole="-4.1028589636e-10 5.7022046298e-09 -6.5977052019e-01" quadrupole="-4.2433173201e+00 2.9809294987e-01 3.1101716241e-09 2.9809294987e-01 -5.0957981805e+00 -1.4397690108e-08 3.1101716241e-09 -1.4397690108e-08 -3.4512060872e+00" polarizability="6.2727484650e+00 -4.1209037107e-01 -2.0931601403e-09 -4.1209038373e-01 7.4512341308e+00 -1.0515294812e-08 3.8871932729e-08 -6.2633250950e-07 8.6967762728e+00" dipole_derivatives="-3.5928889945e-01 -1.3860989146e-06 3.3347408172e-11 1.3861014548e-06 -3.5928889944e-01 -2.0294112269e-09 1.6685741677e-07 -4.4326264881e-08 -1.3298001977e-01 3.5928851103e-01 -3.5326288726e-07 -1.7476206250e-11 3.5326301414e-07 3.5928851103e-01 2.0309112206e-09 -1.6685325344e-07 4.4323877901e-08 1.3303850676e-01" charge=0 multiplicity=2 method=b3lyp basis=def2-svpd config_type=oh_q0_m2 sample_index=361 temperature=500.0 units=atomic
O         0.0000000000      -0.0000000005       0.0575994970   3.794619387127e-12  -5.390455995694e-11   6.232564259768e-03
H        -0.0000000006       0.0000000079      -0.9141458157  -3.759899764115e-12   5.390846091629e-11  -6.232985770669e-03
2
Properties=species:S:1:pos:R:3:forces:R:3 energy=-7.565635498157e+01 dipole="-9.7074515169e-09 1.3999359674e-07 -6.2200378870e-01" quadrupole="-4.0983286250e+00 -2.4143998103e-01 -4.7102947152e-08 -2.4143998103e-01 -4.9987825003e+00 -3.0380203163e-07 -4.7102947152e-08 -3.0380203163e-07 -3.6322933276e+00" polarizability="6.0018443289e+00 2.9928967419e-01 8.2630063421e-08 2.9928913529e-01 7.1180254822e+00 1.8307803771e-08 -1.2261576349e-08 -1.6588110633e-07 7.0162837990e+00" dipole_derivatives="-3.9510453698e-01 -2.4612020846e-07 3.5278422285e-09 2.4613446078e-07 -3.9510453855e-01 -5.4185491545e-08 -7.8434481132e-09 1.1393139210e-07 -1.5407834651e-01 3.9510692803e-01 6.1245299176e-07 -3.5264565690e-09 -6.1259047774e-07 3.9510692954e-01 5.4191771679e-08 7.9742601411e-09 -1.1380141274e-07 1.5402090528e-01" charge=0 multiplicity=2 method=b3lyp basis=def2-svpd config_type=oh_q0_m2 sample_index=362 temperature=500.0 units=atomic
O         0.0000000008      -0.0000000111       0.0493802481   3.586150478719e-09  -5.172327585256e-08   2.298115575128e-01
H        -0.0000000122       0.0000001764      -0.7837003716  -3.586127874013e-09   5.172298897150e-08  -2.298102375056e-01
2
Properties=species:S:1:pos:R:3:forces:R:3 energy=-7.568174703542e+01 dipole="-2.1427655998e-09 3.0275272684e-08 -6.5277033159e-01" quadrupole="-5.1535222470e+00 -1.0952572383e-01 3.5626549601e-10 -1.0952572383e-01 -4.1397527137e+00 -2.9706644705e-08 3.5626549601e-10 -2.9706644705e-08 -3.4913899012e+00" polarizability="7.4891248536e+00 1.4886749269e-01 3.4836559471e-09 1.4886799280e-01 6.1112516431e+00 -6.0589738827e-08 1.6593301802e-07 -3.0318178667e-07 8.3334735062e+00" dipole_derivatives="-3.6577770231e-01 -1.4551508410e-06 5.1872935591e-10 1.4551600807e-06 -3.6577770185e-01 -1.0400693092e-08 7.2845507404e-08 1.0723238963e-07 -1.3765530858e-01 3.6577713551e-01 -4.2002628044e-07 -5.1422179873e-10 4.2002651511e-07 3.6577713509e-01 1.0392248422e-08 -7.2849698496e-08 -1.0722739363e-07 1.3765740641e-01" charge=0 multiplicity=2 method=b3lyp basis=def2-svpd config_type=oh_q0_m2 sample_index=363 temperature=500.0 units=atomic
O         0.0000000002      -0.0000000026       0.0559773988   1.166219234319e-10  -1.647915216835e-09   3.553083880300e-02
H        -0.0000000029       0.0000000412      -0.8884019410  -1.166247384545e-10   1.647902544951e-09  -3.553124630185e-02
2
Properties=species:S:1:pos:R:3:forces:R:3 energy=-7.567535516095e+01 dipole="5.8298992824e-09 -8.4596276647e-08 -6.8544732750e-01" quadrupole="-4.2318684703e+00 1.8079734636e-02 -1.0447614604e-08 1.8079734636e-02 -5.2812798007e+00 2.4805944081e-07 -1.0447614604e-08 2.4805944081e-07 -3.2727442716e+00" polarizability="6.3584181209e+00 -2.6261361571e-02 -3.0487590307e-08 -2.6261064399e-02 7.8827168656e+00 3.0040969974e-07 1.3038595459e-06 2.9817303798e-07 1.0319167672e+01" dipole_derivatives="-3.3533183223e-01 1.2044150941e-07 -1.9665633768e-09 -1.2040378790e-07 -3.3533183209e-01 2.7223479531e-08 -2.1550375373e-07 -1.0861114785e-07 -1.1414158396e-01 3.3533173561e-01 -3.5778348718e-10 1.9337022778e-09 3.6051443364e-10 3.3533173547e-01 -2.7211377555e-08 2.1548518525e-07 1.0863784872e-07 1.1417238976e-01" charge=0 multiplicity=2 method=b3lyp basis=def2-svpd config_type=oh_q0_m2 sample_index=364 temperature=500.0 units=atomic
O        -0.0000000005       0.0000000079       0.0641165753   5.807479324339e-10  -8.427379964362e-09  -6.828339315780e-02
H         0.0000000087      -0.0000001256      -1.0175765779  -5.807573143673e-10   8.427399600606e-09   6.828358769020e-02
2
Properties=species:S:1:pos:R:3:forces:R:3 energy=-7.568257280148e+01 dipole="1.0694089925e-09 -1.5439734725e-08 -6.6580675634e-01" quadrupole="-5.0869211076e+00 3.3760077459e-01 -1.0509619195e-08 3.3760077459e-01 -4.2922185760e+00 2.0873031203e-08 -1.0509619195e-08 2.0873031203e-08 -3.4138290643e+00" polarizability="7.4746015974e+00 -4.7299584898e-01 8.5946843903e-09 -4.7299640764e-01 6.3611953952e+00 6.1554006415e-08 -1.6947100197e-07 9.9150817269e-07 9.0341261610e+00" dipole_derivatives="-3.5369744371e-01 -1.4361421683e-06 -3.7859440281e-10 1.4361702733e-06 -3.5369744382e-01 5.2134659426e-09 -1.7477488901e-07 -1.0961853647e-07 -1.2882642978e-01 3.5369717861e-01 -2.9068578488e-07 3.5947279658e-10 2.9068593947e-07 3.5369717874e-01 -5.2096310695e-09 1.7477200243e-07 1.0963102648e-07 1.2883678579e-01" charge=0 multiplicity=2 method=b3lyp basis=def2-svpd config_type=oh_q0_m2 sample_index=365 temperature=500.0 units=atomic
O        -0.0000000001       0.0000000014       0.0590454080   2.510328898994e-11  -3.621963233082e-10  -1.561982551116e-02
H         0.0000000015      -0.0000000217      -0.9370934737  -2.509942684495e-11   3.621912954828e-10   1.561946604803e-02
2
Properties=species:S:1:pos:R:3:forces:R:3 energy=-7.568130821712e+01 dipole="-2.4981763189e-09 3.5668540329e-08 -6.5121849921e-01" quadrupole="-4.1573759052e+00 1.8464062100e-01 1.2651944454e-08 1.8464062100e-01 -5.1258134193e+00 -8.9822616813e-08 1.2651944454e-08 -8.9822616813e-08 -3.4998581053e+00" polarizability="6.1313756377e+00 -2.4998099866e-01 -5.4777713542e-09 -2.4998095660e-01 7.4425361589e+00 -4.3650180411e-08 1.3403693940e-07 -8.7456864940e-07 8.2566654356e+00" dipole_derivatives="-3.6721935431e-01 -1.5006986310e-06 4.0815109931e-10 1.5006630444e-06 -3.6721935420e-01 -1.2800864599e-08 5.6721738417e-08 3.1482277896e-07 -1.3856153391e-01 3.6721874881e-01 -4.3476698489e-07 -3.8575391145e-10 4.3476677915e-07 3.6721874866e-01 1.2831230724e-08 -5.6731203069e-08 -3.1483043950e-07 1.3863287063e-01" charge=0 multiplicity=2 method=b3lyp basis=def2-svpd config_type=oh_q0_m2 sample_index=366 temperature=500.0 units=atomic
O         0.0000000002      -0.0000000030       0.0556250898   1.635965042951e-10  -2.335944372740e-09   4.264936688476e-02
H        -0.0000000034       0.0000000484      -0.8828105416  -1.636116876948e-10   2.335995660692e-09  -4.264945180540e-02
2
Properties=species:S:1:pos:R:3:forces:R:3 energy=-7.568222539566e+01 dipole="1.5945072273e-09 -2.3452389735e-08 -6.6809650865e-01" quadrupole="-5.0206765899e+00 4.0954518385e-01 -1.8300175976e-08 4.0954518385e-01 -4.3737772743e+00 3.5187245389e-08 -1.8300175976e-08 3.5187245389e-08 -3.3989580940e+00" polarizability="7.3949433944e+00 -5.7644299079e-01 1.6151873339e-08 -5.7644307060e-01 6.4844157540e+00 9.3127066803e-08 -2.9087461059e-07 7.5051668136e-08 9.1684545543e+00" dipole_derivatives="-3.5157379971e-01 -1.4614531175e-06 -4.5346415102e-10 1.4614688670e-06 -3.5157379974e-01 8.2600670152e-09 -2.6710120227e-07 -1.1573381142e-07 -1.2725255905e-01 3.5157357884e-01 -2.6458859185e-07 4.3813842475e-10 2.6458846609e-07 3.5157357890e-01 -8.2641784724e-09 2.6709845447e-07 1.1572995340e-07 1.2721172526e-01" charge=0 multiplicity=2 method=b3lyp basis=def2-svpd config_type=oh_q0_m2 sample_index=367 temperature=500.0 units=atomic
O        -0.0000000001       0.0000000021       0.0596063621   5.526733831127e-11  -8.125586269875e-10  -2.314841603871e-02
H         0.0000000023      -0.0000000332      -0.9459962218  -5.525508422461e-11   8.125356627174e-10   2.314805880428e-02
2
Properties=species:S:1:pos:R:3:forces:R:3 energy=-7.567879980635e+01 dipole="-3.9466655241e-09 5.7224993174e-08 -6.4508933980e-01" quadrupole="-4.1461068064e+00 2.0196186278e-01 2.1712821947e-08 2.0196186278e-01 -5.0974855427e+00 -1.4014048612e-07 2.1712821947e-08 -1.4014048612e-07 -3.5318099341e+00" polarizability="6.1022504185e+00 -2.6908191356e-01 -1.2355742300e-08 -2.6908188131e-01 7.3698163109e+00 -5.1211039887e-08 1.4336309989e-07 -6.3133441496e-07 7.9654534249e+00" dipole_derivatives="-3.7293600055e-01 1.7562149741e-08 1.3755269777e-09 -1.7555560013e-08 -3.7293600046e-01 -2.0446491586e-08 1.3828932444e-07 1.2188541842e-07 -1.4239407300e-01 3.7293763959e-01 3.8071153161e-08 -1.4171498977e-09 -3.8071681810e-08 3.7293763955e-01 2.0449701340e-08 -1.3827972101e-07 -1.2188774989e-07 1.4238889200e-01" charge=0 multiplicity=2 method=b3lyp basis=def2-svpd config_type=oh_q0_m2 sample_index=368 temperature=500.0 units=atomic
O         0.0000000003      -0.0000000048       0.0542570626   4.477454684641e-10  -6.490782658943e-09   7.316943805701e-02
H        -0.0000000053       0.0000000764      -0.8610989573  -4.476820339875e-10   6.490730648978e-09  -7.316907939610e-02
2
Properties=species:S:1:pos:R:3:forces:R:3 energy=-7.568014780260e+01 dipole="-3.2881284968e-09 4.7013368770e-08 -6.4799775817e-01" quadrupole="-5.1330595976e+00 -1.2605419708e-01 -9.7099443519e-10 -1.2605419708e-01 -4.1292772687e+00 -4.3766048095e-08 -9.7099443519e-10 -4.3766048095e-08 -3.5169418982e+00" polarizability="7.4335437984e+00 1.6921543192e-01 1.5582498773e-08 1.6921594404e-01 6.0860372611e+00 -1.4641470685e-07 1.9996971953e-07 -2.9992277040e-07 8.1012826950e+00" dipole_derivatives="-3.7021897350e-01 3.7613598083e-08 1.1287706169e-09 -3.7611921498e-08 -3.7021897419e-01 -1.7319847464e-08 5.1355447672e-08 1.3549875111e-07 -1.4064120838e-01 3.7022050628e-01 1.7370039251e-08 -1.1439867438e-09 -1.7380701206e-08 3.7022050698e-01 1.7339470548e-08 -5.1354892561e-08 -1.3551293421e-07 1.4064265868e-01" charge=0 multiplicity=2 method=b3lyp basis=def2-svpd config_type=oh_q0_m2 sample_index=369 temperature=500.0 units=atomic
O         0.0000000003      -0.0000000040       0.0549016750   2.953280668284e-10  -4.222200514192e-09   5.819510399580e-02
H        -0.0000000044       0.0000000632      -0.8713294225  -2.953022154472e-10   4.222193274607e-09  -5.819534664312e-02
2
Properties=species:S:1:pos:R:3:forces:R:3 energy=-7.568207464958e+01 dipole="1.8563986330e-09 -2.6188377852e-08 -6.6888082642e-01" quadrupole="-5.1948907313e+00 1.6568517569e-01 -1.1442764382e-08 1.6568517569e-01 -4.2048244257e+00 3.2266865468e-08 -1.1442764382e-08 3.2266865468e-08 -3.3937739637e+00" polarizability="7.6454019265e+00 -2.3362030233e-01 4.8441919405e-09 -2.3362120150e-01 6.2493918235e+00 1.1578344667e-07 -3.4475684077e-07 4.4684487022e-07 9.2153165486e+00" dipole_derivatives="-3.5084587453e-01 -1.3088913621e-06 -6.3536885841e-10 1.3089201620e-06 -3.5084587463e-01 8.7486158223e-09 -8.3700629760e-08 -3.2212435497e-07 -1.2665943927e-01 3.5084562848e-01 -2.4592471705e-07 6.2464541750e-10 2.4592506013e-07 3.5084562857e-01 -8.7328468253e-09 8.3689583041e-08 3.2212832402e-07 1.2664313010e-01" charge=0 multiplicity=2 method=b3lyp basis=def2-svpd config_type=oh_q0_m2 sample_index=370 temperature=500.0 units=atomic
O        -0.0000000002       0.0000000023       0.0598001733   7.117387448578e-11  -1.003692919849e-09  -2.563560890205e-02
H         0.0000000026      -0.0000000372      -0.9490721454  -7.114420710509e-11   1.003691948759e-09   2.563525895592e-02
2
Properties=species:S:1:pos:R:3:forces:R:3 energy=-7.568279904670e+01 dipole="-4.0746939790e-10 6.0440782495e-09 -6.5968127488e-01" quadrupole="-5.1878876167e+00 3.9379266093e-02 1.4775042505e-09 3.9379266093e-02 -4.1506412763e+00 -6.4620810352e-09 1.4775042505e-09 -6.4620810352e-09 -3.4517387760e+00" polarizability="7.5779080582e+00 -5.4422859747e-02 1.9324463939e-10 -5.4423313175e-02 6.1443792479e+00 -2.3223602088e-08 4.3383600357e-08 3.2918211740e-07 8.6919699524e+00" dipole_derivatives="-3.5937130432e-01 -1.6024291078e-06 1.1886981436e-10 1.6024056214e-06 -3.5937130428e-01 -2.0688577088e-09 -2.7268370895e-07 2.6691443500e-07 -1.3310220024e-01 3.5937096541e-01 -3.7020107503e-07 -1.3974997502e-10 3.7020115897e-07 3.5937096533e-01 2.0737915987e-09 2.7268937108e-07 -2.6692326127e-07 1.3309496402e-01" charge=0 multiplicity=2 method=b3lyp basis=def2-svpd config_type=oh_q0_m2 sample_index=371 temperature=500.0 units=atomic
O         0.0000000000      -0.0000000005       0.0575784923   4.054339012664e-12  -6.021400791852e-11   6.577879445460e-03
H        -0.0000000006       0.0000000084      -0.9138124566  -4.063254840797e-12   6.027212898832e-11  -6.578349182535e-03
2
Properties=species:S:1:pos:R:3:forces:R:3 energy=-7.567843519474e+01 dipole="4.4425380355e-09 -6.4139582528e-08 -6.7967113399e-01" quadrupole="-4.2407097874e+00 -1.6963503083e-01 9.9614129618e-09 -1.6963503083e-01 -5.2323689713e+00 1.7959520151e-07 9.9614129618e-09 1.7959520151e-07 -3.3175467216e+00" polarizability="6.3438036994e+00 2.4408460693e-01 -4.6491580544e-08 2.4408424146e-01 7.7706921814e+00 2.0325417049e-07 -9.9333034343e-07 1.9499586080e-07 9.9078154376e+00" dipole_derivatives="-3.4077892377e-01 1.1758430014e-07 -1.6983657956e-09 -1.1838556812e-07 -3.4077892194e-01 2.0995620275e-08 -3.2328694999e-06 -1.4499679235e-07 -1.1862397985e-01 3.4077906278e-01 3.4429499953e-10 1.6967352068e-09 2.3833696412e-10 3.4077906092e-01 -2.1002041399e-08 3.2331204658e-06 1.4500815826e-07 1.1862769822e-01" charge=0 multiplicity=2 method=b3lyp basis=def2-svpd config_type=oh_q0_m2 sample_index=372 temperature=500.0 units=atomic
O        -0.0000000004       0.0000000059       0.0625600722   3.630564544616e-10  -5.231463709989e-09  -5.543435436526e-02
H         0.0000000065      -0.0000000937      -0.9928737447  -3.630701360086e-10   5.231434433061e-09   5.543437569071e-02
2
Properties=species:S:1:pos:R:3:forces:R:3 energy=-7.568066246508e+01 dipole="3.1384870812e-09 -4.4587576253e-08 -6.7412594751e-01" quadrupole="-4.2227382281e+00 -1.6943114882e-01 7.2002523932e-09 -1.6943114882e-01 -5.2124082281e+00 1.2192588215e-07 7.2002523932e-09 1.2192588215e-07 -3.3578862761e+00" polarizability="6.2945789426e+00 2.4137678203e-01 -3.1187255663e-08 2.4137668099e-01 7.7044807333e+00 1.2254439849e-07 -6.2648993238e-07 1.1158923201e-07 9.5404095626e+00" dipole_derivatives="-3.4596665901e-01 1.1291311983e-07 -1.0235146039e-09 -1.1289735954e-07 -3.4596665896e-01 1.4791896961e-08 1.1766060348e-07 1.3442480462e-07 -1.2291274626e-01 3.4596704349e-01 1.7066170195e-09 1.0186329186e-09 -1.7116686450e-09 3.4596704344e-01 -1.4787515784e-08 -1.1766325414e-07 -1.3442899571e-07 1.2279479674e-01" charge=0 multiplicity=2 method=b3lyp basis=def2-svpd config_type=oh_q0_m2 sample_index=373 temperature=500.0 units=atomic
O        -0.0000000003       0.0000000040       0.0611192391   1.914059850004e-10  -2.719590222414e-09  -4.111824035845e-02
H         0.0000000045      -0.0000000642      -0.9700066768  -1.914050127668e-10   2.719603400835e-09   4.111818622917e-02
2
Properties=species:S:1:pos:R:3:forces:R:3 energy=-7.568181042963e+01 dipole="2.1158121965e-09 -3.0399909916e-08 -6.7009234168e-01" quadrupole="-4.2174010707e+00 1.8986206912e-01 -1.1225270969e-08 1.8986206912e-01 -5.1904621647e+00 8.2510794355e-08 -1.1225270969e-08 8.2510794355e-08 -3.3856737060e+00" polarizability="6.2715321446e+00 -2.6833892424e-01 2.7381016157e-09 -2.6833894697e-01 7.6468173355e+00 7.3607766484e-08 -3.5327231916e-07 5.7439960627e-08 9.2885817845e+00" dipole_derivatives="-3.4972047087e-01 -1.3537310393e-06 -7.3309098083e-10 1.3537354558e-06 -3.4972047074e-01 1.0153483553e-08 1.0844317111e-07 9.1534807511e-08 -1.2574289494e-01 3.4972025076e-01 -2.3403091434e-07 7.1272734790e-10 2.3403107781e-07 3.4972025061e-01 -1.0156111782e-08 -1.0844641851e-07 -9.1520652168e-08 1.2575902340e-01" charge=0 multiplicity=2 method=b3lyp basis=def2-svpd config_type=oh_q0_m2 sample_index=374 temperature=500.0 units=atomic
O        -0.0000000002       0.0000000027       0.0601012872   9.273836634251e-11  -1.333250681140e-09  -2.938807487579e-02
H         0.0000000030      -0.0000000433      -0.9538510428  -9.274687499848e-11   1.333232965425e-09   2.938769551777e-02
2
Properties=species:S:1:pos:R:3:forces:R:3 energy=-7.568139388823e+01 dipole="-2.4270538983e-09 3.4741565485e-08 -6.5150109499e-01" quadrupole="-5.1603423774e+00 2.1883495257e-02 7.3676809260e-09 2.1883495257e-02 -4.1246815943e+00 -3.3444721793e-08 7.3676809260e-09 -3.3444721793e-08 -3.4983275640e+00" polarizability="7.4909876480e+00 -2.9653774497e-02 1.3359859220e-09 -2.9653898746e-02 6.0877688494e+00 -1.1578795999e-07 1.6385330983e-07 -2.4198345928e-07 8.2705567414e+00" dipole_derivatives="-3.6695667738e-01 -1.5112926531e-06 8.7502952826e-10 1.5112520287e-06 -3.6695667739e-01 -1.2185531007e-08 6.7211292087e-08 -3.1809499479e-08 -1.3846375424e-01 3.6695608304e-01 -4.3380624542e-07 -8.5155919606e-10 4.3380607328e-07 3.6695608307e-01 1.2181704719e-08 -6.7225391920e-08 3.1812524837e-08 1.3846652918e-01" charge=0 multiplicity=2 method=b3lyp basis=def2-svpd config_type=oh_q0_m2 sample_index=375 temperature=500.0 units=atomic
O         0.0000000002      -0.0000000030       0.0556890625   1.539177270497e-10  -2.204201811570e-09   4.133503561773e-02
H        -0.0000000033       0.0000000471      -0.8838258337  -1.539886857123e-10   2.204232202628e-09  -4.133549430880e-02
2
Properties=species:S:1:pos:R:3:forces:R:3 energy=-7.568272728155e+01 dipole="7.3816743112e-10 -1.0066081912e-08 -6.6426870421e-01" quadrupole="-5.1700052788e+00 -1.8912037360e-01 9.6882886799e-10 -1.8912037360e-01 -4.1988907100e+00 1.1524812363e-08 9.6882886799e-10 1.1524812363e-08 -3.4236010255e+00" polarizability="7.5813256264e+00 2.6406524702e-01 -5.5576936448e-09 2.6406573179e-01 6.2253579256e+00 4.1724133322e-08 -1.1296783027e-07 6.1246254034e-07 8.9459102739e+00" dipole_derivatives="-3.5512287561e-01 -1.2363288519e-06 3.1923948886e-12 1.2363370049e-06 -3.5512287549e-01 3.0564633887e-09 2.6684418564e-07 3.5330571801e-08 -1.2988137427e-01 3.5512254352e-01 -2.9368324686e-07 1.7550403990e-12 2.9368269023e-07 3.5512254343e-01 -3.0744427062e-09 -2.6684526810e-07 -3.5336789050e-08 1.2993613410e-01" charge=0 multiplicity=2 method=b3lyp basis=def2-svpd config_type=oh_q0_m2 sample_index=376 temperature=500.0 units=atomic
O        -0.0000000001       0.0000000009       0.0586725632   1.148899185059e-11  -1.565760011212e-10  -1.033350227141e-02
H         0.0000000010      -0.0000000141      -0.9311761548  -1.148377987389e-11   1.565870998821e-10   1.033314456680e-02
2
Properties=species:S:1:pos:R:3:forces:R:3 energy=-7.568207882855e+01 dipole="1.8565071548e-09 -2.6123564150e-08 -6.6886008590e-01" quadrupole="-5.1555496268e+00 2.5453473124e-01 -1.4787940107e-08 2.5453473124e-01 -4.2440278533e+00 3.3954128423e-08 -1.4787940107e-08 3.3954128423e-08 -3.3939114062e+00" polarizability="7.5895960713e+00 -3.5882833888e-01 -8.3388945281e-08 -3.5882928172e-01 6.3045785582e+00 -2.4606027364e-07 -3.5338962862e-07 6.7431665453e-07 9.2140740749e+00" dipole_derivatives="-3.5086508083e-01 -1.3000822163e-06 -6.3584842280e-10 1.3000893552e-06 -3.5086508071e-01 8.6071982191e-09 4.4525771958e-09 1.4029599704e-07 -1.2666059138e-01 3.5086483262e-01 -2.4560418132e-07 6.3123093784e-10 2.4560411553e-07 3.5086483250e-01 -8.6087348420e-09 -4.4455827908e-09 -1.4030929196e-07 1.2665823038e-01" charge=0 multiplicity=2 method=b3lyp basis=def2-svpd config_type=oh_q0_m2 sample_index=377 temperature=500.0 units=atomic
O        -0.0000000002       0.0000000023       0.0597950519   7.098250836507e-11  -9.986805162038e-10  -2.557068394407e-02
H         0.0000000026      -0.0000000371      -0.9489908651  -7.097438292026e-11   9.986936376516e-10   2.557027701746e-02
2
Properties=species:S:1:pos:R:3:forces:R:3 energy=-7.568017946800e+01 dipole="3.4521744253e-09 -4.9437764513e-08 -6.7549961388e-01" quadrupole="-5.2180463539e+00 1.6739316677e-01 -2.1825378476e-08 1.6739316677e-01 -4.2264499952e+00 6.5135801369e-08 -2.1825378476e-08 6.5135801369e-08 -3.3481283703e+00" polarizability="7.7216942615e+00 -2.3907857517e-01 7.8386404760e-09 -2.3907974482e-01 6.3054357254e+00 2.4251838035e-07 -9.2952938512e-07 4.4752093069e-07 9.6290627066e+00" dipole_derivatives="-3.4468470322e-01 1.1388646233e-07 -9.0769646322e-10 -1.1389597891e-07 -3.4468470327e-01 1.7702444137e-08 1.2452636144e-07 -1.2191331278e-08 -1.2177265517e-01 3.4468502353e-01 1.2774694914e-09 8.9939783070e-10 -1.2769014014e-09 3.4468502355e-01 -1.7705416707e-08 -1.2453857390e-07 1.2201378796e-08 1.2177658937e-01" charge=0 multiplicity=2 method=b3lyp basis=def2-svpd config_type=oh_q0_m2 sample_index=378 temperature=500.0 units=atomic
O        -0.0000000003       0.0000000045       0.0614715614   2.292489171476e-10  -3.282770953797e-09  -4.485455937549e-02
H         0.0000000050      -0.0000000714      -0.9755982882  -2.292302810132e-10   3.282773414502e-09   4.485457890302e-02
2
Properties=species:S:1:pos:R:3:forces:R:3 energy=-7.567971844985e+01 dipole="-3.5067644561e-09 5.0568420463e-08 -6.4700080526e-01" quadrupole="-4.1110187627e+00 1.7919538523e-02 4.5881330674e-09 1.7919538523e-02 -5.1448825739e+00 -1.2689886520e-07 4.5881330674e-09 -1.2689886520e-07 -3.5220977865e+00" polarizability="6.0594308258e+00 -2.3999289182e-02 8.9003610926e-09 -2.3999050957e-02 7.4440157593e+00 -4.7602966383e-08 -1.0286809144e-07 -6.4775279996e-07 8.0542574620e+00" dipole_derivatives="-3.7114918734e-01 3.0143089482e-08 1.2234371996e-09 -3.0103950222e-08 -3.7114918714e-01 -1.7996745221e-08 7.5269929178e-08 -2.8564359211e-07 -1.4096898114e-01 3.7115075775e-01 2.3808775571e-08 -1.2362526927e-09 -2.3826490937e-08 3.7115075753e-01 1.7972585151e-08 -7.5275008449e-08 2.8564239862e-07 1.4123660225e-01" charge=0 multiplicity=2 method=b3lyp basis=def2-svpd config_type=oh_q0_m2 sample_index=379 temperature=500.0 units=atomic
O         0.0000000003      -0.0000000043       0.0546798085   3.426928470585e-10  -4.941606362611e-09   6.322551241681e-02
H        -0.0000000047       0.0000000678      -0.8678082416  -3.426946843475e-10   4.941609698242e-09  -6.322573259960e-02
2
Properties=species:S:1:pos:R:3:forces:R:3 energy=-7.567531595348e+01 dipole="5.8921609296e-09 -8.4833997854e-08 -6.8551278015e-01" quadrupole="-5.0907978264e+00 4.0509617085e-01 -6.5699659124e-08 4.0509617085e-01 -4.4228093449e+00 1.4591817486e-07 -6.5699659124e-08 1.4591817486e-07 -3.2722196431e+00" polarizability="7.6062783874e+00 -5.8837581793e-01 5.0039484513e-08 -5.8837582020e-01 6.6360760799e+00 4.5243481432e-07 1.9624461637e-07 4.4483566833e-07 1.0324006022e+01" dipole_derivatives="-3.3526978796e-01 1.2132646428e-07 -1.9869731246e-09 -1.2131462569e-07 -3.3526978810e-01 2.7320959828e-08 -9.4712154786e-08 2.2110789588e-07 -1.1412225207e-01 3.3526968866e-01 -2.9715142420e-10 1.9989178334e-09 3.0128654630e-10 3.3526968880e-01 -2.7329984927e-08 9.4703578313e-08 -2.2110804854e-07 1.1412165168e-01" charge=0 multiplicity=2 method=b3lyp basis=def2-svpd config_type=oh_q0_m2 sample_index=380 temperature=500.0 units=atomic
O        -0.0000000006       0.0000000079       0.0641345649   5.879860122957e-10  -8.466905584555e-09  -6.841741360913e-02
H         0.0000000087      -0.0000001260      -1.0178620862  -5.879745822027e-10   8.466948258753e-09   6.841782108207e-02
2
Properties=species:S:1:pos:R:3:forces:R:3 energy=-7.568176438186e+01 dipole="-2.0728594345e-09 3.0062596867e-08 -6.5283790984e-01" quadrupole="-4.2526152554e+00 -3.3692265077e-01 -1.3123733335e-08 -3.3692265077e-01 -5.0410989690e+00 -7.0283579700e-08 -1.3123733335e-08 -7.0283579700e-08 -3.4910175940e+00" polarizability="6.2648534402e+00 4.5805817616e-01 -1.1946803547e-06 4.5805822047e-01 7.3368825415e+00 3.5964576004e-07 1.6663741311e-07 -3.2768402764e-08 8.3368482642e+00" dipole_derivatives="-3.6571490823e-01 -1.5616758580e-06 2.0315215432e-09 1.5615894547e-06 -3.6571490822e-01 -1.1148452593e-08 2.0792281785e-07 5.6267954185e-07 -1.3766610140e-01 3.6571436730e-01 -4.2856387813e-07 -2.0345547870e-09 4.2856387146e-07 3.6571436731e-01 1.1135793660e-08 -2.0792056965e-07 -5.6268378845e-07 1.3760930798e-01" charge=0 multiplicity=2 method=b3lyp basis=def2-svpd config_type=oh_q0_m2 sample_index=381 temperature=500.0 units=atomic
O         0.0000000002      -0.0000000026       0.0559927990   1.119458513200e-10  -1.622195667879e-09   3.522645021141e-02
H        -0.0000000028       0.0000000409      -0.8886463522  -1.119632951166e-10   1.622188577197e-09  -3.522660803270e-02
2
Properties=species:S:1:pos:R:3:forces:R:3 energy=-7.568261730513e+01 dipole="1.0034620186e-09 -1.4051580921e-08 -6.6542330438e-01" quadrupole="-5.2077958676e+00 4.3547265014e-02 -3.6074844462e-09 4.3547265014e-02 -4.1687875774e+00 1.6010876981e-08 -3.6074844462e-09 1.6010876981e-08 -3.4162814262e+00" polarizability="7.6413933585e+00 -6.0952480005e-02 -7.6559975136e-10 -6.0952775482e-02 6.1870153149e+00 5.9859247665e-08 -1.4783503273e-07 2.9327630097e-07 9.0119830708e+00" dipole_derivatives="-3.5405291370e-01 -1.3293412395e-06 6.6641955945e-10 1.3293254605e-06 -3.5405291382e-01 2.0876641735e-08 7.4361156122e-08 1.1705802994e-07 -1.2914277258e-01 3.5405261834e-01 -2.8787049519e-07 -6.6534728348e-10 2.8787077872e-07 3.5405261846e-01 -2.0868997675e-08 -7.4345446466e-08 -1.1706444147e-07 1.2912511679e-01" charge=0 multiplicity=2 method=b3lyp basis=def2-svpd config_type=oh_q0_m2 sample_index=382 temperature=500.0 units=atomic
O        -0.0000000001       0.0000000012       0.0589521639   2.158193311016e-11  -3.023815060512e-10  -1.431945166428e-02
H         0.0000000014      -0.0000000198      -0.9356136210  -2.159489501816e-11   3.023432566997e-10   1.431906603611e-02
2
Properties=species:S:1:pos:R:3:forces:R:3 energy=-7.567060468514e+01 dipole="-6.8146016389e-09 9.7434236774e-08 -6.3377523079e-01" quadrupole="-5.0993543898e+00 -1.7966400842e-02 1.3471447743e-08 -1.7966400842e-02 -4.0720157578e+00 -7.4665629695e-08 1.3471447743e-08 -7.4665629695e-08 -3.5848244526e+00" polarizability="7.3093781712e+00 2.3165199872e-02 5.3093952619e-09 2.3165278326e-02 5.9847740184e+00 -2.2785492377e-07 1.8225623655e-07 -2.9081487844e-07 7.4738291025e+00" dipole_derivatives="-3.8363454548e-01 -1.2058066598e-07 2.4840110113e-09 1.2016315817e-07 -3.8363453935e-01 -3.5406063232e-08 8.1626427839e-08 -8.4518336774e-08 -1.4861582518e-01 3.8363657612e-01 3.0909211839e-07 -2.5022516287e-09 -3.0869005918e-07 3.8363656999e-01 3.5421952433e-08 -8.1175510758e-08 8.4131396294e-08 1.4861049294e-01" charge=0 multiplicity=2 method=b3lyp basis=def2-svpd config_type=oh_q0_m2 sample_index=384 temperature=500.0 units=atomic
O         0.0000000006      -0.0000000080       0.0518190132   1.513913217824e-09  -2.164577689211e-08   1.407977637809e-01
H        -0.0000000088       0.0000001264      -0.8224053440  -1.513902425607e-09   2.164561291334e-08  -1.407968602757e-01
2
Properties=species:S:1:pos:R:3:forces:R:3 energy=-7.564157313713e+01 dipole="-1.1903395518e-08 1.7175986399e-07 -6.1342689777e-01" quadrupole="-5.0263138186e+00 -6.2556567425e-02 8.9826577717e-09 -6.2556567425e-02 -4.0170407054e+00 -9.8186010249e-08 8.9826577717e-09 -9.8186010249e-08 -3.6622182531e+00" polarizability="7.1061211393e+00 7.5153519150e-02 -7.1769013630e-09 7.5153739015e-02 5.8936799631e+00 1.3813543536e-07 -6.4902531424e-08 -2.7940588676e-07 6.7122317256e+00" dipole_derivatives="-4.0378498222e-01 -4.6915062545e-11 4.8001615564e-09 -5.8888572011e-11 -4.0378498217e-01 -6.9034942203e-08 -2.5546648130e-08 6.2935406886e-08 -1.5724026915e-01 4.0378440990e-01 4.1064775518e-13 -4.7828314888e-09 4.5338256418e-13 4.0378440985e-01 6.9004450486e-08 2.5532131964e-08 -6.2949978563e-08 1.5724011151e-01" charge=0 multiplicity=2 method=b3lyp basis=def2-svpd config_type=oh_q0_m2 sample_index=385 temperature=500.0 units=atomic
O         0.0000000009      -0.0000000133       0.0476521909   6.003510062968e-09  -8.662758946266e-08   3.093837111517e-01
H        -0.0000000147       0.0000002118      -0.7562748497  -6.003485383925e-09   8.662720966924e-08  -3.093823015596e-01
2
Properties=species:S:1:pos:R:3:forces:R:3 energy=-7.565007623194e+01 dipole="-1.0710878118e-08 1.5443659160e-07 -6.1806779713e-01" quadrupole="-4.0267146741e+00 1.7663747543e-02 1.1049375368e-08 1.7663747543e-02 -5.0456987535e+00 -3.4996878694e-07 1.1049375368e-08 -3.4996878694e-07 -3.6465035843e+00" polarizability="5.9093471531e+00 -2.1602248655e-02 1.1223524922e-08 -2.1602106515e-02 7.1555356737e+00 7.0682263516e-08 -8.2572820277e-08 -9.1139921938e-08 6.8739227621e+00" dipole_derivatives="-3.9904863494e-01 -1.8515855249e-07 4.2047800454e-09 1.8461229925e-07 -3.9904864294e-01 -6.0847712553e-08 5.1305293347e-08 7.1308819960e-08 -1.5558210023e-01 3.9905102277e-01 3.8040426780e-07 -4.2170331413e-09 -3.7992935582e-07 3.9905103077e-01 6.0841099573e-08 -5.1299797743e-08 -7.1320893635e-08 1.5557657147e-01" charge=0 multiplicity=2 method=b3lyp basis=def2-svpd config_type=oh_q0_m2 sample_index=386 temperature=500.0 units=atomic
O         0.0000000008      -0.0000000121       0.0485827663   4.584528398101e-09  -6.612087637688e-08   2.646211705676e-01
H        -0.0000000134       0.0000001927      -0.7710437572  -4.584512891245e-09   6.612043648549e-08  -2.646194442851e-01
2
Properties=species:S:1:pos:R:3:forces:R:3 energy=-7.566957304535e+01 dipole="-7.0505951660e-09 1.0125496402e-07 -6.3271132011e-01" quadrupole="-4.0839428553e+00 1.2460086445e-01 2.5421167541e-08 1.2460086445e-01 -5.0806864672e+00 -2.3998813840e-07 2.5421167541e-08 -2.3998813840e-07 -3.5894282967e+00" polarizability="5.9985258585e+00 -1.6003647161e-01 -9.5747310603e-09 -1.6003573959e-01 7.2787359176e+00 -2.2529732235e-08 -1.2395144705e-07 -3.2035491339e-07 7.4303626729e+00" dipole_derivatives="-3.8465416553e-01 -1.7236574441e-07 2.8500290212e-09 1.7190143300e-07 -3.8465416237e-01 -3.7672875133e-08 -8.4273144019e-09 1.5649981311e-09 -1.4914531818e-01 3.8465620037e-01 4.3944749169e-07 -2.8230123904e-09 -4.3895737171e-07 3.8465619719e-01 3.7667933631e-08 8.4131590583e-09 -1.5451251389e-09 1.4914667920e-01" charge=0 multiplicity=2 method=b3lyp basis=def2-svpd config_type=oh_q0_m2 sample_index=387 temperature=500.0 units=atomic
O         0.0000000006      -0.0000000083       0.0515948847   1.649283450855e-09  -2.368468053865e-08   1.479982912848e-01
H        -0.0000000091       0.0000001310      -0.8188482610  -1.649286902955e-09   2.368462747260e-08  -1.479979959533e-01
2
Properties=species:S:1:pos:R:3:forces:R:3 energy=-7.568039567958e+01 dipole="3.2620079607e-09 -4.7365016033e-08 -6.7490078460e-01" quadrupole="-4.2130844270e+00 1.2863032490e-01 -1.3182830504e-08 1.2863032490e-01 -5.2273337418e+00 1.3221002752e-07 -1.3182830504e-08 1.3221002752e-07 -3.3524009797e+00" polarizability="6.2839226925e+00 -1.8348267689e-01 -3.0691565092e-09 -1.8348250616e-01 7.7306821883e+00 1.2958633542e-07 -5.7304367280e-07 1.2101894163e-07 9.5902293439e+00" dipole_derivatives="-3.4524381298e-01 1.1035142101e-07 -1.0257376016e-09 -1.1031638797e-07 -3.4524381274e-01 1.5668771414e-08 1.9290397058e-07 -1.7878672154e-07 -1.2217622639e-01 3.4524416104e-01 3.2748081438e-09 1.0087703886e-09 -3.2789565071e-09 3.4524416081e-01 -1.5663678537e-08 -1.9289383979e-07 1.7882009762e-07 1.2223498611e-01" charge=0 multiplicity=2 method=b3lyp basis=def2-svpd config_type=oh_q0_m2 sample_index=388 temperature=500.0 units=atomic
O        -0.0000000003       0.0000000043       0.0613176030   2.090045152510e-10  -3.034716999729e-09  -4.324159542418e-02
H         0.0000000047      -0.0000000683      -0.9731548566  -2.089988522522e-10   3.034718425805e-09   4.324145516008e-02
2
Properties=species:S:1:pos:R:3:forces:R:3 energy=-7.568000405102e+01 dipole="-3.3610019161e-09 4.8244529689e-08 -6.4765512696e-01" quadrupole="-5.1318958806e+00 -1.2595245169e-01 -1.0296929074e-09 -1.2595245169e-01 -4.1282287971e+00 -4.4729699720e-08 -1.0296929074e-09 -4.4729699720e-08 -3.5187207480e+00" polarizability="7.4300060015e+00 1.6892474196e-01 1.5897980031e-08 1.6892525174e-01 6.0838813006e+00 -1.4927579254e-07 2.0084284472e-07 -2.9961632202e-07 8.0850646975e+00" dipole_derivatives="-3.7053849229e-01 3.4000327058e-08 2.2622165502e-09 -3.4079898744e-08 -3.7053848921e-01 -3.0188880244e-08 2.6111057760e-07 -7.1235739529e-08 -1.4098145590e-01 3.7054003816e-01 2.0637502389e-08 -2.2403540382e-09 -2.0555383021e-08 3.7054003505e-01 3.0203644053e-08 -2.6113425311e-07 7.1189165674e-08 1.4082307152e-01" charge=0 multiplicity=2 method=b3lyp basis=def2-svpd config_type=oh_q0_m2 sample_index=389 temperature=500.0 units=atomic
O         0.0000000003      -0.0000000041       0.0548253196   3.108517870981e-10  -4.462895745226e-09   5.991200494720e-02
H        -0.0000000045       0.0000000648      -0.8701176073  -3.109119614028e-10   4.462888263363e-09  -5.991223900086e-02
2
Properties=species:S:1:pos:R:3:forces:R:3 energy=-7.567003066857e+01 dipole="-6.9699819876e-09 9.9540040778e-08 -6.3317726035e-01" quadrupole="-5.0972804644e+00 -1.8671919401e-02 1.3648043327e-08 -1.8671919401e-02 -4.0702987910e+00 -7.5738178338e-08 1.3648043327e-08 -7.5738178338e-08 -3.5874201843e+00" polarizability="7.3033458657e+00 2.4022234101e-02 5.3621365957e-09 2.4022315719e-02 5.9816877445e+00 -2.2964858740e-07 1.8080485731e-07 -2.9189346862e-07 7.4493446168e+00" dipole_derivatives="-3.8420733048e-01 -1.5216710480e-07 2.6437016807e-09 1.5224583041e-07 -3.8420733030e-01 -3.7567298885e-08 -2.3180674047e-07 -2.7539276415e-08 -1.4891793941e-01 3.8420936731e-01 3.8968953073e-07 -2.6088709367e-09 -3.8970721533e-07 3.8420936713e-01 3.7570997068e-08 2.3176469077e-07 2.7646412937e-08 1.4891258616e-01" charge=0 multiplicity=2 method=b3lyp basis=def2-svpd config_type=oh_q0_m2 sample_index=391 temperature=500.0 units=atomic
O         0.0000000006      -0.0000000081       0.0516929344   1.594209539623e-09  -2.276775319710e-08   1.448263107303e-01
H        -0.0000000090       0.0000001290      -0.8204043820  -1.594235285955e-09   2.276760646378e-08  -1.448253705992e-01
2
Properties=species:S:1:pos:R:3:forces:R:3 energy=-7.568283961499e+01 dipole="-6.7699037260e-11 1.2857867550e-09 -6.6103655109e-01" quadrupole="-4.1870721890e+00 -1.8434303468e-01 -2.7427108852e-10 -1.8434303468e-01 -5.1603978908e+00 -3.3364585107e-09 -2.7427108852e-10 -3.3364585107e-09 -3.4435813805e+00" polarizability="6.1987784767e+00 2.5557853550e-01 7.6426870754e-10 2.5557854282e-01 7.5482208958e+00 -2.3938188747e-09 7.6370535166e-09 -1.5633703726e-07 8.7655944139e+00" dipole_derivatives="-3.5811589072e-01 -2.0731258787e-06 4.5631179146e-11 2.0731595327e-06 -3.5811589080e-01 -4.3961606202e-10 -2.5329432995e-08 -9.8316688124e-08 -1.3206076965e-01 3.5811582527e-01 -3.6673359681e-07 -3.2863334352e-11 3.6673351123e-07 3.5811582534e-01 4.4339145259e-10 2.5329432995e-08 9.8312580299e-08 1.3216730664e-01" charge=0 multiplicity=2 method=b3lyp basis=def2-svpd config_type=oh_q0_m2 sample_index=392 temperature=500.0 units=atomic
O         0.0000000000      -0.0000000001       0.0578989580   1.654424985081e-13  -2.744888461988e-12   1.399359319340e-03
H        -0.0000000001       0.0000000018      -0.9188984797  -1.466917737764e-13   2.723217137164e-12  -1.399631675676e-03
2
Properties=species:S:1:pos:R:3:forces:R:3 energy=-7.567819170030e+01 dipole="-4.3112269995e-09 6.1275885450e-08 -6.4395039534e-01" quadrupole="-5.1267055490e+00 9.0259767605e-02 1.9181747754e-08 9.0259767605e-02 -4.1095712510e+00 -5.5088869147e-08 1.9181747754e-08 -5.5088869147e-08 -3.5374905681e+00" polarizability="7.4018224535e+00 -1.1983934856e-01 -7.8978845751e-09 -1.1983975747e-01 6.0513184784e+00 -1.7554265357e-07 1.8445483398e-07 -2.8276013689e-07 7.9133785840e+00" dipole_derivatives="-3.7400291059e-01 9.4404343472e-09 1.5605930576e-09 -9.3937324729e-09 -3.7400291055e-01 -2.1702178616e-08 6.4536098687e-08 1.1794062948e-07 -1.4305645566e-01 3.7400458821e-01 5.0714492019e-08 -1.5768338382e-09 -5.0724357950e-08 3.7400458816e-01 2.1714454723e-08 -6.4525301768e-08 -1.1793460652e-07 1.4305779283e-01" charge=0 multiplicity=2 method=b3lyp basis=def2-svpd config_type=oh_q0_m2 sample_index=393 temperature=500.0 units=atomic
O         0.0000000004      -0.0000000051       0.0540067703   5.308270845325e-10  -7.544463504910e-09   7.928479751009e-02
H        -0.0000000057       0.0000000816      -0.8571266363  -5.308093209913e-10   7.544460956750e-09  -7.928498513416e-02
2
Properties=species:S:1:pos:R:3:forces:R:3 energy=-7.565556169093e+01 dipole="-9.8686040476e-09 1.4197341937e-07 -6.2147689737e-01" quadrupole="-4.1840021352e+00 3.5938159436e-01 9.0808136785e-08 3.5938159436e-01 -4.9097980480e+00 -2.9704965436e-07 9.0808136785e-08 -2.9704965436e-07 -3.6342432165e+00" polarizability="6.1071979979e+00 -4.4474300926e-01 -8.6859433881e-08 -4.4474303919e-01 7.0054145189e+00 9.1799766025e-09 3.3899396836e-08 -1.6586083012e-07 6.9969379243e+00" dipole_derivatives="-3.9562913390e-01 -2.6127291574e-07 1.8809352692e-09 2.6244555312e-07 -3.9562904907e-01 -5.6598005671e-08 -2.2967533431e-07 -1.1945039402e-07 -1.5404070931e-01 3.9563150796e-01 6.4647615507e-07 -1.8568852048e-09 -6.4842949268e-07 3.9563142309e-01 5.6543842439e-08 2.2926660570e-07 1.2029408025e-07 1.5423363544e-01" charge=0 multiplicity=2 method=b3lyp basis=def2-svpd config_type=oh_q0_m2 sample_index=394 temperature=500.0 units=atomic
O         0.0000000008      -0.0000000113       0.0492730152   3.720751948461e-09  -5.352751540561e-08   2.343121749646e-01
H        -0.0000000124       0.0000001786      -0.7819985069  -3.720697161378e-09   5.352733191703e-08  -2.343114633524e-01
2
Properties=species:S:1:pos:R:3:forces:R:3 energy=-7.568227034567e+01 dipole="1.5290788935e-09 -2.2537250550e-08 -6.6784484778e-01" quadrupole="-5.2163711129e+00 4.3665998686e-02 -5.6767202549e-09 4.3665998686e-02 -4.1763958917e+00 2.6291632495e-08 -5.6767202549e-09 2.6291632495e-08 -3.4006112783e+00" polarizability="7.6689087150e+00 -6.1432008957e-02 -1.3079479277e-09 -6.1432351439e-02 6.2057356338e+00 9.9708541301e-08 -2.5767932438e-07 2.5184312769e-07 9.1535149175e+00" dipole_derivatives="-3.5180725554e-01 -1.4721735648e-06 -5.2537180085e-10 1.4721802802e-06 -3.5180725555e-01 7.5617187503e-09 -2.3611945732e-08 4.3485132162e-08 -1.2739891527e-01 3.5180703362e-01 -2.6827412281e-07 5.1364789926e-10 2.6827408791e-07 3.5180703360e-01 -7.5730193182e-09 2.3612889422e-08 -4.3475223421e-08 1.2739080574e-01" charge=0 multiplicity=2 method=b3lyp basis=def2-svpd config_type=oh_q0_m2 sample_index=395 temperature=500.0 units=atomic
O        -0.0000000001       0.0000000020       0.0595443732   5.115318307016e-11  -7.539569260034e-10  -2.234083551565e-02
H         0.0000000022      -0.0000000319      -0.9450124135  -5.115011010806e-11   7.539051796069e-10   2.234041132920e-02
2
Properties=species:S:1:pos:R:3:forces:R:3 energy=-7.567824758529e+01 dipole="4.5673200932e-09 -6.5548959849e-08 -6.8006875155e-01" quadrupole="-4.2300126944e+00 1.2937288311e-01 -1.8644516415e-08 1.2937288311e-01 -5.2458071123e+00 1.8706553700e-07 -1.8644516415e-08 1.8706553700e-07 -3.3145557068e+00" polarizability="6.3301957012e+00 -1.8625123266e-01 -6.2110639487e-09 -1.8625079151e-01 7.7925744195e+00 2.0521608972e-07 -8.0706537114e-07 1.9861684642e-07 9.9351607207e+00" dipole_derivatives="-3.4040553152e-01 1.1857108922e-07 -3.9592776771e-09 -1.1854257147e-07 -3.4040553026e-01 6.1300935989e-09 -3.4533159665e-07 -2.6981647472e-07 -1.1853589506e-01 3.4040565429e-01 1.6416950904e-10 3.9647532335e-09 -1.4333738931e-10 3.4040565306e-01 -6.1419177547e-09 3.4529143433e-07 2.6983451584e-07 1.1830774756e-01" charge=0 multiplicity=2 method=b3lyp basis=def2-svpd config_type=oh_q0_m2 sample_index=396 temperature=500.0 units=atomic
O        -0.0000000004       0.0000000060       0.0626653297   3.786571438070e-10  -5.434630835524e-09  -5.638419940010e-02
H         0.0000000067      -0.0000000959      -0.9945442579  -3.786623606518e-10   5.434649532341e-09   5.638433343992e-02
2
Properties=species:S:1:pos:R:3:forces:R:3 energy=-7.566961145465e+01 dipole="-7.0491680595e-09 1.0102690187e-07 -6.3275014394e-01" quadrupole="-4.1303062299e+00 -2.4390021779e-01 -3.2943591825e-08 -2.4390021779e-01 -5.0345686733e+00 -2.2809209781e-07 -3.2943591825e-08 -2.2809209781e-07 -3.5892615724e+00" polarizability="6.0581462399e+00 3.1330715062e-01 6.4906866215e-08 3.1330715244e-01 7.2197145009e+00 -3.7323175054e-08 2.1138266131e-07 -3.3593605522e-07 7.4319393949e+00" dipole_derivatives="-3.8461666165e-01 -1.7037467948e-07 3.2652870181e-09 1.7167974885e-07 -3.8461697705e-01 -3.7750356385e-08 1.3938519783e-07 2.1313964482e-07 -1.4912672982e-01 3.8461869681e-01 4.3591832608e-07 -3.2585325211e-09 -4.3862375197e-07 3.8461901222e-01 3.7757018063e-08 -1.4169748708e-07 -2.1310331277e-07 1.4912733711e-01" charge=0 multiplicity=2 method=b3lyp basis=def2-svpd config_type=oh_q0_m2 sample_index=397 temperature=500.0 units=atomic
O         0.0000000006      -0.0000000082       0.0516030400   1.646132649102e-09  -2.358772307697e-08   1.477335825988e-01
H        -0.0000000091       0.0000001308      -0.8189776917  -1.646098339687e-09   2.358756304215e-08  -1.477328006668e-01
2
Properties=species:S:1:pos:R:3:forces:R:3 energy=-7.568283835095e+01 dipole="-1.3538603267e-10 1.6246091920e-09 -6.6093034258e-01" quadrupole="-4.1530146262e+00 3.8233402854e-03 1.6939858532e-10 3.8233402854e-03 -5.1937551946e+00 -4.3540401779e-09 1.6939858532e-10 -4.3540401779e-09 -3.4442247989e+00" polarizability="6.1512516827e+00 -5.2922688718e-03 5.2508440919e-10 -5.2922762358e-03 7.5937047572e+00 -2.8627109133e-09 -7.9482453319e-09 -1.8206983632e-07 8.7597897579e+00" dipole_derivatives="-3.5821502816e-01 -5.9108605812e-07 1.5428544456e-11 5.9108532260e-07 -3.5821502808e-01 -5.4898388994e-10 1.1567827252e-07 -5.2306908804e-08 -1.3224604077e-01 3.5821457124e-01 -2.6035483968e-07 -4.6334161064e-11 2.6035454294e-07 3.5821457114e-01 5.5532278637e-10 -1.1567988234e-07 5.2282150831e-08 1.3224381968e-01" charge=0 multiplicity=2 method=b3lyp basis=def2-svpd config_type=oh_q0_m2 sample_index=398 temperature=500.0 units=atomic
O         0.0000000000      -0.0000000001       0.0578737903   4.029435004101e-13  -4.442061197591e-12   1.798913173854e-03
H        -0.0000000002       0.0000000023      -0.9184990494  -3.680686196477e-13   4.423544759229e-12  -1.799398263059e-03
2
Properties=species:S:1:pos:R:3:forces:R:3 energy=-7.568008781234e+01 dipole="-3.2890428680e-09 4.7524104249e-08 -6.4785371532e-01" quadrupole="-5.1401087661e+00 9.0859563808e-02 1.4875915070e-08 9.0859563808e-02 -4.1212979529e+00 -4.4766455477e-08 1.4875915070e-08 -4.4766455477e-08 -3.5176906251e+00" polarizability="7.4421716990e+00 -1.2192248631e-01 -5.5675480173e-09 -1.2192291860e-01 6.0750141135e+00 -1.4685134324e-07 1.7617602046e-07 -2.7667952182e-07 8.0944574608e+00" dipole_derivatives="-3.7035327672e-01 3.4837579394e-08 1.0998520388e-09 -3.5174581462e-08 -3.7035326503e-01 -1.6900138002e-08 -3.4583599873e-07 -2.3389334913e-07 -1.4045554684e-01 3.7035481501e-01 1.9545415785e-08 -1.1590293648e-09 -1.9180647965e-08 3.7035480331e-01 1.6874433374e-08 3.4568792273e-07 2.3389271075e-07 1.4071978959e-01" charge=0 multiplicity=2 method=b3lyp basis=def2-svpd config_type=oh_q0_m2 sample_index=399 temperature=500.0 units=atomic
O         0.0000000003      -0.0000000040       0.0548695612   2.991000111095e-10  -4.321554056294e-09   5.891593783871e-02
H        -0.0000000044       0.0000000639      -0.8708197543  -2.991327358005e-10   4.321507792289e-09  -5.891564462930e-02
2
Properties=species:S:1:pos:R:3:forces:R:3 energy=-7.568267670976e+01 dipole="8.7098794234e-10 -1.2063547041e-08 -6.6484716828e-01" quadrupole="-5.2058538048e+00 4.2384912159e-02 -3.0800100514e-09 4.2384912159e-02 -4.1668913600e+00 1.3564478314e-08 -3.0800100514e-09 1.3564478314e-08 -3.4199459932e+00" polarizability="7.6350303225e+00 -5.9252292498e-02 -6.7394906279e-10 -5.9252801684e-02 6.1825128582e+00 5.0905097329e-08 -1.2424256436e-07 -8.5453879544e-07 8.9789014483e+00" dipole_derivatives="-3.5458686288e-01 -1.2929278256e-06 -2.9188018374e-10 1.2929377055e-06 -3.5458686301e-01 4.0905263134e-09 -1.0246203885e-07 1.5045606427e-07 -1.2952342962e-01 3.5458655074e-01 -2.9170644110e-07 2.9499704814e-10 2.9170652470e-07 3.5458655088e-01 -4.0836589767e-09 1.0248393800e-07 -1.5043627455e-07 1.2952072887e-01" charge=0 multiplicity=2 method=b3lyp basis=def2-svpd config_type=oh_q0_m2 sample_index=400 temperature=500.0 units=atomic
O        -0.0000000001       0.0000000011       0.0588124259   1.617843335983e-11  -2.239441990326e-10  -1.234380420489e-02
H         0.0000000012      -0.0000000169      -0.9333958785  -1.617148329370e-11   2.239252478609e-10   1.234336252710e-02
2
Properties=species:S:1:pos:R:3:forces:R:3 energy=-7.567178389092e+01 dipole="-6.4314942844e-09 9.2787548303e-08 -6.3505575171e-01" quadrupole="-4.0907925590e+00 1.2473306706e-01 2.3438900474e-08 1.2473306706e-01 -5.0887057070e+00 -2.2182942190e-07 2.3438900474e-08 -2.2182942190e-07 -3.5791972602e+00" polarizability="6.0109634713e+00 -1.6137053230e-01 -8.1530092710e-09 -1.6136977321e-01 7.3020156582e+00 -3.1245212103e-08 -1.2399386603e-07 -3.6388137166e-07 7.5267385539e+00" dipole_derivatives="-3.8241058615e-01 -6.1067545871e-08 2.4930380953e-09 6.1723948298e-08 -3.8241057663e-01 -3.3943338754e-08 9.5518926102e-08 1.3730798165e-06 -1.4801887293e-01 3.8241257120e-01 1.5478360536e-07 -2.4854939829e-09 -1.5543943345e-07 3.8241256172e-01 3.3962977394e-08 -9.5500801711e-08 -1.3726869641e-06 1.4796008542e-01" charge=0 multiplicity=2 method=b3lyp basis=def2-svpd config_type=oh_q0_m2 sample_index=401 temperature=500.0 units=atomic
O         0.0000000005      -0.0000000076       0.0520898882   1.340249616701e-09  -1.933507060963e-08   1.323327979936e-01
H        -0.0000000084       0.0000001208      -0.8267043263  -1.340202472369e-09   1.933502624106e-08  -1.323326287351e-01
2
Properties=species:S:1:pos:R:3:forces:R:3 energy=-7.568088047823e+01 dipole="-2.7849080247e-09 4.0241980622e-08 -6.4991723444e-01" quadrupole="-5.1270282948e+00 1.6878055179e-01 1.7438773123e-08 1.6878055179e-01 -4.1477211405e+00 -4.0437707221e-08 1.7438773123e-08 -4.0437707221e-08 -3.5068398952e+00" polarizability="7.4368931095e+00 -2.2778535341e-01 -1.0762330204e-08 -2.2778591519e-01 6.1152188419e+00 -1.2713460004e-07 1.6463901776e-07 -3.3596323891e-07 8.1932365144e+00" dipole_derivatives="-3.6843077911e-01 4.3793824423e-08 9.1879162444e-10 -4.3805620920e-08 -3.6843077893e-01 -1.4486189117e-08 -1.1041950687e-07 1.8158205495e-07 -1.3945781726e-01 3.6843223687e-01 1.4649744376e-08 -9.5655069982e-10 -1.4655135255e-08 3.6843223666e-01 1.4474161812e-08 1.1044487547e-07 -1.8157464421e-07 1.3945933983e-01" charge=0 multiplicity=2 method=b3lyp basis=def2-svpd config_type=oh_q0_m2 sample_index=402 temperature=500.0 units=atomic
O         0.0000000002      -0.0000000034       0.0553315486   2.091140277339e-10  -3.021812150634e-09   4.880293310933e-02
H        -0.0000000038       0.0000000544      -0.8781518294  -2.091215046805e-10   3.021828860270e-09  -4.880323753974e-02
2
Properties=species:S:1:pos:R:3:forces:R:3 energy=-7.567107697655e+01 dipole="-6.5920286884e-09 9.5574336769e-08 -6.3427923000e-01" quadrupole="-4.0810984655e+00 -8.9934535475e-02 -8.3263177116e-09 -8.9934535475e-02 -5.0934708813e+00 -2.2675176909e-07 -8.3263177116e-09 -2.2675176909e-07 -3.5826204323e+00" polarizability="5.9972282895e+00 1.1607401029e-01 3.2834921479e-08 1.1607335967e-01 7.3038667888e+00 -2.9978082241e-08 -8.2695797783e-08 -3.4963170334e-07 7.4945744780e+00" dipole_derivatives="-3.8315249126e-01 -9.5634745206e-08 1.2018904959e-09 9.8211915790e-08 -3.8315239636e-01 -3.5437988160e-08 2.7567639838e-07 1.6536807201e-06 -1.4801427966e-01 3.8315450778e-01 2.4065299095e-07 -1.2165188611e-09 -2.4374570470e-07 3.8315441320e-01 3.5399163992e-08 -2.7605870367e-07 -1.6482393783e-06 1.4833972211e-01" charge=0 multiplicity=2 method=b3lyp basis=def2-svpd config_type=oh_q0_m2 sample_index=403 temperature=500.0 units=atomic
O         0.0000000005      -0.0000000078       0.0519254922   1.427609875937e-09  -2.070955014468e-08   1.374390082097e-01
H        -0.0000000086       0.0000001242      -0.8240952425  -1.427645600885e-09   2.070947671114e-08  -1.374387928117e-01
2
Properties=species:S:1:pos:R:3:forces:R:3 energy=-7.567874727564e+01 dipole="-3.9475898071e-09 5.7592060968e-08 -6.4498747852e-01" quadrupole="-4.1050097298e+00 1.7711656760e-02 5.1255109320e-09 1.7711656760e-02 -5.1379280630e+00 -1.4352796999e-07 5.1255109320e-09 -1.4352796999e-07 -3.5323215658e+00" polarizability="6.0473076960e+00 -2.3591693410e-02 9.5639578421e-09 -2.3591464507e-02 7.4231137258e+00 -4.7905671134e-08 -1.0501698380e-07 -5.8639195365e-07 7.9607748991e+00" dipole_derivatives="-3.7303136178e-01 1.6778773131e-08 1.4650882758e-09 -1.6793022883e-08 -3.7303136177e-01 -2.0585788520e-08 1.7645890305e-07 -3.0330965517e-07 -1.4245463160e-01 3.7303300439e-01 3.8744145982e-08 -1.4583120519e-09 -3.8744961016e-08 3.7303300437e-01 2.0571131139e-08 -1.7648277284e-07 3.0330166156e-07 1.4244944764e-01" charge=0 multiplicity=2 method=b3lyp basis=def2-svpd config_type=oh_q0_m2 sample_index=404 temperature=500.0 units=atomic
O         0.0000000003      -0.0000000048       0.0542346265   4.511386126503e-10  -6.581763901344e-09   7.371061804073e-02
H        -0.0000000053       0.0000000769      -0.8607428787  -4.511315854117e-10   6.581723106747e-09  -7.371025772041e-02
2
Properties=species:S:1:pos:R:3:forces:R:3 energy=-7.568275883493e+01 dipole="6.0464853463e-10 -8.5322537446e-09 -6.6384038300e-01" quadrupole="-4.1706466353e+00 9.4386236562e-02 -1.8325996687e-09 9.4386236562e-02 -5.1954016576e+00 2.2764869840e-08 -1.8325996687e-09 2.2764869840e-08 -3.4262920026e+00" polarizability="6.1845715578e+00 -1.3166913880e-01 -7.9820114775e-10 -1.3166811653e-01 7.6140796574e+00 1.6680978736e-08 4.2160981856e-08 9.6744419916e-07 8.9216234957e+00" dipole_derivatives="-3.5551964929e-01 -1.3786848980e-06 -2.1664956017e-10 1.3786470405e-06 -3.5551964910e-01 2.9060088395e-09 -2.4414123501e-07 -8.2535200896e-08 -1.3025339467e-01 3.5551933738e-01 -3.0939707525e-07 2.0546061352e-10 3.0939726846e-07 3.5551933723e-01 -2.8955265834e-09 2.4414137378e-07 8.2543527569e-08 1.3023277502e-01" charge=0 multiplicity=2 method=b3lyp basis=def2-svpd config_type=oh_q0_m2 sample_index=405 temperature=500.0 units=atomic
O        -0.0000000001       0.0000000008       0.0585692749   8.023474332543e-12  -1.135128251058e-10  -8.827679010764e-03
H         0.0000000008      -0.0000000119      -0.9295368958  -8.039651496296e-12   1.134564604705e-10   8.827320985815e-03
2
Properties=species:S:1:pos:R:3:forces:R:3 energy=-7.568078165843e+01 dipole="3.0102490362e-09 -4.3322090174e-08 -6.7376520583e-01" quadrupole="-4.2017447972e+00 -9.3174246149e-02 2.2668653964e-09 -9.3174246149e-02 -5.2309527176e+00 1.1988641715e-07 2.2668653964e-09 1.1988641715e-07 -3.3604237630e+00" polarizability="6.2632586875e+00 1.3262353285e-01 -2.3147639459e-08 1.3262241912e-01 7.7282296536e+00 1.1560838631e-07 3.3614093829e-07 1.0809923504e-07 9.5173763841e+00" dipole_derivatives="-3.4630303182e-01 1.1100261080e-07 7.9732957040e-10 -1.1098353260e-07 -3.4630303191e-01 1.4053623262e-08 4.0149972236e-07 8.8069690429e-08 -1.2306428064e-01 3.4630343324e-01 1.7809188496e-09 -8.2550202305e-10 -1.7780961762e-09 3.4630343334e-01 -1.4046224748e-08 -4.0149092384e-07 -8.8065374437e-08 1.2306828636e-01" charge=0 multiplicity=2 method=b3lyp basis=def2-svpd config_type=oh_q0_m2 sample_index=406 temperature=500.0 units=atomic
O        -0.0000000003       0.0000000039       0.0610271949   1.792510709963e-10  -2.579387038613e-09  -4.011560441734e-02
H         0.0000000043      -0.0000000623      -0.9685458697  -1.792360174454e-10   2.579371954506e-09   4.011553100523e-02
2
Properties=species:S:1:pos:R:3:forces:R:3 energy=-7.567883153095e+01 dipole="-3.9459499000e-09 5.7075207818e-08 -6.4515110340e-01" quadrupole="-5.1238988717e+00 -1.2320358698e-01 -1.1210356470e-09 -1.2320358698e-01 -4.1200930734e+00 -5.1319596809e-08 -1.1210356470e-09 -5.1319596809e-08 -3.5314996251e+00" polarizability="7.4049466181e+00 1.6412345972e-01 1.7867425778e-08 1.6412394816e-01 6.0677190882e+00 -1.6835192925e-07 2.0700334324e-07 -2.9863446102e-07 7.9682976864e+00" dipole_derivatives="-3.7287816851e-01 1.7997944002e-08 1.3590066760e-09 -1.8010074579e-08 -3.7287816841e-01 -2.0216200710e-08 -5.0497966919e-08 1.2557574425e-07 -1.4225808977e-01 3.7287980546e-01 3.7570000355e-08 -1.3748104194e-09 -3.7574353454e-08 3.7287980536e-01 2.0199418140e-08 5.0503490279e-08 -1.2559717155e-07 1.4236079426e-01" charge=0 multiplicity=2 method=b3lyp basis=def2-svpd config_type=oh_q0_m2 sample_index=407 temperature=500.0 units=atomic
O         0.0000000003      -0.0000000048       0.0542706757   4.455533125945e-10  -6.444120717537e-09   7.284116580037e-02
H        -0.0000000053       0.0000000762      -0.8613150062  -4.455206650174e-10   6.444127767210e-09  -7.284137289631e-02
2
Properties=species:S:1:pos:R:3:forces:R:3 energy=-7.567876892692e+01 dipole="4.2588572115e-09 -6.1622641426e-08 -6.7894370564e-01" quadrupole="-4.2104327482e+00 1.8093490933e-02 -7.1975177535e-09 1.8093490933e-02 -5.2576408969e+00 1.7565738234e-07 -7.1975177535e-09 1.7565738234e-07 -3.3229841139e+00" polarizability="6.2970561736e+00 -2.6002500408e-02 -2.0009128929e-08 -2.6002235299e-02 7.8020156425e+00 1.8641224170e-07 6.5899519711e-07 1.8304550042e-07 9.8581466178e+00" dipole_derivatives="-3.4146154620e-01 1.1675042735e-07 -1.3763254371e-09 -1.1676154374e-07 -3.4146154638e-01 2.0171768479e-08 -3.4997532650e-08 -1.8795967560e-07 -1.1918501543e-01 3.4146171518e-01 7.2173681508e-10 1.3783463001e-09 -7.2742660369e-10 3.4146171535e-01 -2.0175074526e-08 3.5004374399e-08 1.8796489365e-07 1.1918096998e-01" charge=0 multiplicity=2 method=b3lyp basis=def2-svpd config_type=oh_q0_m2 sample_index=408 temperature=500.0 units=atomic
O        -0.0000000004       0.0000000057       0.0623681826   3.365806827672e-10  -4.871227657309e-09  -5.367001588269e-02
H         0.0000000062      -0.0000000898      -0.9898283170  -3.366002472748e-10   4.871268230632e-09   5.367047820924e-02
2
Properties=species:S:1:pos:R:3:forces:R:3 energy=-7.567901120704e+01 dipole="4.1358426951e-09 -5.9646991202e-08 -6.7839796443e-01" quadrupole="-5.0360164952e+00 -4.2668636270e-01 2.7123307015e-08 -4.2668636270e-01 -4.4283096288e+00 9.4189383499e-08 2.7123307015e-08 9.4189383499e-08 -3.3270340653e+00" polarizability="7.4798111459e+00 6.1250685660e-01 -6.8703569542e-08 6.1250695293e-01 6.6074546420e+00 2.8732869997e-07 -1.5234560194e-06 2.7744164611e-07 9.8211800128e+00" dipole_derivatives="-3.4197319243e-01 1.0916703211e-07 -1.3806621505e-09 -1.1140462270e-07 -3.4197319139e-01 1.9572781396e-08 2.2898272167e-07 -2.7480960563e-07 -1.1950325060e-01 3.4197338431e-01 7.9672220289e-09 1.3610938192e-09 -5.7837269625e-09 3.4197338321e-01 -1.9560050911e-08 -2.2901050500e-07 2.7480567821e-07 1.1958775586e-01" charge=0 multiplicity=2 method=b3lyp basis=def2-svpd config_type=oh_q0_m2 sample_index=409 temperature=500.0 units=atomic
O        -0.0000000004       0.0000000055       0.0622248167   3.189967393932e-10  -4.600568325292e-09  -5.232497693596e-02
H         0.0000000060      -0.0000000868      -0.9875529968  -3.190005510143e-10   4.600597855921e-09   5.232507943072e-02
2
Properties=species:S:1:pos:R:3:forces:R:3 energy=-7.567959362535e+01 dipole="3.7623353766e-09 -5.4748351010e-08 -6.7701507686e-01" quadrupole="-5.0597018727e+00 4.0462232966e-01 -4.2349145720e-08 4.0462232966e-01 -4.3951464096e+00 8.7806501143e-08 -4.2349145720e-08 8.7806501143e-08 -3.3371852248e+00" polarizability="7.5049460938e+00 -5.7940888318e-01 3.5006357460e-08 -5.7940898549e-01 6.5533241051e+00 2.5453020986e-07 -1.1893081052e-06 2.4469415114e-07 9.7286439950e+00" dipole_derivatives="-3.4326811952e-01 1.1359610598e-07 -1.2422218118e-09 -1.1358703745e-07 -3.4326811940e-01 1.7987916697e-08 -2.6316822332e-07 -5.4892368428e-08 -1.2063487591e-01 3.4326837113e-01 6.2233039233e-10 1.2388943139e-09 -6.2575318788e-10 3.4326837103e-01 -1.7990148310e-08 2.6316585022e-07 5.4889759404e-08 1.2063973683e-01" charge=0 multiplicity=2 method=b3lyp basis=def2-svpd config_type=oh_q0_m2 sample_index=410 temperature=500.0 units=atomic
O        -0.0000000003       0.0000000050       0.0618637181   2.714474177283e-10  -3.948682314284e-09  -4.882949976207e-02
H         0.0000000055      -0.0000000794      -0.9818220996  -2.714391638598e-10   3.948694549343e-09   4.882959182907e-02
2
Properties=species:S:1:pos:R:3:forces:R:3 energy=-7.566854446591e+01 dipole="-7.2872683895e-09 1.0486378061e-07 -6.3169703300e-01" quadrupole="-4.5461986907e+00 -5.1239387545e-01 -7.4080373634e-08 -5.1239387545e-01 -4.6120067916e+00 -1.6315679432e-07 -7.4080373634e-08 -1.6315679432e-07 -3.5937589512e+00" polarizability="6.5889406223e+00 6.5610579093e-01 1.1727555912e-07 6.5610587567e-01 6.6731997419e+00 -1.2568944332e-07 2.8044405981e-07 -3.5547280942e-07 7.3893331637e+00" dipole_derivatives="-3.8562828619e-01 -2.1207291677e-07 2.7165071262e-09 2.5452326119e-07 -3.8562882952e-01 -3.9214713585e-08 1.4813175020e-05 -1.2540139344e-05 -1.4947891932e-01 3.8563031283e-01 5.1611511688e-07 -2.6931098040e-09 -5.6190565969e-07 3.8563085586e-01 3.9181688912e-08 -1.4780107999e-05 1.2574485980e-05 1.4964379507e-01" charge=0 multiplicity=2 method=b3lyp basis=def2-svpd config_type=oh_q0_m2 sample_index=411 temperature=500.0 units=atomic
O         0.0000000006      -0.0000000085       0.0513819223   1.788114210080e-09  -2.573238905403e-08   1.550115155981e-01
H        -0.0000000094       0.0000001354      -0.8154683944  -1.788059712916e-09   2.573222281243e-08  -1.550106772730e-01
2
Properties=species:S:1:pos:R:3:forces:R:3 energy=-7.567989385567e+01 dipole="-3.4332171864e-09 4.9186537690e-08 -6.4739873690e-01" quadrupole="-4.1401493791e+00 -1.6862196654e-01 -9.5343444613e-09 -1.6862196654e-01 -5.1183183553e+00 -1.2048784202e-07 -9.5343444613e-09 -1.2048784202e-07 -3.5200470529e+00" polarizability="6.0993060145e+00 2.2606905321e-01 2.7471914277e-08 2.2606806950e-01 7.4107280775e+00 -5.1521279696e-08 -7.9868233004e-08 -7.0657365640e-07 8.0729649927e+00" dipole_derivatives="-3.7077774735e-01 3.2392011075e-08 1.2026912778e-09 -3.2414394509e-08 -3.7077774876e-01 -1.7446853467e-08 -2.4379107066e-07 -7.2801714657e-07 -1.4100570207e-01 3.7077930288e-01 2.2069061115e-08 -1.2104967694e-09 -2.2068908327e-08 3.7077930430e-01 1.7445650186e-08 2.4373558727e-07 7.2797384787e-07 1.4100715560e-01" charge=0 multiplicity=2 method=b3lyp basis=def2-svpd config_type=oh_q0_m2 sample_index=412 temperature=500.0 units=atomic
O         0.0000000003      -0.0000000042       0.0547682517   3.246210246403e-10  -4.650096627070e-09   6.120481804061e-02
H        -0.0000000046       0.0000000660      -0.8692118993  -3.245794995074e-10   4.650106920131e-09  -6.120523647987e-02
2
Properties=species:S:1:pos:R:3:forces:R:3 energy=-7.568283900265e+01 dipole="6.7534323862e-11 -1.4857363838e-09 -6.6183934742e-01" quadrupole="-4.1558174398e+00 -2.3821545087e-03 -7.5235858971e-11 -2.3821545087e-03 -5.1969622802e+00 3.9848599958e-09 -7.5235858971e-11 3.9848599958e-09 -3.4386878594e+00" polarizability="6.1578152859e+00 3.3153725860e-03 9.4275262739e-08 3.3147686123e-03 7.6037319763e+00 2.7381590536e-08 4.1684718159e-09 -6.7429712271e-08 8.8097586789e+00" dipole_derivatives="-3.5737211254e-01 -2.1057952005e-06 -4.5525871157e-11 2.1057724308e-06 -3.5737211260e-01 4.9955449890e-10 7.8866357889e-08 4.2967684966e-08 -1.3161287680e-01 3.5737219794e-01 -3.4004424330e-07 2.2945939382e-11 3.4004393363e-07 3.5737219803e-01 -5.0676927494e-10 -7.8861028818e-08 -4.2969877656e-08 1.3161713970e-01" charge=0 multiplicity=2 method=b3lyp basis=def2-svpd config_type=oh_q0_m2 sample_index=413 temperature=500.0 units=atomic
O        -0.0000000000       0.0000000001       0.0580898909   1.945908659942e-13  -3.585401138460e-12  -1.595744475047e-03
H         0.0000000001      -0.0000000021      -0.9219287234  -1.627763238474e-13   3.580095456210e-12   1.595317834977e-03
2
Properties=species:S:1:pos:R:3:forces:R:3 energy=-7.567788600939e+01 dipole="4.6861327430e-09 -6.8174631110e-08 -6.8081407193e-01" quadrupole="-5.2012058373e+00 2.5013021620e-01 -3.8114331871e-08 2.5013021620e-01 -4.2797564266e+00 9.8932232488e-08 -3.8114331871e-08 9.8932232488e-08 -3.3089125908e+00" polarizability="7.7335037416e+00 -3.6055087131e-01 2.0815236141e-08 -3.6055083433e-01 6.4052777465e+00 3.5694734193e-07 1.6170793083e-07 3.5164234244e-07 9.9867963638e+00" dipole_derivatives="-3.3970500676e-01 1.1752211109e-07 -1.5231966428e-09 -1.1741153170e-07 -3.3970500982e-01 2.2107174066e-08 -2.1414607587e-07 7.4607237055e-08 -1.1775330912e-01 3.3970509936e-01 1.4372783952e-10 1.5349996893e-09 -1.9756984584e-10 3.3970510245e-01 -2.2113021326e-08 2.1414850448e-07 -7.4463019084e-08 1.1775445636e-01" charge=0 multiplicity=2 method=b3lyp basis=def2-svpd config_type=oh_q0_m2 sample_index=414 temperature=500.0 units=atomic
O        -0.0000000004       0.0000000063       0.0628633727   4.002279112390e-10  -5.821781786732e-09  -5.813831012320e-02
H         0.0000000069      -0.0000000999      -0.9976873431  -4.001778176291e-10   5.821780948860e-09   5.813835786981e-02
2
Properties=species:S:1:pos:R:3:forces:R:3 energy=-7.567219179223e+01 dipole="-6.3519514911e-09 9.1165153613e-08 -6.3551670973e-01" quadrupole="-4.9836370373e+00 3.3262259351e-01 6.1798573930e-08 3.3262259351e-01 -4.1987871332e+00 -9.2482296149e-08 6.1798573930e-08 -9.2482296149e-08 -3.5771492654e+00" polarizability="7.1686917596e+00 -4.3101833261e-01 -5.7617420058e-08 -4.3101864546e-01 6.1516473153e+00 -1.9456886182e-07 1.2468069629e-07 -3.5484803389e-07 7.5459484669e+00" dipole_derivatives="-3.8197080090e-01 -7.8629203618e-08 2.1930037853e-09 7.9039523656e-08 -3.8197079977e-01 -3.3840660891e-08 2.0443403359e-06 -2.0113032628e-06 -1.4788817768e-01 3.8197276390e-01 1.5244399442e-07 -2.2220572738e-09 -1.5285958430e-07 3.8197276278e-01 3.3854753343e-08 -2.0515091015e-06 2.0185180194e-06 1.4771405321e-01" charge=0 multiplicity=2 method=b3lyp basis=def2-svpd config_type=oh_q0_m2 sample_index=415 temperature=500.0 units=atomic
O         0.0000000005      -0.0000000075       0.0521876798   1.292738621976e-09  -1.855387949112e-08   1.293398789322e-01
H        -0.0000000083       0.0000001188      -0.8282563492  -1.292745408418e-09   1.855383434591e-08  -1.293397384548e-01
2
Properties=species:S:1:pos:R:3:forces:R:3 energy=-7.567632473005e+01 dipole="5.4753721847e-09 -7.8628913343e-08 -6.8377424236e-01" quadrupole="-5.2669910524e+00 9.4039597863e-02 -2.6689206438e-08 9.4039597863e-02 -4.2344915156e+00 1.0984600988e-07 -2.6689206438e-08 1.0984600988e-07 -3.2860241492e+00" polarizability="7.8495207491e+00 -1.3621409853e-01 -3.0449786740e-09 -1.3621500206e-01 6.3539770201e+00 4.4165748296e-07 5.9494644422e-08 5.0678658971e-07 1.0196829292e+01" dipole_derivatives="-3.3691487321e-01 1.2176312067e-07 -1.7036918509e-09 -1.2093729527e-07 -3.3691487743e-01 2.5987883749e-08 1.6350365506e-08 -2.1832693986e-07 -1.1547043986e-01 3.3691484592e-01 -8.7198737793e-10 1.6821000211e-09 2.0444323911e-10 3.3691485011e-01 -2.5987423619e-08 -1.6350892862e-08 2.1813027773e-07 1.1547403433e-01" charge=0 multiplicity=2 method=b3lyp basis=def2-svpd config_type=oh_q0_m2 sample_index=416 temperature=500.0 units=atomic
O        -0.0000000005       0.0000000073       0.0636595552   5.186952743517e-10  -7.447836622065e-09  -6.476794802413e-02
H         0.0000000081      -0.0000001162      -1.0103233380  -5.186385979816e-10   7.447857948576e-09   6.476816933889e-02
2
Properties=species:S:1:pos:R:3:forces:R:3 energy=-7.566878861901e+01 dipole="-7.2101385540e-09 1.0400065885e-07 -6.3193387359e-01" quadrupole="-4.9709810799e+00 3.3273252092e-01 7.0468860966e-08 3.3273252092e-01 -4.1887232517e+00 -1.0183575590e-07 7.0468860966e-08 -1.0183575590e-07 -3.5927530633e+00" polarizability="7.1341460727e+00 -4.2639682427e-01 -6.6658431142e-08 -4.2639710627e-01 6.1316590692e+00 -2.0241330607e-07 1.0381969302e-07 -3.4308164580e-07 7.3988813593e+00" dipole_derivatives="-3.8540119593e-01 -1.9273882410e-07 2.7587119734e-09 1.9281733313e-07 -3.8540119637e-01 -3.8792824215e-08 2.1134771711e-07 1.1875511685e-07 -1.4954848903e-01 3.8540322247e-01 4.8389942055e-07 -2.7203998705e-09 -4.8397345532e-07 3.8540322290e-01 3.8795443340e-08 -2.1132004480e-07 -1.1876816197e-07 1.4953521717e-01" charge=0 multiplicity=2 method=b3lyp basis=def2-svpd config_type=oh_q0_m2 sample_index=418 temperature=500.0 units=atomic
O         0.0000000006      -0.0000000085       0.0514315879   1.749784755209e-09  -2.523930980001e-08   1.533602453601e-01
H        -0.0000000093       0.0000001343      -0.8162566222  -1.749782457568e-09   2.523928296910e-08  -1.533601747741e-01
2
Properties=species:S:1:pos:R:3:forces:R:3 energy=-7.568158667373e+01 dipole="2.3090646317e-09 -3.3622994542e-08 -6.7100448805e-01" quadrupole="-4.2122073888e+00 -1.6769151212e-01 5.5304573499e-09 -1.6769151212e-01 -5.2018029233e+00 9.0764385749e-08 5.5304573499e-09 9.0764385749e-08 -3.3795015583e+00" polarizability="6.2675718686e+00 2.3745922767e-01 -2.2572981550e-08 2.3745922148e-01 7.6688705272e+00 8.4768946569e-08 -4.1616560997e-07 7.1052087372e-08 9.3444471123e+00" dipole_derivatives="-3.4887264274e-01 -1.3809571994e-06 -1.3663087848e-09 1.3809484943e-06 -3.4887264286e-01 1.1333696365e-08 -1.0190120969e-07 -1.2507828107e-07 -1.2509896644e-01 3.4887243994e-01 -2.2434937361e-07 1.3959310418e-09 2.2434932916e-07 3.4887244003e-01 -1.1315139362e-08 1.0191586464e-07 1.2506204405e-07 1.2510023639e-01" charge=0 multiplicity=2 method=b3lyp basis=def2-svpd config_type=oh_q0_m2 sample_index=419 temperature=500.0 units=atomic
O        -0.0000000002       0.0000000030       0.0603293546   1.105142075573e-10  -1.610539990855e-09  -3.214172724970e-02
H         0.0000000033      -0.0000000480      -0.9574706377  -1.105283743704e-10   1.610552334614e-09   3.214156512852e-02
2
Properties=species:S:1:pos:R:3:forces:R:3 energy=-7.567610425647e+01 dipole="5.5331407687e-09 -8.0069237642e-08 -6.8416423407e-01" quadrupole="-4.2276029360e+00 1.8122212489e-02 -9.7806913038e-09 1.8122212489e-02 -5.2765932817e+00 2.3341858268e-07 -9.7806913038e-09 2.3341858268e-07 -3.2829509546e+00" polarizability="6.3458917983e+00 -2.6270420424e-02 -2.8337731682e-08 -2.6270129492e-02 7.8665306526e+00 2.7575437684e-07 1.1498852075e-06 2.7334039103e-07 1.0225110344e+01" dipole_derivatives="-3.3654626221e-01 1.1992381886e-07 -1.7356872603e-09 -1.1987110403e-07 -3.3654625295e-01 2.5903820705e-08 -2.4308061120e-07 6.4377336795e-08 -1.1517473832e-01 3.3654621879e-01 3.9355521617e-10 1.7363142815e-09 -3.2939765235e-10 3.3654620957e-01 -2.5907894162e-08 2.4309780577e-07 -6.4520264131e-08 1.1517097211e-01" charge=0 multiplicity=2 method=b3lyp basis=def2-svpd config_type=oh_q0_m2 sample_index=420 temperature=500.0 units=atomic
O        -0.0000000005       0.0000000075       0.0637656251   5.305545997406e-10  -7.677519934739e-09  -6.560175501255e-02
H         0.0000000082      -0.0000001184      -1.0120067443  -5.305503255853e-10   7.677583631876e-09   6.560232805960e-02
2
Properties=species:S:1:pos:R:3:forces:R:3 energy=-7.567297881856e+01 dipole="6.7715528305e-09 -9.7873789833e-08 -6.8916817203e-01" quadrupole="-4.2603802297e+00 1.3003493175e-01 -2.8522865768e-08 1.3003493175e-01 -5.2789012248e+00 2.9044956351e-07 -2.8522865768e-08 2.9044956351e-07 -3.2422937386e+00" polarizability="6.4193994587e+00 -1.8989583478e-01 -1.4052414591e-08 -1.8989482214e-01 7.9067675506e+00 3.8069446200e-07 -1.0271770394e-06 3.7587464711e-07 1.0601107582e+01" dipole_derivatives="-3.3179372228e-01 1.2287664096e-07 -2.1355540647e-09 -1.2285528353e-07 -3.3179372199e-01 3.1333337115e-08 1.8352909470e-07 -1.8437856797e-07 -1.1124663562e-01 3.3179347706e-01 -1.9062178212e-09 2.1418677805e-09 1.8997642033e-09 3.3179347684e-01 -3.1322367971e-08 -1.8354381903e-07 1.8438923999e-07 1.1124697325e-01" charge=0 multiplicity=2 method=b3lyp basis=def2-svpd config_type=oh_q0_m2 sample_index=421 temperature=500.0 units=atomic
O        -0.0000000006       0.0000000093       0.0651520286   7.420942179503e-10  -1.072587412701e-08  -7.552505981568e-02
H         0.0000000102      -0.0000001468      -1.0340099739  -7.420879457324e-10   1.072593820727e-08   7.552557512837e-02
2
Properties=species:S:1:pos:R:3:forces:R:3 energy=-7.567282449697e+01 dipole="-6.1241320161e-09 8.8548071867e-08 -6.3625183877e-01" quadrupole="-5.0928026830e+00 -1.2479405094e-01 -2.7427613527e-09 -1.2479405094e-01 -4.0942956865e+00 -7.1210927627e-08 -2.7427613527e-09 -7.1210927627e-08 -3.5738572199e+00" polarizability="7.3139570898e+00 1.6203695641e-01 2.4929639467e-08 1.6203738466e-01 6.0174326990e+00 -2.1737060180e-07 2.0687654140e-07 -3.1198548238e-07 7.5767600279e+00" dipole_derivatives="-3.8127073246e-01 -3.1065568695e-08 2.7599660296e-09 3.1069202082e-08 -3.8127073245e-01 -3.3209078622e-08 6.3920452265e-08 3.7778366546e-07 -1.4727187492e-01 3.8127266091e-01 8.7278468923e-08 -2.7420347674e-09 -8.7275483782e-08 3.8127266092e-01 3.3211557738e-08 -6.3746563583e-08 -3.7763731031e-07 1.4732639485e-01" charge=0 multiplicity=2 method=b3lyp basis=def2-svpd config_type=oh_q0_m2 sample_index=422 temperature=500.0 units=atomic
O         0.0000000005      -0.0000000073       0.0523439862   1.199563323259e-09  -1.734425448424e-08   1.246246956301e-01
H        -0.0000000080       0.0000001156      -0.8307370464  -1.199553574113e-09   1.734414583374e-08  -1.246239669631e-01
2
Properties=species:S:1:pos:R:3:forces:R:3 energy=-7.568032981221e+01 dipole="-3.1446803340e-09 4.5493020734e-08 -6.4844593502e-01" quadrupole="-5.1498891739e+00 -1.7878252198e-02 6.6353707015e-09 -1.7878252198e-02 -4.1153411862e+00 -4.2008659054e-08 6.6353707015e-09 -4.2008659054e-08 -3.5146042909e+00" polarizability="7.4591271514e+00 2.4035105614e-02 4.8944413037e-09 2.4035201366e-02 6.0683015145e+00 -1.4360077720e-07 1.8304401181e-07 -2.4686455035e-07 8.1225873067e+00" dipole_derivatives="-3.6980107324e-01 3.7026613279e-08 1.0987899828e-09 -3.6919157131e-08 -3.6980108422e-01 -1.6121561172e-08 3.4611086219e-07 1.5253862617e-06 -1.4008792083e-01 3.6980258873e-01 1.8105483041e-08 -1.1092064958e-09 -1.8187156165e-08 3.6980259975e-01 1.6094020550e-08 -3.4609515254e-07 -1.5251715169e-06 1.4035782391e-01" charge=0 multiplicity=2 method=b3lyp basis=def2-svpd config_type=oh_q0_m2 sample_index=423 temperature=500.0 units=atomic
O         0.0000000003      -0.0000000039       0.0550017148   2.714387615213e-10  -3.926602253710e-09   5.596865495659e-02
H        -0.0000000042       0.0000000612      -0.8729171282  -2.714215367894e-10   3.926568815686e-09  -5.596838256851e-02
2
Properties=species:S:1:pos:R:3:forces:R:3 energy=-7.567974520101e+01 dipole="-3.5064849058e-09 5.0349899844e-08 -6.4706066860e-01" quadrupole="-5.0242485634e+00 3.3264935399e-01 3.4021885550e-08 3.3264935399e-01 -4.2320391613e+00 -5.7016053760e-08 3.4021885550e-08 -5.7016053760e-08 -3.5217897429e+00" polarizability="7.2826815212e+00 -4.4552579432e-01 -3.0223669588e-08 -4.4552622012e-01 6.2216370702e+00 -1.3977294614e-07 1.6186244329e-07 -4.3352593611e-07 8.0570685114e+00" dipole_derivatives="-3.7109320766e-01 2.8676182126e-08 1.2642298594e-09 -2.8593738644e-08 -3.7109321061e-01 -1.7900547877e-08 2.8302477029e-07 -3.1313177051e-07 -1.4129414102e-01 3.7109477586e-01 2.5332728230e-08 -1.2579038003e-09 -2.5427842661e-08 3.7109477879e-01 1.7911099307e-08 -2.8303806521e-07 3.1313318605e-07 1.4120550733e-01" charge=0 multiplicity=2 method=b3lyp basis=def2-svpd config_type=oh_q0_m2 sample_index=424 temperature=500.0 units=atomic
O         0.0000000003      -0.0000000043       0.0546931120   3.409589545615e-10  -4.896322208143e-09   6.292028528125e-02
H        -0.0000000047       0.0000000675      -0.8680193769  -3.409319582526e-10   4.896332880594e-09  -6.292050658263e-02
2
Properties=species:S:1:pos:R:3:forces:R:3 energy=-7.567940947272e+01 dipole="3.9520785376e-09 -5.6365818177e-08 -6.7746415542e-01" quadrupole="-4.2215009705e+00 1.2921651374e-01 -1.5879679962e-08 1.2921651374e-01 -5.2364215670e+00 1.5899010059e-07 -1.5879679962e-08 1.5899010059e-07 -3.3339062982e+00" polarizability="6.3065706424e+00 -1.8518338640e-01 -4.6872171509e-09 -1.8518308635e-01 7.7610649461e+00 1.6506814107e-07 -7.0134232542e-07 1.5762277025e-07 9.7585157127e+00" dipole_derivatives="-3.4284787754e-01 1.1646924296e-07 -1.1920571985e-09 -1.1645668417e-07 -3.4284787740e-01 1.8532961312e-08 3.0768482207e-07 -4.1469064294e-08 -1.2030005807e-01 3.4284810955e-01 5.9965658495e-10 1.1976867557e-09 -6.0506945138e-10 3.4284810938e-01 -1.8529245267e-08 -3.0768053383e-07 4.1464054412e-08 1.2030121387e-01" charge=0 multiplicity=2 method=b3lyp basis=def2-svpd config_type=oh_q0_m2 sample_index=425 temperature=500.0 units=atomic
O        -0.0000000004       0.0000000052       0.0619806300   2.915644592340e-10  -4.158233145749e-09  -4.997825168577e-02
H         0.0000000057      -0.0000000818      -0.9836775768  -2.915530138921e-10   4.158255537612e-09   4.997830746921e-02
2
Properties=species:S:1:pos:R:3:forces:R:3 energy=-7.568261769878e+01 dipole="-9.5618973583e-10 1.3796439365e-08 -6.5746330203e-01" quadrupole="-4.1570178838e+00 1.2263802476e-01 3.5590554889e-09 1.2263802476e-01 -5.1669251013e+00 -3.5892724321e-08 3.5590554889e-09 -3.5892724321e-08 -3.4648156035e+00" polarizability="6.1469959800e+00 -1.6861208550e-01 9.1437351242e-07 -1.6861102073e-01 7.5354340064e+00 -1.1962286618e-07 -4.9089307809e-08 -9.5969641114e-07 8.5738859800e+00" dipole_derivatives="-3.6142571779e-01 -1.5216426538e-06 3.2319232491e-10 1.5216691686e-06 -3.6142571762e-01 -4.7545967434e-09 -2.4335067295e-07 -6.3759969526e-08 -1.3455693373e-01 3.6142530328e-01 -3.8642701002e-07 -3.2895908201e-10 3.8642686484e-07 3.6142530313e-01 4.7603996686e-09 2.4334242954e-07 6.3763494484e-08 1.3457502871e-01" charge=0 multiplicity=2 method=b3lyp basis=def2-svpd config_type=oh_q0_m2 sample_index=426 temperature=500.0 units=atomic
O         0.0000000001      -0.0000000012       0.0570587153   2.240125146432e-11  -3.231271818788e-10   1.539754078421e-02
H        -0.0000000013       0.0000000190      -0.9055632182  -2.239522499803e-11   3.231200244422e-10  -1.539809402757e-02
2
Properties=species:S:1:pos:R:3:forces:R:3 energy=-7.567783889941e+01 dipole="4.7491804252e-09 -6.8531610902e-08 -6.8090923233e-01" quadrupole="-5.2647547194e+00 -1.8151195693e-02 -1.1869072148e-08 -1.8151195693e-02 -4.2168634722e+00 9.1381614054e-08 -1.1869072148e-08 9.1381614054e-08 -3.3081885560e+00" polarizability="7.8260597093e+00 2.6173038425e-02 -1.7760577537e-08 2.6173286684e-02 6.3150519888e+00 3.7115135176e-07 -1.4367238248e-06 4.0237939989e-07 9.9934264878e+00" dipole_derivatives="-3.3961551596e-01 1.1864637892e-07 -1.5585648214e-09 -1.1865224687e-07 -3.3961551642e-01 2.2335571656e-08 -1.4943471460e-07 1.1510367659e-07 -1.1768568240e-01 3.3961560477e-01 1.4129579871e-10 1.5481338508e-09 -1.5045859371e-10 3.3961560524e-01 -2.2342116106e-08 1.4944209759e-07 -1.1512929499e-07 1.1768164983e-01" charge=0 multiplicity=2 method=b3lyp basis=def2-svpd config_type=oh_q0_m2 sample_index=427 temperature=500.0 units=atomic
O        -0.0000000004       0.0000000063       0.0628887273   4.070832676654e-10  -5.874554236613e-09  -5.835933444460e-02
H         0.0000000070      -0.0000001005      -0.9980897385  -4.070433373667e-10   5.874605330833e-09   5.835983497086e-02
2
Properties=species:S:1:pos:R:3:forces:R:3 energy=-7.566115431659e+01 dipole="-8.8831353251e-09 1.2754668858e-07 -6.2541626386e-01" quadrupole="-5.0707704655e+00 -1.7811522697e-02 1.6996779908e-08 -1.7811522697e-02 -4.0477956942e+00 -8.7147647535e-08 1.6996779908e-08 -8.7147647535e-08 -3.6193088297e+00" polarizability="7.2268505715e+00 2.2353418103e-02 3.3544698328e-09 2.2353487413e-02 5.9430201640e+00 -2.4358610967e-07 1.5346483990e-07 -2.9759577255e-07 7.1438358449e+00" dipole_derivatives="-3.9173334039e-01 -1.4128362044e-07 3.3870634576e-09 1.4125515157e-07 -3.9173334070e-01 -4.8728389270e-08 -3.3555278001e-07 -2.4167223778e-07 -1.5257645131e-01 3.9173558720e-01 3.0806731492e-07 -3.3855264781e-09 -3.0803574271e-07 3.9173558752e-01 4.8719667744e-08 3.3558208989e-07 2.4164989454e-07 1.5257103594e-01" charge=0 multiplicity=2 method=b3lyp basis=def2-svpd config_type=oh_q0_m2 sample_index=428 temperature=500.0 units=atomic
O         0.0000000007      -0.0000000102       0.0500784195   2.866124441347e-09  -4.115352069421e-08   2.017929425061e-01
H        -0.0000000113       0.0000001621      -0.7947808588  -2.866161433749e-09   4.115326897654e-08  -2.017916997758e-01
2
Properties=species:S:1:pos:R:3:forces:R:3 energy=-7.568282289987e+01 dipole="-2.7123374265e-10 4.0685564610e-09 -6.6026242041e-01" quadrupole="-4.1521470385e+00 -3.5431303449e-02 1.0041888265e-10 -3.5431303449e-02 -5.1902136229e+00 -1.0664107339e-08 1.0041888265e-10 -1.0664107339e-08 -3.4482563233e+00" polarizability="6.1481192136e+00 4.9034289491e-02 1.3542636016e-09 4.9033869255e-02 7.5847079079e+00 -7.0403369546e-09 -1.4950696144e-08 -4.3369580497e-07 8.7234039134e+00" dipole_derivatives="-3.5883311588e-01 -1.6329681507e-06 3.5630730200e-11 1.6329968566e-06 -3.5883311586e-01 -1.3574359943e-09 -2.2264190491e-08 -6.7349237298e-08 -1.3269644433e-01 3.5883279882e-01 -3.6601037318e-07 -9.3113119823e-11 3.6601016845e-07 3.5883279878e-01 1.3934521142e-09 2.2267770960e-08 6.7331612508e-08 1.3270063340e-01" charge=0 multiplicity=2 method=b3lyp basis=def2-svpd config_type=oh_q0_m2 sample_index=429 temperature=500.0 units=atomic
O         0.0000000000      -0.0000000004       0.0577156486   1.731083257281e-12  -2.669871008642e-11   4.337807699382e-03
H        -0.0000000004       0.0000000056      -0.9159892265  -1.781302800841e-12   2.673239760531e-11  -4.338279861786e-03
2
Properties=species:S:1:pos:R:3:forces:R:3 energy=-7.565808594996e+01 dipole="-9.3795686224e-09 1.3563177722e-07 -6.2318774990e-01" quadrupole="-4.0562953465e+00 1.2381198317e-01 3.3450265120e-08 1.2381198317e-01 -5.0482553302e+00 -3.1100111973e-07 3.3450265120e-08 -3.1100111973e-07 -3.6278585293e+00" polarizability="5.9510689245e+00 -1.5410529157e-01 -1.6742583254e-08 -1.5410465331e-01 7.1857590599e+00 2.9617407670e-08 -1.1682069789e-07 -1.6678660211e-07 7.0600933931e+00" dipole_derivatives="-3.9393044084e-01 -1.9938285981e-07 3.5635748664e-09 1.9940142086e-07 -3.9393044022e-01 -5.2328680566e-08 -1.2405532157e-07 1.4364737178e-07 -1.5353008513e-01 3.9393287750e-01 4.9094551343e-07 -3.6026731660e-09 -4.9095113974e-07 3.9393287686e-01 5.2320689959e-08 1.2410630856e-07 -1.4362527834e-07 1.5353116550e-01" charge=0 multiplicity=2 method=b3lyp basis=def2-svpd config_type=oh_q0_m2 sample_index=430 temperature=500.0 units=atomic
O         0.0000000007      -0.0000000108       0.0496217467   3.309201001543e-09  -4.785289715098e-08   2.198697849798e-01
H        -0.0000000119       0.0000001714      -0.7875331293  -3.309215532717e-09   4.785275678390e-08  -2.198691870213e-01
2
Properties=species:S:1:pos:R:3:forces:R:3 energy=-7.568021420717e+01 dipole="-3.2177157820e-09 4.6435151343e-08 -6.4815932465e-01" quadrupole="-4.1424723434e+00 -1.6878795719e-01 -9.0169721084e-09 -1.6878795719e-01 -5.1209057833e+00 -1.1417654521e-07 -9.0169721084e-09 -1.1417654521e-07 -3.5161005314e+00" polarizability="6.1041181877e+00 2.2674951951e-01 2.6034002914e-08 2.2674852182e-01 7.4185482275e+00 -5.0595071471e-08 -7.8195934682e-08 -7.3685118425e-07 8.1089486156e+00" dipole_derivatives="-3.7006827792e-01 3.6180348875e-08 1.0832642926e-09 -3.6101130307e-08 -3.7006828104e-01 -1.6429861531e-08 1.0674056083e-07 -5.0750431635e-08 -1.4045069876e-01 3.7006980447e-01 1.8682691761e-08 -1.0635444234e-09 -1.8768874264e-08 3.7006980760e-01 1.6427640581e-08 -1.0674211515e-07 5.0795534445e-08 1.4053122251e-01" charge=0 multiplicity=2 method=b3lyp basis=def2-svpd config_type=oh_q0_m2 sample_index=431 temperature=500.0 units=atomic
O         0.0000000003      -0.0000000039       0.0549377146   2.848610151202e-10  -4.111521479371e-09   5.739002172430e-02
H        -0.0000000043       0.0000000625      -0.8719013986  -2.848621478218e-10   4.111514061415e-09  -5.739013749348e-02
2
Properties=species:S:1:pos:R:3:forces:R:3 energy=-7.567969446148e+01 dipole="-3.5072940879e-09 5.0715510393e-08 -6.4694741155e-01" quadrupole="-5.1446993525e+00 -1.7874170209e-02 7.3894930785e-09 -1.7874170209e-02 -4.1108576951e+00 -4.6017949866e-08 7.3894930785e-09 -4.6017949866e-08 -3.5223721567e+00" polarizability="7.4434612561e+00 2.3934222546e-02 5.1636544514e-09 2.3934316439e-02 6.0591037589e+00 -1.5562701226e-07 1.8831468513e-07 -2.5135706536e-07 8.0517527632e+00" dipole_derivatives="-3.7119904099e-01 2.9665643336e-08 1.2557974398e-09 -2.9666019690e-08 -3.7119904073e-01 -1.7973768280e-08 1.5683368493e-07 -1.3617001970e-07 -1.4128492899e-01 3.7120061341e-01 2.4103342324e-08 -1.2452488174e-09 -2.4114102483e-08 3.7120061313e-01 1.7980084841e-08 -1.5681841936e-07 1.3616868744e-07 1.4127980569e-01" charge=0 multiplicity=2 method=b3lyp basis=def2-svpd config_type=oh_q0_m2 sample_index=432 temperature=500.0 units=atomic
O         0.0000000003      -0.0000000043       0.0546679533   3.442098740961e-10  -4.977774600498e-09   6.349845615772e-02
H        -0.0000000047       0.0000000680      -0.8676200898  -3.442430293158e-10   4.977744847901e-09  -6.349813599958e-02
2
Properties=species:S:1:pos:R:3:forces:R:3 energy=-7.568085485946e+01 dipole="2.9466474422e-09 -4.2562745161e-08 -6.7353857086e-01" quadrupole="-5.2382119242e+00 -1.7529622896e-02 -7.0580524746e-09 -1.7529622896e-02 -4.1929455922e+00 5.2372202795e-08 -7.0580524746e-09 5.2372202795e-08 -3.3620125624e+00" polarizability="7.7373294896e+00 2.4945749215e-02 -9.3069557900e-09 2.4945918746e-02 6.2498572420e+00 2.0612886689e-07 -6.6786710244e-07 2.6937303167e-07 9.5029611103e+00" dipole_derivatives="-3.4651429752e-01 1.1028674798e-07 -9.1310157657e-10 -1.1026955424e-07 -3.4651429756e-01 9.5939273992e-09 -9.9386887609e-09 4.0177250415e-08 -1.2324164255e-01 3.4651470964e-01 1.8598586435e-09 8.8835596303e-10 -1.8610919921e-09 3.4651470966e-01 -9.5982376450e-09 9.9587560420e-09 -4.0167896787e-08 1.2323734762e-01" charge=0 multiplicity=2 method=b3lyp basis=def2-svpd config_type=oh_q0_m2 sample_index=433 temperature=500.0 units=atomic
O        -0.0000000003       0.0000000039       0.0609694719   1.727548540226e-10  -2.494916410982e-09  -3.948080808459e-02
H         0.0000000042      -0.0000000611      -0.9676297638  -1.727209762826e-10   2.494923786279e-09   3.948103999982e-02
2
Properties=species:S:1:pos:R:3:forces:R:3 energy=-7.567957532707e+01 dipole="-3.5798663890e-09 5.1667698993e-08 -6.4668495903e-01" quadrupole="-5.1437900705e+00 -1.7906185568e-02 7.5404285107e-09 -1.7906185568e-02 -4.1100750892e+00 -4.6696907068e-08 7.5404285107e-09 -4.6696907068e-08 -3.5237182297e+00" polarizability="7.4407254839e+00 2.3960184927e-02 5.2179891694e-09 2.3960278701e-02 6.0575111039e+00 -1.5773840895e-07 1.8950048346e-07 -2.5225309232e-07 8.0394616433e+00" dipole_derivatives="-3.7144413521e-01 2.8148797155e-08 1.2901224454e-09 -2.8211597486e-08 -3.7144413535e-01 -1.9851336934e-08 7.7954032118e-09 2.9956268022e-07 -1.4144290395e-01 3.7144571733e-01 2.5692341561e-08 -1.2907426346e-09 -2.5679484675e-08 3.7144571744e-01 1.9846957923e-08 -7.7855499825e-09 -2.9955735115e-07 1.4143777240e-01" charge=0 multiplicity=2 method=b3lyp basis=def2-svpd config_type=oh_q0_m2 sample_index=434 temperature=500.0 units=atomic
O         0.0000000003      -0.0000000044       0.0546097192   3.591517865112e-10  -5.181252159448e-09   6.484178727885e-02
H        -0.0000000048       0.0000000692      -0.8666958725  -3.591275992617e-10   5.181204589428e-09  -6.484146043449e-02
2
Properties=species:S:1:pos:R:3:forces:R:3 energy=-7.568275828522e+01 dipole="6.0454492834e-10 -8.5996204823e-09 -6.6384817328e-01" quadrupole="-5.0079424085e+00 4.0729204694e-01 -6.6580510391e-09 4.0729204694e-01 -4.3581582401e+00 1.2390837160e-08 -6.6580510391e-09 1.2390837160e-08 -3.4262433550e+00" polarizability="7.3525287117e+00 -5.6812397313e-01 5.9889000813e-09 -5.6812416606e-01 6.4461521345e+00 3.1668232609e-08 -8.4095907093e-08 9.2012126437e-07 8.9220613247e+00" dipole_derivatives="-3.5551246044e-01 -1.4080831091e-06 -1.4598000399e-10 1.4081040372e-06 -3.5551246058e-01 2.9504286335e-09 -7.1477962438e-08 1.3069392790e-07 -1.3022564668e-01 3.5551215512e-01 -3.1142603111e-07 1.5999616300e-10 3.1142622840e-07 3.5551215523e-01 -2.9589743783e-09 7.1495392939e-08 -1.3070372562e-07 1.3022201789e-01" charge=0 multiplicity=2 method=b3lyp basis=def2-svpd config_type=oh_q0_m2 sample_index=435 temperature=500.0 units=atomic
O        -0.0000000001       0.0000000008       0.0585711400   8.030098603899e-12  -1.147706840700e-10  -8.854847538493e-03
H         0.0000000008      -0.0000000120      -0.9295664960  -8.034824857984e-12   1.147810620530e-10   8.854691073674e-03
2
Properties=species:S:1:pos:R:3:forces:R:3 energy=-7.568238422541e+01 dipole="-1.3718481132e-09 1.9686014629e-08 -6.5578907429e-01" quadrupole="-4.8557135313e+00 -4.7952332484e-01 -1.1482306978e-08 -4.7952332484e-01 -4.4572597470e+00 -2.8500696985e-08 -1.1482306978e-08 -2.8500696985e-08 -3.4744648272e+00" polarizability="7.0991671336e+00 6.5657615786e-01 2.2470418349e-08 6.5657639267e-01 6.5535865089e+00 -5.9205402287e-08 1.4807107052e-07 -9.2048793982e-07 8.4866755682e+00" dipole_derivatives="-3.6297727113e-01 -1.5100732010e-06 4.0215023390e-10 1.5101024088e-06 -3.6297727102e-01 -6.5790538993e-09 -1.2170792152e-08 -3.3705108149e-07 -1.3569346846e-01 3.6297680743e-01 -4.0064096964e-07 -4.0387515331e-10 4.0064085693e-07 3.6297680731e-01 6.5694758290e-09 1.2173873021e-08 3.3705882529e-07 1.3569361489e-01" charge=0 multiplicity=2 method=b3lyp basis=def2-svpd config_type=oh_q0_m2 sample_index=436 temperature=500.0 units=atomic
O         0.0000000001      -0.0000000017       0.0566701316   4.676098790557e-11  -6.707987856275e-10   2.234619023267e-02
H        -0.0000000019       0.0000000270      -0.8993961134  -4.674378638761e-11   6.708112027783e-10  -2.234654460166e-02
2
Properties=species:S:1:pos:R:3:forces:R:3 energy=-7.568208905305e+01 dipole="1.8570695355e-09 -2.5928079020e-08 -6.6880925679e-01" quadrupole="-4.2136870000e+00 1.9069896711e-01 -9.6248119752e-09 1.9069896711e-01 -5.1855488336e+00 6.9996142705e-08 -9.6248119752e-09 6.9996142705e-08 -3.3942484689e+00" polarizability="6.2616266020e+00 -2.6882464822e-01 2.3068087507e-09 -2.6882468624e-01 7.6316643440e+00 6.0459107835e-08 -2.9095493450e-07 4.1885857376e-08 9.2110267411e+00" dipole_derivatives="-3.5091226241e-01 -1.2728858656e-06 -6.1008404144e-10 1.2728530683e-06 -3.5091226225e-01 8.6432868829e-09 -1.2103062996e-07 2.1713736365e-07 -1.2661889541e-01 3.5091200791e-01 -2.4441747502e-07 6.2732163449e-10 2.4441781853e-07 3.5091200773e-01 -8.6340761031e-09 1.2101952773e-07 -2.1713675302e-07 1.2668895113e-01" charge=0 multiplicity=2 method=b3lyp basis=def2-svpd config_type=oh_q0_m2 sample_index=437 temperature=500.0 units=atomic
O        -0.0000000002       0.0000000023       0.0597824731   7.143010237548e-11  -9.839349878149e-10  -2.541062554162e-02
H         0.0000000026      -0.0000000368      -0.9487912317  -7.141288447828e-11   9.839248279352e-10   2.541031320787e-02
2
Properties=species:S:1:pos:R:3:forces:R:3 energy=-7.568143712862e+01 dipole="2.4355835422e-09 -3.5612589932e-08 -6.7157081173e-01" quadrupole="-4.5073972110e+00 4.8213096946e-01 -2.9696018636e-08 4.8213096946e-01 -4.9104379304e+00 8.3145805539e-08 -2.9696018636e-08 8.3145805539e-08 -3.3756366807e+00" polarizability="6.6880896008e+00 -6.8336470187e-01 2.6708692521e-08 -6.8336477036e-01 7.2593556883e+00 1.1006800371e-07 -5.2146206350e-07 8.9613733440e-08 9.3794477399e+00" dipole_derivatives="-3.4834590078e-01 -1.3809368803e-06 -6.7078464624e-10 1.3809154038e-06 -3.4834590074e-01 1.2072220281e-08 -3.4265426607e-07 3.7555744625e-07 -1.2468653192e-01 3.4834570385e-01 -2.1735356479e-07 6.8866951031e-10 2.1735374098e-07 3.4834570378e-01 -1.2112195451e-08 3.4266314786e-07 -3.7556302512e-07 1.2468614604e-01" charge=0 multiplicity=2 method=b3lyp basis=def2-svpd config_type=oh_q0_m2 sample_index=438 temperature=500.0 units=atomic
O        -0.0000000002       0.0000000032       0.0604715820   1.227208880791e-10  -1.793538245254e-09  -3.382160425730e-02
H         0.0000000035      -0.0000000509      -0.9597278896  -1.226710260199e-10   1.793493232176e-09   3.382136397971e-02
2
Properties=species:S:1:pos:R:3:forces:R:3 energy=-7.568189854723e+01 dipole="2.0508023086e-09 -2.9108109756e-08 -6.6970708052e-01" quadrupole="-5.2248230584e+00 -4.1783176340e-05 -5.6016008770e-09 -4.1783176340e-05 -4.1804469160e+00 3.4441587525e-08 -5.6016008770e-09 3.4441587525e-08 -3.3882616092e+00" polarizability="7.6928606089e+00 5.2144350182e-05 -4.8149884871e-09 5.2398633720e-05 6.2179299680e+00 1.3292656575e-07 1.3758168921e-07 1.3597510398e-07 9.2651689913e+00" dipole_derivatives="-3.5007843766e-01 -1.3171859088e-06 -6.3889784024e-10 1.3171950082e-06 -3.5007843749e-01 9.7166273661e-09 -2.6029617350e-07 3.9181349831e-07 -1.2602371875e-01 3.5007820433e-01 -2.3652858740e-07 6.8566502628e-10 2.3652858508e-07 3.5007820418e-01 -9.7389037489e-09 2.6028770805e-07 -3.9179670619e-07 1.2604113349e-01" charge=0 multiplicity=2 method=b3lyp basis=def2-svpd config_type=oh_q0_m2 sample_index=439 temperature=500.0 units=atomic
O        -0.0000000002       0.0000000026       0.0600053128   8.637399955857e-11  -1.225969317370e-09  -2.820663024420e-02
H         0.0000000029      -0.0000000414      -0.9523278587  -8.637342254614e-11   1.225955045801e-09   2.820623162684e-02
2
Properties=species:S:1:pos:R:3:forces:R:3 energy=-7.568251190505e+01 dipole="-1.1635699521e-09 1.6700646182e-08 -6.5662920534e-01" quadrupole="-5.1129850695e+00 2.5286442767e-01 9.3443413557e-09 2.5286442767e-01 -4.2054891335e+00 -1.9220865406e-08 9.3443413557e-09 -1.9220865406e-08 -3.4696464488e+00" polarizability="7.4563449349e+00 -3.4693602895e-01 4.7478857039e-08 -3.4693648264e-01 6.2112333397e+00 1.5217587558e-07 1.0313935170e-07 -5.7001716865e-07 8.5302339965e+00" dipole_derivatives="-3.6219857313e-01 -1.5064908238e-06 4.1640061573e-10 1.5064757310e-06 -3.6219857308e-01 -5.6625268482e-09 -7.1451677908e-08 5.4333093580e-08 -1.3514135172e-01 3.6219813245e-01 -3.9292294003e-07 -4.2224354045e-10 3.9292281476e-07 3.6219813235e-01 5.6681658534e-09 7.1457173512e-08 -5.4317633724e-08 1.3514325147e-01" charge=0 multiplicity=2 method=b3lyp basis=def2-svpd config_type=oh_q0_m2 sample_index=440 temperature=500.0 units=atomic
O         0.0000000001      -0.0000000014       0.0568647296   3.333968580494e-11  -4.788296425022e-10   1.882737339976e-02
H        -0.0000000016       0.0000000230      -0.9024845237  -3.336394951301e-11   4.788716831364e-10  -1.882792882144e-02
2
Properties=species:S:1:pos:R:3:forces:R:3 energy=-7.567328320152e+01 dipole="6.6531217168e-09 -9.6243023115e-08 -6.8871650896e-01" quadrupole="-4.2428307049e+00 1.8157885621e-02 -1.2205646659e-08 1.8157885621e-02 -5.2932635604e+00 2.8623986524e-07 -1.2205646659e-08 2.8623986524e-07 -3.2460586249e+00" polarizability="6.3913342413e+00 -2.6503777731e-02 -3.6682455420e-08 -2.6503589094e-02 7.9245709070e+00 3.6880176738e-07 -2.7088604358e-07 3.6695082912e-07 1.0566138597e+01" dipole_derivatives="-3.3222454081e-01 1.2132435212e-07 -2.1864549199e-09 -1.2131192031e-07 -3.3222454071e-01 3.0830144424e-08 2.1536704364e-07 1.8860704665e-07 -1.1160808468e-01 3.3222431266e-01 -3.8290227888e-10 2.1971543690e-09 3.7394794081e-10 3.3222431259e-01 -3.0828288582e-08 -2.1536769590e-07 -1.8860467355e-07 1.1160455347e-01" charge=0 multiplicity=2 method=b3lyp basis=def2-svpd config_type=oh_q0_m2 sample_index=441 temperature=500.0 units=atomic
O        -0.0000000006       0.0000000091       0.0650248980   7.216181395804e-10  -1.043698176924e-08  -7.468709323614e-02
H         0.0000000100      -0.0000001442      -1.0319923183  -7.216762058590e-10   1.043707971243e-08   7.468790413943e-02
2
Properties=species:S:1:pos:R:3:forces:R:3 energy=-7.568246221973e+01 dipole="1.2671486447e-09 -1.8340424028e-08 -6.6664176397e-01" quadrupole="-4.5729602844e+00 5.0772447004e-01 -1.6197749220e-08 5.0772447004e-01 -4.8117545170e+00 3.9610132429e-08 -1.6197749220e-08 3.9610132429e-08 -3.4084512578e+00" polarizability="6.7582798346e+00 -7.1262568634e-01 1.5315529369e-08 -7.1262575872e-01 7.0934409679e+00 5.3458552475e-08 -2.0084257331e-07 1.8681186447e-08 9.0826865667e+00" dipole_derivatives="-3.5292329690e-01 -1.4324058163e-06 -4.6215401872e-10 1.4323915677e-06 -3.5292329703e-01 6.1725999881e-09 7.1632588750e-08 7.8627049316e-08 -1.2828878097e-01 3.5292304496e-01 -2.8052621296e-07 4.7882532653e-10 2.8052619832e-07 3.5292304507e-01 -6.1310005980e-09 -7.1657013656e-08 -7.8626272160e-08 1.2825187716e-01" charge=0 multiplicity=2 method=b3lyp basis=def2-svpd config_type=oh_q0_m2 sample_index=442 temperature=500.0 units=atomic
O        -0.0000000001       0.0000000016       0.0592491424   3.510609710104e-11  -5.064492843376e-10  -1.841176593911e-02
H         0.0000000018      -0.0000000259      -0.9403268857  -3.510821084400e-11   5.064742918779e-10   1.841159745421e-02
2
Properties=species:S:1:pos:R:3:forces:R:3 energy=-7.568198184414e+01 dipole="-1.8618898659e-09 2.6891336584e-08 -6.5373714978e-01" quadrupole="-4.1592430251e+00 -1.6888791769e-01 -5.0796529065e-09 -1.6888791769e-01 -5.1403281974e+00 -6.7582359410e-08 -5.0796529065e-09 -6.7582359410e-08 -3.4860349734e+00" polarizability="6.1401926288e+00 2.3012812782e-01 1.5758287845e-08 2.3012808667e-01 7.4770269411e+00 -3.7887465961e-08 1.3614567152e-07 -9.7980435431e-07 8.3819818394e+00" dipole_derivatives="-3.6488032533e-01 -1.5440811148e-06 5.6289622765e-10 1.5440921819e-06 -3.6488032530e-01 -9.3822276027e-09 -2.7784177736e-07 -3.4783148584e-08 -1.3693728935e-01 3.6487980806e-01 -4.2030241047e-07 -5.8882303721e-10 4.2030233604e-07 3.6487980805e-01 9.3669684194e-09 2.7784213819e-07 3.4792668746e-08 1.3703477264e-01" charge=0 multiplicity=2 method=b3lyp basis=def2-svpd config_type=oh_q0_m2 sample_index=443 temperature=500.0 units=atomic
O         0.0000000002      -0.0000000023       0.0561981654   8.881976357253e-11  -1.284006456348e-09   3.121468992528e-02
H        -0.0000000025       0.0000000367      -0.8919056661  -8.883494912502e-11   1.284010617083e-09  -3.121501547569e-02
2
Properties=species:S:1:pos:R:3:forces:R:3 energy=-7.568263665931e+01 dipole="9.3711819358e-10 -1.3454364989e-08 -6.6524494282e-01" quadrupole="-4.1807941337e+00 1.2162213830e-01 -3.5137335748e-09 1.2162213830e-01 -5.1946002216e+00 3.6103468488e-08 -3.5137335748e-09 3.6103468488e-08 -3.4174186577e+00" polarizability="6.2032403229e+00 -1.7017868399e-01 -4.8101283558e-10 -1.7017755150e-01 7.6217464327e+00 2.7651372677e-08 7.0592352746e-08 2.1731482006e-09 9.0017165162e+00" dipole_derivatives="-3.5421818719e-01 -1.4245097409e-06 -2.9212887382e-10 1.4244944376e-06 -3.5421818725e-01 4.5503068625e-09 -4.5146025807e-08 -1.9508006321e-09 -1.2923318171e-01 3.5421790976e-01 -2.9652174217e-07 3.1704146737e-10 2.9652183006e-07 3.5421790984e-01 -4.5502376664e-09 4.5150994055e-08 1.9464152512e-09 1.2923886698e-01" charge=0 multiplicity=2 method=b3lyp basis=def2-svpd config_type=oh_q0_m2 sample_index=444 temperature=500.0 units=atomic
O        -0.0000000001       0.0000000012       0.0589088515   1.932145532274e-11  -2.772638301756e-10  -1.371049125190e-02
H         0.0000000013      -0.0000000189      -0.9349262227  -1.931328341004e-11   2.772834447924e-10   1.371012860761e-02
2
Properties=species:S:1:pos:R:3:forces:R:3 energy=-7.567487122787e+01 dipole="-5.5122992249e-09 7.9462404274e-08 -6.3882703592e-01" quadrupole="-5.1166955096e+00 -1.7860227463e-02 1.1140065196e-08 -1.7860227463e-02 -4.0867988842e+00 -6.5089369164e-08 1.1140065196e-08 -6.5089369164e-08 -3.5620807664e+00" polarizability="7.3600480595e+00 2.3378254490e-02 5.7081952396e-09 2.3378338169e-02 6.0119559365e+00 -2.0739698789e-07 1.9219821426e-07 -2.7859749173e-07 7.6864789543e+00" dipole_derivatives="-3.7882732686e-01 -2.3143497833e-08 2.0766129052e-09 2.3172328926e-08 -3.7882732692e-01 -3.4964867116e-08 -8.6716134273e-08 2.1194523914e-07 -1.4595497114e-01 3.7882915478e-01 8.9869086506e-08 -2.1227450570e-09 -8.9875172220e-08 3.7882915483e-01 3.4957620959e-08 8.6736534621e-08 -2.1195689648e-07 1.4594969902e-01" charge=0 multiplicity=2 method=b3lyp basis=def2-svpd config_type=oh_q0_m2 sample_index=445 temperature=500.0 units=atomic
O         0.0000000005      -0.0000000066       0.0528947834   9.375708569115e-10  -1.351514017494e-08   1.086536457274e-01
H        -0.0000000072       0.0000001044      -0.8394785976  -9.375326736962e-10   1.351507574167e-08  -1.086530939551e-01
2
Properties=species:S:1:pos:R:3:forces:R:3 energy=-7.568192052865e+01 dipole="-1.9319581636e-09 2.7806365392e-08 -6.5347258034e-01" quadrupole="-4.1366273074e+00 8.1520477318e-02 5.3458990538e-09 8.1520477318e-02 -5.1612204658e+00 -7.1446508394e-08 5.3458990538e-09 -7.1446508394e-08 -3.4875062676e+00" polarizability="6.1087237087e+00 -1.1099981120e-01 1.9636933363e-09 -1.1099899769e-01 7.5038488759e+00 -3.6493606363e-08 -8.0639936550e-08 -9.1487710752e-07 8.3686597844e+00" dipole_derivatives="-3.6512577898e-01 -1.5306131647e-06 6.4072715876e-10 1.5306157465e-06 -3.6512577889e-01 -9.7304985551e-09 3.9789560535e-08 2.6473198633e-07 -1.3719264452e-01 3.6512525044e-01 -4.2124639175e-07 -6.7363507993e-10 4.2124632129e-07 3.6512525034e-01 9.6984658015e-09 -3.9768716098e-08 -2.6473981340e-07 1.3720355490e-01" charge=0 multiplicity=2 method=b3lyp basis=def2-svpd config_type=oh_q0_m2 sample_index=446 temperature=500.0 units=atomic
O         0.0000000002      -0.0000000024       0.0561376665   9.576788108356e-11  -1.378119183341e-09   3.238654686178e-02
H        -0.0000000026       0.0000000379      -0.8909455046  -9.575059088793e-11   1.378122466390e-09  -3.238700717784e-02
2
Properties=species:S:1:pos:R:3:forces:R:3 energy=-7.568284159497e+01 dipole="-6.7999433164e-15 -1.3520693195e-10 -6.6144107448e-01" quadrupole="-5.1919792082e+00 -6.0998295288e-02 1.2468568092e-11 -6.0998295288e-02 -4.1581659901e+00 1.6138342024e-10 1.2468568092e-11 1.6138342024e-10 -3.4411210044e+00" polarizability="7.5943526688e+00 8.4644402716e-02 -1.0841845054e-08 8.4645095233e-02 6.1598952436e+00 1.8303248621e-07 -1.8054149741e-11 -8.0433809238e-09 8.7878021757e+00" dipole_derivatives="-3.5774001507e-01 3.6449389620e-11 8.6352961240e-12 -4.1147503951e-12 -3.5774001511e-01 4.3516784240e-11 9.9700525613e-08 -9.7590546755e-09 -1.3190029700e-01 3.5774067808e-01 1.3332640287e-13 -5.7955897027e-14 -8.7609978292e-14 3.5774067812e-01 -4.6067695111e-11 -9.9693781008e-08 9.7586938530e-09 1.3189380395e-01" charge=0 multiplicity=2 method=b3lyp basis=def2-svpd config_type=oh_q0_m2 sample_index=447 temperature=500.0 units=atomic
O        -0.0000000000       0.0000000000       0.0579950816  -6.540389876683e-14  -6.762415867690e-15  -1.168861308445e-04
H         0.0000000000      -0.0000000002      -0.9204240313  -5.362160546168e-16   2.330793241845e-14   1.164673799041e-04
2
Properties=species:S:1:pos:R:3:forces:R:3 energy=-7.568225916544e+01 dipole="1.5255899000e-09 -2.2731610795e-08 -6.6790831431e-01" quadrupole="-4.3004095074e+00 -3.3962191283e-01 9.4522739991e-09 -3.3962191283e-01 -5.0927819584e+00 5.6865938104e-08 9.4522739991e-09 5.6865938104e-08 -3.4001947717e+00" polarizability="6.3804718206e+00 4.7792839088e-01 -2.2822618846e-08 4.7792847072e-01 7.4955147899e+00 5.7698666001e-08 -2.8118077725e-07 2.9669179913e-08 9.1572804935e+00" dipole_derivatives="-3.5174835625e-01 -1.4980023950e-06 -1.1339759713e-10 1.4979997960e-06 -3.5174835632e-01 7.5314922230e-09 3.0024743802e-07 -1.0821765706e-07 -1.2744163188e-01 3.5174814260e-01 -2.6889684468e-07 1.0881452563e-10 2.6889685826e-07 3.5174814264e-01 -7.5410527167e-09 -3.0025062991e-07 1.0822634455e-07 1.2734660700e-01" charge=0 multiplicity=2 method=b3lyp basis=def2-svpd config_type=oh_q0_m2 sample_index=448 temperature=500.0 units=atomic
O        -0.0000000001       0.0000000020       0.0595599998   5.173040573536e-11  -7.673577862630e-10  -2.254492696183e-02
H         0.0000000022      -0.0000000322      -0.9452604179  -5.169046925675e-11   7.673478436957e-10   2.254456865420e-02
2
Properties=species:S:1:pos:R:3:forces:R:3 energy=-7.566214012701e+01 dipole="1.0124794177e-08 -1.4572463013e-07 -7.0244312137e-01" quadrupole="-5.3198357490e+00 -1.6016145232e-01 1.5599893739e-09 -1.6016145232e-01 -4.3149350089e+00 2.4511036114e-07 1.5599893739e-09 2.4511036114e-07 -3.1224988442e+00" polarizability="8.0747382011e+00 2.3769879889e-01 -1.0228258835e-07 2.3769870936e-01 6.5833524709e+00 1.0731568355e-06 -4.5292991543e-08 1.0699557743e-06 1.1732716940e+01" dipole_derivatives="-3.1891613942e-01 3.5066113429e-11 -3.1587890530e-09 -2.4360817984e-11 -3.1891613946e-01 4.5337562042e-08 -8.8588816838e-08 -3.2568336916e-08 -1.0040740253e-01 3.1891631233e-01 5.2821304015e-14 3.1480247415e-09 1.3938016483e-13 3.1891631237e-01 -4.5331507104e-08 8.8577450930e-08 3.2556943252e-08 1.0040437881e-01" charge=0 multiplicity=2 method=b3lyp basis=def2-svpd config_type=oh_q0_m2 sample_index=449 temperature=500.0 units=atomic
O        -0.0000000010       0.0000000143       0.0690876983   1.375457358503e-09  -1.979654450598e-08  -9.542632719089e-02
H         0.0000000158      -0.0000002275      -1.0964719072  -1.375457143397e-09   1.979676950265e-08   9.542727565846e-02
2
Properties=species:S:1:pos:R:3:forces:R:3 energy=-7.567777169212e+01 dipole="4.7473453573e-09 -6.9029109277e-08 -6.8104441928e-01" quadrupole="-4.2805091000e+00 -2.5013426223e-01 1.8518380786e-08 -2.5013426223e-01 -5.2020444414e+00 1.9028924497e-07 1.8518380786e-08 1.9028924497e-07 -3.3071588889e+00" polarizability="6.4074448032e+00 3.6069617816e-01 -6.1899881608e-08 3.6069586074e-01 7.7363088901e+00 2.3225264732e-07 -1.3877037706e-06 2.2217712456e-07 1.0002854278e+01" dipole_derivatives="-3.3948835074e-01 1.1811108257e-07 -1.5577469060e-09 -1.1815283215e-07 -3.3948835090e-01 2.2496802778e-08 -1.8878694441e-07 2.3966566232e-07 -1.1752819649e-01 3.3948843415e-01 -4.6394650393e-11 1.5448692557e-09 4.8330762728e-11 3.3948843425e-01 -2.2499176614e-08 1.8880921826e-07 -2.3967115792e-07 1.1757480083e-01" charge=0 multiplicity=2 method=b3lyp basis=def2-svpd config_type=oh_q0_m2 sample_index=450 temperature=500.0 units=atomic
O        -0.0000000004       0.0000000064       0.0629247734   4.089869748051e-10  -5.946984275986e-09  -5.867327230116e-02
H         0.0000000070      -0.0000001012      -0.9986618173  -4.089935075974e-10   5.947009696056e-09   5.867347600984e-02
2
Properties=species:S:1:pos:R:3:forces:R:3 energy=-7.568041146910e+01 dipole="3.2653542472e-09 -4.7174920387e-08 -6.7485610291e-01" quadrupole="-4.1971944304e+00 1.8077411642e-02 -5.3414270427e-09 1.8077411642e-02 -5.2429180536e+00 1.3220100552e-07 -5.3414270427e-09 1.3220100552e-07 -3.3527185860e+00" polarizability="6.2610803971e+00 -2.5788654780e-02 -1.4301631202e-08 -2.5788407195e-02 7.7528935010e+00 1.2807897046e-07 4.0246843957e-07 1.2350045960e-07 9.5873462136e+00" dipole_derivatives="-3.4528551222e-01 1.1203057698e-07 -1.2452332214e-09 -1.1203976435e-07 -3.4528551222e-01 1.5576764558e-08 3.9622492787e-07 -2.1979917886e-09 -1.2220312852e-01 3.4528586239e-01 1.4634492215e-09 1.2213112584e-09 -1.4649007560e-09 3.4528586237e-01 -1.5561117588e-08 -3.9622391479e-07 2.2176011027e-09 1.2226856223e-01" charge=0 multiplicity=2 method=b3lyp basis=def2-svpd config_type=oh_q0_m2 sample_index=451 temperature=500.0 units=atomic
O        -0.0000000003       0.0000000043       0.0613061367   2.084776747025e-10  -3.014271291811e-09  -4.312017517879e-02
H         0.0000000047      -0.0000000680      -0.9729728776  -2.084625649451e-10   3.014256780724e-09   4.312010197846e-02
2
Properties=species:S:1:pos:R:3:forces:R:3 energy=-7.566496429197e+01 dipole="-8.1545637193e-09 1.1651340455e-07 -6.2846299735e-01" quadrupole="-4.2776244194e+00 4.2182032604e-01 8.6852198059e-08 4.2182032604e-01 -4.8601461895e+00 -2.3776624585e-07 8.6852198059e-08 -2.3776624585e-07 -3.6071846315e+00" polarizability="6.2378405013e+00 -5.3446875345e-01 -8.5190750191e-08 -5.3446880088e-01 6.9759175277e+00 -4.5682172205e-08 5.8449825957e-08 -2.7466072001e-07 7.2611271037e+00" dipole_derivatives="-3.8875702860e-01 -1.3152721204e-07 5.7165639927e-09 1.3158256346e-07 -3.8875702857e-01 -4.2957103552e-08 -2.6114294061e-07 -1.5899781491e-07 -1.5135040154e-01 3.8875914837e-01 2.9322151549e-07 -5.7057621664e-09 -2.9326022771e-07 3.8875914832e-01 4.2986436789e-08 2.6113894380e-07 1.5897685945e-07 1.5120257248e-01" charge=0 multiplicity=2 method=b3lyp basis=def2-svpd config_type=oh_q0_m2 sample_index=452 temperature=500.0 units=atomic
O         0.0000000007      -0.0000000094       0.0507076017   2.314195697152e-09  -3.306625571206e-08   1.783563098992e-01
H        -0.0000000104       0.0000001492      -0.8047664366  -2.314216815676e-09   3.306612391839e-08  -1.783556854439e-01
2
Properties=species:S:1:pos:R:3:forces:R:3 energy=-7.568246365006e+01 dipole="1.2671821738e-09 -1.8274206222e-08 -6.6663193433e-01" quadrupole="-5.2028291060e+00 -1.0688287885e-01 -4.9672831075e-10 -1.0688287885e-01 -4.1818210437e+00 2.1025640168e-08 -4.9672831075e-10 2.1025640168e-08 -3.4085147993e+00" polarizability="7.6420632386e+00 1.4999508127e-01 -6.8786610495e-09 1.4999572900e-01 6.2092590919e+00 7.9317534301e-08 -2.1055333735e-07 3.6611518567e-07 9.0821148426e+00" dipole_derivatives="-3.5293240337e-01 -1.4202116338e-06 -4.5563710151e-10 1.4201811366e-06 -3.5293240342e-01 6.1556789461e-09 9.5903285313e-09 -1.0200207345e-07 -1.2823690979e-01 3.5293214826e-01 -2.7988164415e-07 4.2756090366e-10 2.7988134526e-07 3.5293214830e-01 -6.1600098967e-09 -9.5937424671e-09 1.0200001954e-07 1.2825295361e-01" charge=0 multiplicity=2 method=b3lyp basis=def2-svpd config_type=oh_q0_m2 sample_index=453 temperature=500.0 units=atomic
O        -0.0000000001       0.0000000016       0.0592467428   3.496015372570e-11  -5.038717235068e-10  -1.837946581479e-02
H         0.0000000018      -0.0000000258      -0.9402888029  -3.493605494714e-11   5.038204763053e-10   1.837909126672e-02
2
Properties=species:S:1:pos:R:3:forces:R:3 energy=-7.568277336087e+01 dipole="5.3778270524e-10 -7.7305854582e-09 -6.6361582944e-01" quadrupole="-5.1854295563e+00 -1.3501714542e-01 8.8942131448e-11 -1.3501714542e-01 -4.1791273087e+00 8.6211230021e-09 8.8942131448e-11 8.6211230021e-09 -3.4276971871e+00" polarizability="7.5987495349e+00 1.8825759964e-01 -1.5563910986e-08 1.8825797401e-01 6.1956938606e+00 1.4931811138e-07 -7.6913465927e-08 4.9311802826e-07 8.9089441685e+00" dipole_derivatives="-3.5572760674e-01 -1.4498958483e-06 -1.9357542900e-10 1.4499064472e-06 -3.5572760669e-01 2.6022425988e-09 1.0719050647e-07 -1.1217929363e-07 -1.3043203099e-01 3.5572730692e-01 -3.1696754338e-07 1.8227591054e-10 3.1696763233e-07 3.5572730689e-01 -2.6253204582e-09 -1.0718098631e-07 1.1217146656e-07 1.3039764476e-01" charge=0 multiplicity=2 method=b3lyp basis=def2-svpd config_type=oh_q0_m2 sample_index=454 temperature=500.0 units=atomic
O        -0.0000000000       0.0000000007       0.0585152295   6.498570021881e-12  -9.357121304175e-11  -8.032464788445e-03
H         0.0000000008      -0.0000000108      -0.9286791554  -6.508791012604e-12   9.356819635738e-11   8.032110035802e-03
2
Properties=species:S:1:pos:R:3:forces:R:3 energy=-7.568169644994e+01 dipole="2.2441371597e-09 -3.2143750234e-08 -6.7056772199e-01" quadrupole="-5.1608385289e+00 2.5603553769e-01 -1.8226567007e-08 2.5603553769e-01 -4.2502277725e+00 4.2436330962e-08 -1.8226567007e-08 4.2436330962e-08 -3.3824649863e+00" polarizability="7.6078788269e+00 -3.6218691973e-01 -7.8162133109e-08 -3.6218796976e-01 6.3197251025e+00 -2.0516743744e-07 -4.7365268066e-07 6.4352653879e-07 9.3176199900e+00" dipole_derivatives="-3.4927869005e-01 -1.3336290248e-06 -6.2319960572e-10 1.3336130105e-06 -3.4927869005e-01 1.1113571980e-08 1.3153347855e-07 -4.7380238621e-08 -1.2551237053e-01 3.4927847073e-01 -2.2708023214e-07 6.2463436217e-10 2.2708053890e-07 3.4927847074e-01 -1.1098902230e-08 -1.3152409717e-07 4.7390980029e-08 1.2542231354e-01" charge=0 multiplicity=2 method=b3lyp basis=def2-svpd config_type=oh_q0_m2 sample_index=455 temperature=500.0 units=atomic
O        -0.0000000002       0.0000000029       0.0602200019   1.031206679537e-10  -1.477976300967e-09  -3.083067035152e-02
H         0.0000000032      -0.0000000458      -0.9557351300  -1.031640468357e-10   1.477980127254e-09   3.083049382933e-02
2
Properties=species:S:1:pos:R:3:forces:R:3 energy=-7.568188655326e+01 dipole="-2.0016785759e-09 2.8299607352e-08 -6.5332996279e-01" quadrupole="-5.1664612213e+00 -2.7094829656e-02 3.9332433513e-09 -2.7094829656e-02 -4.1304577230e+00 -2.7770106702e-08 3.9332433513e-09 -2.7770106702e-08 -3.4882975000e+00" polarizability="7.5100384723e+00 3.6871287825e-02 4.9658357398e-09 3.6871445310e-02 6.0999740385e+00 -6.3760578611e-08 1.5256005328e-07 -2.4580817398e-07 8.3614939999e+00" dipole_derivatives="-3.6525815972e-01 -1.4569891640e-06 6.9046439610e-10 1.4570004499e-06 -3.6525815964e-01 -9.8708566642e-09 -1.2541143124e-07 2.7934418667e-07 -1.3729835892e-01 3.6525761064e-01 -4.1606213677e-07 -6.9844638734e-10 4.1606232444e-07 3.6525761056e-01 9.8739982755e-09 1.2542855643e-07 -2.7933130808e-07 1.3729780488e-01" charge=0 multiplicity=2 method=b3lyp basis=def2-svpd config_type=oh_q0_m2 sample_index=456 temperature=500.0 units=atomic
O         0.0000000002      -0.0000000024       0.0561050800   1.011914866722e-10  -1.430307539710e-09   3.302113092755e-02
H        -0.0000000027       0.0000000386      -0.8904283345  -1.011713469815e-10   1.430363507700e-09  -3.302163254285e-02
2
Properties=species:S:1:pos:R:3:forces:R:3 energy=-7.568271705966e+01 dipole="-7.4891133383e-10 1.0287536923e-08 -6.5846055410e-01" quadrupole="-5.1825814595e+00 5.1092414943e-02 2.7163971923e-09 5.1092414943e-02 -4.1479126035e+00 -1.0814848494e-08 2.7163971923e-09 -1.0814848494e-08 -3.4589776937e+00" polarizability="7.5630624495e+00 -7.0403186995e-02 6.0550188521e-08 -7.0403745408e-02 6.1372012413e+00 1.1701546066e-06 7.4432931892e-08 5.2371465507e-07 8.6266137652e+00" dipole_derivatives="-3.6050201267e-01 -1.3104320030e-06 2.6346609234e-10 1.3104498516e-06 -3.6050201255e-01 -3.5305371036e-09 -1.2279735562e-07 2.3972376861e-07 -1.3397358194e-01 3.6050157973e-01 -3.5949125173e-07 -2.6868739316e-10 3.5949145935e-07 3.6050157961e-01 3.5209234828e-09 1.2279535722e-07 -2.3973684149e-07 1.3392353209e-01" charge=0 multiplicity=2 method=b3lyp basis=def2-svpd config_type=oh_q0_m2 sample_index=457 temperature=500.0 units=atomic
O         0.0000000001      -0.0000000009       0.0572917055   1.293920260992e-11  -1.777877830006e-10   1.137863331886e-02
H        -0.0000000010       0.0000000142      -0.9092609415  -1.294459059340e-11   1.777704194730e-10  -1.137896390057e-02
2
Properties=species:S:1:pos:R:3:forces:R:3 energy=-7.566391194011e+01 dipole="9.6386845509e-09 -1.3882123152e-07 -7.0054115256e-01" quadrupole="-4.2832886605e+00 -1.9228118511e-06 -1.5775123418e-08 -1.9228118511e-06 -5.3375682342e+00 4.3528193395e-07 -1.5775123418e-08 4.3528193395e-07 -3.1408060689e+00" polarizability="6.5230083402e+00 2.7608844813e-06 -6.9346899037e-08 2.8250223496e-06 8.0846590314e+00 6.8799694567e-07 -7.0892079404e-08 6.6532061874e-07 1.1557240167e+01" dipole_derivatives="-3.2079011041e-01 -1.9411322722e-11 -2.9954810121e-09 -1.2690533155e-11 -3.2079011024e-01 4.3345748952e-08 1.6685121340e-07 -1.8259595225e-07 -1.0200420169e-01 3.2079031395e-01 2.2123738232e-13 3.0154906137e-09 -1.0731892056e-13 3.2079031380e-01 -4.3354228606e-08 -1.6682662196e-07 1.8259034562e-07 1.0200477013e-01" charge=0 multiplicity=2 method=b3lyp basis=def2-svpd config_type=oh_q0_m2 sample_index=458 temperature=500.0 units=atomic
O        -0.0000000009       0.0000000136       0.0684982514   1.281062023175e-09  -1.845001404343e-08  -9.310554851621e-02
H         0.0000000150      -0.0000002154      -1.0871169572  -1.281043693003e-09   1.845025198612e-08   9.310651765538e-02
2
Properties=species:S:1:pos:R:3:forces:R:3 energy=-7.567992346860e+01 dipole="-3.4327106698e-09 4.8827363466e-08 -6.4746708365e-01" quadrupole="-5.1388231280e+00 9.0552168284e-02 1.5401265551e-08 9.0552168284e-02 -4.1200879502e+00 -4.5796386569e-08 1.5401265551e-08 -4.5796386569e-08 -3.5196939012e+00" polarizability="7.4382082666e+00 -1.2138486396e-01 -5.7066194144e-09 -1.2138529326e-01 6.0725597723e+00 -1.4978356200e-07 1.7986966501e-07 -2.7682150776e-07 8.0761888566e+00" dipole_derivatives="-3.7071394197e-01 3.3500965830e-08 1.1837719315e-09 -3.3503680826e-08 -3.7071394207e-01 -1.7478921913e-08 9.9935013043e-07 -1.1517923004e-06 -1.4096400076e-01 3.7071549493e-01 2.1424027311e-08 -1.2029466976e-09 -2.1407780440e-08 3.7071549502e-01 1.7476699180e-08 -9.9925628883e-07 1.1517017062e-06 1.4096546154e-01" charge=0 multiplicity=2 method=b3lyp basis=def2-svpd config_type=oh_q0_m2 sample_index=459 temperature=500.0 units=atomic
O         0.0000000003      -0.0000000041       0.0547834622   3.226636405163e-10  -4.589634464288e-09   6.085954831821e-02
H        -0.0000000046       0.0000000656      -0.8694532998  -3.226564329161e-10   4.589650119384e-09  -6.085977805458e-02
2
Properties=species:S:1:pos:R:3:forces:R:3 energy=-7.568276648851e+01 dipole="5.3773174197e-10 -8.1321919388e-09 -6.6372443453e-01" quadrupole="-5.1708462574e+00 -1.8184689571e-01 7.5589980292e-10 -1.8184689571e-01 -4.1944322534e+00 9.2762465126e-09 7.5589980292e-10 9.2762465126e-09 -3.4270178503e+00" polarizability="7.5791312141e+00 2.5360816261e-01 -4.2208899262e-09 2.5360854442e-01 6.2173795702e+00 3.3425778476e-08 -7.9777015908e-08 5.7781638144e-07 8.9150722653e+00" dipole_derivatives="-3.5562688288e-01 -1.6149147202e-06 -1.5257881955e-10 1.6149242831e-06 -3.5562688258e-01 2.5547463422e-09 1.2354051115e-07 1.7409410025e-07 -1.3031103557e-01 3.5562663000e-01 -3.2593285539e-07 1.4379699879e-10 3.2593284217e-07 3.5562662969e-01 -2.5467548506e-09 -1.2354031687e-07 -1.7409343411e-07 1.3030877650e-01" charge=0 multiplicity=2 method=b3lyp basis=def2-svpd config_type=oh_q0_m2 sample_index=460 temperature=500.0 units=atomic
O        -0.0000000000       0.0000000007       0.0585413663   6.788696449608e-12  -1.031292450366e-10  -8.417559732820e-03
H         0.0000000008      -0.0000000114      -0.9290939655  -6.800799615301e-12   1.031262250999e-10   8.417325911856e-03
2
Properties=species:S:1:pos:R:3:forces:R:3 energy=-7.567722835974e+01 dipole="5.0533640965e-09 -7.2728075638e-08 -6.8210737046e-01" quadrupole="-5.1875283919e+00 -2.8141168803e-01 1.6054947953e-08 -2.8141168803e-01 -4.3023802315e+00 1.0494762216e-07 1.6054947953e-08 1.0494762216e-07 -3.2990068492e+00" polarizability="7.7227420836e+00 4.0651529936e-01 -6.1049492486e-08 4.0651526847e-01 6.4440934813e+00 3.9126364547e-07 8.1458108981e-08 3.8553824154e-07 1.0077573637e+01" dipole_derivatives="-3.3848759551e-01 1.1928590327e-07 -1.5176961958e-09 -1.1929675927e-07 -3.3848759561e-01 2.3507690412e-08 -5.9876853475e-08 -2.6364675720e-07 -1.1680643841e-01 3.3848763609e-01 3.8970219416e-10 1.5318753919e-09 -3.8628402934e-10 3.3848763620e-01 -2.3504901844e-08 5.9898058735e-08 2.6363969341e-07 1.1676696119e-01" charge=0 multiplicity=2 method=b3lyp basis=def2-svpd config_type=oh_q0_m2 sample_index=461 temperature=500.0 units=atomic
O        -0.0000000005       0.0000000067       0.0632093123   4.525991155132e-10  -6.514584795823e-09  -6.110027037286e-02
H         0.0000000074      -0.0000001070      -1.0031776567  -4.526417652636e-10   6.514616760170e-09   6.110044663863e-02
2
Properties=species:S:1:pos:R:3:forces:R:3 energy=-7.567871606084e+01 dipole="4.3218754724e-09 -6.1989847819e-08 -6.7906074878e-01" quadrupole="-5.2499471521e+00 9.3614927903e-02 -2.0811898394e-08 9.3614927903e-02 -4.2189326501e+00 8.2459623720e-08 -2.0811898394e-08 8.2459623720e-08 -3.3221123407e+00" polarizability="7.7914986034e+00 -1.3453623097e-01 -8.5588982157e-10 -1.3453714306e-01 6.3097804801e+00 3.2444636008e-07 -1.2977294792e-06 4.0538222942e-07 9.8661045117e+00" dipole_derivatives="-3.4135175484e-01 1.2052162251e-07 -1.5420858969e-09 -1.2051545916e-07 -3.4135175462e-01 1.9291293902e-08 -8.8253862551e-08 1.3916738595e-07 -1.1909114637e-01 3.4135191900e-01 -6.7082301416e-10 1.5025202959e-09 6.5598103392e-10 3.4135191880e-01 -1.9280643135e-08 8.8235585505e-08 -1.3919534969e-07 1.1909233664e-01" charge=0 multiplicity=2 method=b3lyp basis=def2-svpd config_type=oh_q0_m2 sample_index=462 temperature=500.0 units=atomic
O        -0.0000000004       0.0000000057       0.0623989966   3.433579728737e-10  -4.925512042793e-09  -5.395608824331e-02
H         0.0000000063      -0.0000000904      -0.9903173571  -3.434067320474e-10   4.925566075960e-09   5.395655337746e-02
2
Properties=species:S:1:pos:R:3:forces:R:3 energy=-7.568081043024e+01 dipole="3.0110166021e-09 -4.3005082734e-08 -6.7367661706e-01" quadrupole="-5.2107643791e+00 1.6951429166e-01 -1.9053752518e-08 1.6951429166e-01 -4.2213301486e+00 5.5667945144e-08 -1.9053752518e-08 5.5667945144e-08 -3.3610452156e+00" polarizability="7.6991614835e+00 -2.4128640207e-01 7.3831214640e-09 -2.4128750518e-01 6.2907873826e+00 2.0498416729e-07 -7.3579596393e-07 4.3685249159e-07 9.5117362655e+00" dipole_derivatives="-3.4638559332e-01 1.1170470350e-07 -9.9567913828e-10 -1.1169053858e-07 -3.4638559329e-01 1.4302353020e-08 3.1692767855e-07 -2.3560958740e-08 -1.2313438081e-01 3.4638599897e-01 1.8299972650e-09 9.9390996301e-10 -1.8321248873e-09 3.4638599891e-01 -1.4296839269e-08 -3.1692433400e-07 2.3563623275e-08 1.2313392989e-01" charge=0 multiplicity=2 method=b3lyp basis=def2-svpd config_type=oh_q0_m2 sample_index=463 temperature=500.0 units=atomic
O        -0.0000000003       0.0000000039       0.0610046288   1.781690565571e-10  -2.544946664348e-09  -3.986808770296e-02
H         0.0000000043      -0.0000000618      -0.9681877296  -1.781963687228e-10   2.544940051159e-09   3.986800961014e-02
2
Properties=species:S:1:pos:R:3:forces:R:3 energy=-7.568074811023e+01 dipole="3.0749270632e-09 -4.3702599632e-08 -6.7386770509e-01" quadrupole="-5.0486511333e+00 4.0413503936e-01 -3.3888985959e-08 4.0413503936e-01 -4.3847425144e+00 6.8270004882e-08 -3.3888985959e-08 6.8270004882e-08 -3.3597037399e+00" polarizability="7.4693867303e+00 -5.7536205603e-01 -1.3106938162e-07 -5.7536215333e-01 6.5241919256e+00 -1.5259770117e-07 -8.0487284668e-07 1.8140102575e-07 9.5239121951e+00" dipole_derivatives="-3.4620745001e-01 1.1252484870e-07 -1.0326838052e-09 -1.1251753008e-07 -3.4620744996e-01 1.4473588894e-08 1.3168169333e-07 -4.9610338060e-07 -1.2300084621e-01 3.4620784664e-01 1.7769976283e-09 1.0174536975e-09 -1.7777735926e-09 3.4620784661e-01 -1.4479971119e-08 -1.3168952040e-07 4.9609363839e-07 1.2299410361e-01" charge=0 multiplicity=2 method=b3lyp basis=def2-svpd config_type=oh_q0_m2 sample_index=464 temperature=500.0 units=atomic
O        -0.0000000003       0.0000000040       0.0610533329   1.843364845014e-10  -2.620159663409e-09  -4.040145943759e-02
H         0.0000000044      -0.0000000628      -0.9689606978  -1.843524358479e-10   2.620169930069e-09   4.040139147498e-02
2
Properties=species:S:1:pos:R:3:forces:R:3 energy=-7.567966381231e+01 dipole="3.7629635628e-09 -5.4127520304e-08 -6.7684075959e-01" quadrupole="-5.0592370885e+00 4.0447338239e-01 -4.1970569852e-08 4.0447338239e-01 -4.3944187329e+00 8.6748052420e-08 -4.1970569852e-08 8.6748052420e-08 -3.3384535562e+00" polarizability="7.5031701062e+00 -5.7901394171e-01 3.4494239768e-08 -5.7901404329e-01 6.5514703418e+00 2.5089019319e-07 -1.1769376097e-06 2.4098853755e-07 9.7170933987e+00" dipole_derivatives="-3.4343119032e-01 1.1463961500e-07 -1.2894898367e-09 -1.1461407956e-07 -3.4343119022e-01 1.7797740726e-08 -4.1704525944e-07 -3.6330081998e-07 -1.2079890812e-01 3.4343144972e-01 1.3056607246e-09 1.2484718105e-09 -1.3105069946e-09 3.4343144963e-01 -1.7802227291e-08 4.1704407983e-07 3.6329624031e-07 1.2076587224e-01" charge=0 multiplicity=2 method=b3lyp basis=def2-svpd config_type=oh_q0_m2 sample_index=465 temperature=500.0 units=atomic
O        -0.0000000003       0.0000000049       0.0618184223   2.691118356735e-10  -3.868860883052e-09  -4.838013000596e-02
H         0.0000000055      -0.0000000785      -0.9811032224  -2.690528160440e-10   3.868851935348e-09   4.838011637498e-02
2
Properties=species:S:1:pos:R:3:forces:R:3 energy=-7.568284085303e+01 dipole="6.7567024314e-11 -8.1081791679e-10 -6.6164101868e-01" quadrupole="-4.1572147856e+00 4.5777760338e-02 -1.3676910457e-10 4.5777760338e-02 -5.1942526552e+00 2.1184710000e-09 -1.3676910457e-10 2.1184710000e-09 -3.4399009681e+00" polarizability="6.1591658677e+00 -6.3541444117e-02 -1.9255771402e-10 -6.3540903687e-02 7.5987394907e+00 1.4628200288e-09 4.1525328659e-09 9.7396531151e-08 8.7988105054e+00" dipole_derivatives="-3.5755695261e-01 -5.9104981476e-07 -2.1440579405e-11 5.9100407160e-07 -3.5755695255e-01 2.6148262270e-10 -6.1283339514e-08 -8.5696005847e-08 -1.3175505476e-01 3.5755650883e-01 -2.5404279979e-07 2.3152862198e-11 2.5404305307e-07 3.5755650880e-01 -2.7692566074e-10 6.1282340313e-08 8.5697754448e-08 1.3175488695e-01" charge=0 multiplicity=2 method=b3lyp basis=def2-svpd config_type=oh_q0_m2 sample_index=466 temperature=500.0 units=atomic
O        -0.0000000000       0.0000000001       0.0580426513   4.480152328268e-14  -1.050984583436e-12  -8.609396411570e-04
H         0.0000000001      -0.0000000011      -0.9211789960  -8.826972524039e-14   1.055116712945e-12   8.605100278711e-04
2
Properties=species:S:1:pos:R:3:forces:R:3 energy=-7.568170401677e+01 dipole="2.2439107022e-09 -3.2017698185e-08 -6.7053689336e-01" quadrupole="-5.1608797943e+00 2.5576480176e-01 -1.8165095735e-08 2.5576480176e-01 -4.2499785819e+00 4.2233129648e-08 -1.8165095735e-08 4.2233129648e-08 -3.3826736113e+00" polarizability="7.6077408528e+00 -3.6178107974e-01 -7.6597304218e-08 -3.6178212789e-01 6.3192545292e+00 -1.9977333995e-07 -4.7281312675e-07 6.4349960004e-07 9.3157312819e+00" dipole_derivatives="-3.4930735809e-01 -1.3203453699e-06 -7.6165471349e-10 1.3203493786e-06 -3.4930735801e-01 1.0672805456e-08 -2.6333921155e-07 2.8157551291e-07 -1.2543723809e-01 3.4930713539e-01 -2.2668426882e-07 7.4984558344e-10 2.2668468138e-07 3.4930713534e-01 -1.0684493589e-08 2.6332419578e-07 -2.8158186893e-07 1.2544135384e-01" charge=0 multiplicity=2 method=b3lyp basis=def2-svpd config_type=oh_q0_m2 sample_index=467 temperature=500.0 units=atomic
O        -0.0000000002       0.0000000029       0.0602122920   1.028145218970e-10  -1.467517910484e-09  -3.073758701611e-02
H         0.0000000032      -0.0000000456      -0.9556127684  -1.028794180919e-10   1.467539906670e-09   3.073740955071e-02
2
Properties=species:S:1:pos:R:3:forces:R:3 energy=-7.567738950030e+01 dipole="4.9866892209e-09 -7.1636105178e-08 -6.8179733136e-01" quadrupole="-4.2828687938e+00 -2.4995439750e-01 1.9123451472e-08 -2.4995439750e-01 -5.2048924770e+00 1.9821598220e-07 1.9123451472e-08 1.9821598220e-07 -3.3013947542e+00" polarizability="6.4144215147e+00 3.6088863794e-01 -6.4873800254e-08 3.6088826204e-01 7.7456581971e+00 2.4536747367e-07 -1.4750545065e-06 2.3556272374e-07 1.0055673935e+01" dipole_derivatives="-3.3877965780e-01 1.1906093521e-07 -1.6012168998e-09 -1.1907718811e-07 -3.3877965772e-01 2.3467755156e-08 -3.7380729068e-07 -7.6287226536e-08 -1.1696514800e-01 3.3877971088e-01 7.8087802109e-10 1.6479239431e-09 -7.9106621300e-10 3.3877971083e-01 -2.3462775768e-08 3.7378483642e-07 7.6276679417e-08 1.1700144703e-01" charge=0 multiplicity=2 method=b3lyp basis=def2-svpd config_type=oh_q0_m2 sample_index=468 temperature=500.0 units=atomic
O        -0.0000000005       0.0000000066       0.0631261136   4.423836686865e-10  -6.346291813593e-09  -6.039954072845e-02
H         0.0000000073      -0.0000001053      -1.0018572320  -4.423714773807e-10   6.346329160118e-09   6.039971030007e-02
2
Properties=species:S:1:pos:R:3:forces:R:3 energy=-7.568270165706e+01 dipole="8.0466159100e-10 -1.1131072062e-08 -6.6457463609e-01" quadrupole="-5.1413910871e+00 2.5244996001e-01 -6.2742865507e-09 2.5244996001e-01 -4.2295403694e+00 1.3816578273e-08 -6.2742865507e-09 1.3816578273e-08 -3.4216712902e+00" polarizability="7.5431311247e+00 -3.5270013344e-01 -1.0208497649e-07 -3.5270061333e-01 6.2691722608e+00 -3.6152452658e-07 -1.1774535075e-07 7.5433182887e-07 8.9633278178e+00" dipole_derivatives="-3.5483942648e-01 -1.2923272245e-06 -2.8759382836e-10 1.2922992300e-06 -3.5483942655e-01 3.7541352362e-09 -6.5421779105e-08 -3.1407201839e-07 -1.2981146084e-01 3.5483910969e-01 -2.9471255565e-07 2.7289895385e-10 2.9471247328e-07 3.5483910974e-01 -3.7688958459e-09 6.5409233585e-08 3.1408306511e-07 1.2971905251e-01" charge=0 multiplicity=2 method=b3lyp basis=def2-svpd config_type=oh_q0_m2 sample_index=469 temperature=500.0 units=atomic
O        -0.0000000001       0.0000000010       0.0587464692   1.379412223770e-11  -1.909286624321e-10  -1.139968915842e-02
H         0.0000000011      -0.0000000156      -0.9323490980  -1.379155658166e-11   1.909290648879e-10   1.139945898653e-02
2
Properties=species:S:1:pos:R:3:forces:R:3 energy=-7.568029503891e+01 dipole="3.3247639811e-09 -4.8306845287e-08 -6.7518254983e-01" quadrupole="-5.2359866614e+00 9.3478499700e-02 -1.5976079321e-08 9.3478499700e-02 -4.2063503813e+00 6.1690864111e-08 -1.5976079321e-08 6.1690864111e-08 -3.3503942579e+00" polarizability="7.7449261683e+00 -1.3340976319e-01 4.2322662087e-10 -1.3341057494e-01 6.2754498214e+00 2.3835204924e-07 -8.3932887589e-07 3.4199877409e-07 9.6084652471e+00" dipole_derivatives="-3.4498078564e-01 1.1174993067e-07 -1.1499809679e-09 -1.1173910729e-07 -3.4498078553e-01 1.6112178137e-08 1.3074641370e-07 -4.8004253350e-08 -1.2205645894e-01 3.4498112057e-01 1.5042082267e-09 1.1031624347e-09 -1.5096383726e-09 3.4498112045e-01 -1.6123783655e-08 -1.3072443128e-07 4.8024140220e-08 1.2200308566e-01" charge=0 multiplicity=2 method=b3lyp basis=def2-svpd config_type=oh_q0_m2 sample_index=470 temperature=500.0 units=atomic
O        -0.0000000003       0.0000000044       0.0613899715   2.166941042585e-10  -3.148283340272e-09  -4.400346256246e-02
H         0.0000000048      -0.0000000697      -0.9743033973  -2.166838589817e-10   3.148284677528e-09   4.400345674024e-02
2
Properties=species:S:1:pos:R:3:forces:R:3 energy=-7.568276437900e+01 dipole="-5.4413412312e-10 8.0938449222e-09 -6.5908430577e-01" quadrupole="-5.1821701214e+00 -7.2753962880e-02 5.9127980636e-10 -7.2753962880e-02 -4.1524263568e+00 -8.5077330388e-09 5.9127980636e-10 -8.5077330388e-09 -3.4552919575e+00" polarizability="7.5663798414e+00 1.0041146505e-01 2.1279089320e-09 1.0041222478e-01 6.1451614950e+00 -3.0851917816e-08 5.8328906050e-08 4.2383763909e-07 8.6598930018e+00" dipole_derivatives="-3.5992419758e-01 -1.6175456521e-06 2.1872398191e-10 1.6175525142e-06 -3.5992419744e-01 -2.7745452290e-09 2.7623320298e-08 -1.3001355548e-07 -1.3350187341e-01 3.5992384882e-01 -3.7736467066e-07 -1.8713965200e-10 3.7736446669e-07 3.5992384871e-01 2.7810031229e-09 -2.7612717668e-08 1.3001416610e-07 1.3350037911e-01" charge=0 multiplicity=2 method=b3lyp basis=def2-svpd config_type=oh_q0_m2 sample_index=471 temperature=500.0 units=atomic
O         0.0000000000      -0.0000000007       0.0574380114   7.330795718839e-12  -1.094140227145e-10   8.909552533369e-03
H        -0.0000000008       0.0000000112      -0.9115829226  -7.356144960531e-12   1.094189684454e-10  -8.909998034197e-03
2
Properties=species:S:1:pos:R:3:forces:R:3 energy=-7.568203269469e+01 dipole="-1.8606231081e-09 2.6048852004e-08 -6.5396367210e-01" quadrupole="-5.1693183190e+00 7.8752268948e-03 5.0571087836e-09 7.8752268948e-03 -4.1317313842e+00 -2.5842438850e-08 5.0571087836e-09 -2.5842438850e-08 -3.4847708553e+00" polarizability="7.5177740263e+00 -1.0742733424e-02 -6.2526610941e-09 -1.0742761702e-02 6.1032658151e+00 -1.7458591519e-07 1.4435354719e-07 -2.4304315433e-07 8.3934286018e+00" dipole_derivatives="-3.6467006234e-01 -1.4135299606e-06 6.3024569435e-10 1.4135379973e-06 -3.6467006233e-01 -9.0846631445e-09 1.7058576773e-09 -2.6329524672e-07 -1.3688967747e-01 3.6466952384e-01 -4.0736804165e-07 -6.4797709244e-10 4.0736805362e-07 3.6466952383e-01 9.0747482606e-09 -1.7024159860e-09 2.6328586533e-07 1.3688909532e-01" charge=0 multiplicity=2 method=b3lyp basis=def2-svpd config_type=oh_q0_m2 sample_index=472 temperature=500.0 units=atomic
O         0.0000000002      -0.0000000022       0.0562500740   8.593159412834e-11  -1.203548216018e-09   3.021537780677e-02
H        -0.0000000025       0.0000000356      -0.8927294933  -8.596914529237e-11   1.203568946280e-09  -3.021592642751e-02
2
Properties=species:S:1:pos:R:3:forces:R:3 energy=-7.567938567146e+01 dipole="3.9513097541e-09 -5.6551379045e-08 -6.7752126997e-01" quadrupole="-4.2058129134e+00 1.8284126387e-02 -6.5645390558e-09 1.8284126387e-02 -5.2524993769e+00 1.6025027238e-07 -6.5645390558e-09 1.6025027238e-07 -3.3334880027e+00" polarizability="6.2843297004e+00 -2.6210789018e-02 -1.8126710263e-08 -2.6210527258e-02 7.7847791557e+00 1.6486979532e-07 5.6483784545e-07 1.6114159127e-07 9.7623302455e+00" dipole_derivatives="-3.4279441392e-01 1.1576348008e-07 -1.3079304183e-09 -1.1576625863e-07 -3.4279441389e-01 1.8568959026e-08 6.1568611320e-08 -2.7012542203e-07 -1.2026220932e-01 3.4279464337e-01 5.5173612689e-10 1.3118055720e-09 -5.5210194644e-10 3.4279464335e-01 -1.8573250965e-08 -6.1573260379e-08 2.7014465664e-07 1.2025809787e-01" charge=0 multiplicity=2 method=b3lyp basis=def2-svpd config_type=oh_q0_m2 sample_index=473 temperature=500.0 units=atomic
O        -0.0000000004       0.0000000052       0.0619955227   2.922299469068e-10  -4.183657695317e-09  -5.012303395878e-02
H         0.0000000057      -0.0000000821      -0.9839139339  -2.922368056780e-10   4.183703778653e-09   5.012345352146e-02
2
Properties=species:S:1:pos:R:3:forces:R:3 energy=-7.568180952853e+01 dipole="2.1147764268e-09 -3.0399782179e-08 -6.7009619392e-01" quadrupole="-5.2261531512e+00 7.6405220357e-03 -6.1420364033e-09 7.6405220357e-03 -4.1817358268e+00 3.6173389654e-08 -6.1420364033e-09 3.6173389654e-08 -3.3856477706e+00" polarizability="7.6972962033e+00 -1.0805566929e-02 -4.5274241757e-09 -1.0805623426e-02 6.2211391594e+00 1.3956054846e-07 -3.9732749097e-07 2.3378007810e-07 9.2888166942e+00" dipole_derivatives="-3.4971688840e-01 -1.3536423113e-06 -7.3172991338e-10 1.3536639945e-06 -3.4971688828e-01 1.0161464013e-08 -2.6308966117e-07 9.8459379538e-08 -1.2576517046e-01 3.4971666831e-01 -2.3398033124e-07 7.0682652132e-10 2.3398027893e-07 3.4971666818e-01 -1.0161290433e-08 2.6308927259e-07 -9.8463209808e-08 1.2576288879e-01" charge=0 multiplicity=2 method=b3lyp basis=def2-svpd config_type=oh_q0_m2 sample_index=474 temperature=500.0 units=atomic
O        -0.0000000002       0.0000000027       0.0601022490   9.278937148459e-11  -1.333808166849e-09  -2.939985735512e-02
H         0.0000000030      -0.0000000433      -0.9538663069  -9.278162741761e-11   1.333745876920e-09   2.939946177168e-02
2
Properties=species:S:1:pos:R:3:forces:R:3 energy=-7.568031109747e+01 dipole="3.3258753759e-09 -4.8182133539e-08 -6.7513795377e-01" quadrupole="-4.2138619111e+00 1.2869104085e-01 -1.3438026111e-08 1.2869104085e-01 -5.2281713448e+00 1.3459647025e-07 -1.3438026111e-08 1.3459647025e-07 -3.3507122972e+00" polarizability="6.2859895447e+00 -1.8365006670e-01 -3.2083525183e-09 -1.8364988521e-01 7.7334721316e+00 1.3266918299e-07 -5.8556511004e-07 1.2421954357e-07 9.6055747474e+00" dipole_derivatives="-3.4502263835e-01 1.1588393845e-07 -1.1915411288e-09 -1.1569336997e-07 -3.4502275254e-01 1.5914309010e-08 -1.8246367472e-06 -2.2732563054e-07 -1.2196745862e-01 3.4502297538e-01 -3.1134293336e-09 1.1355410363e-09 2.2480878290e-09 3.4502308955e-01 -1.5907449267e-08 1.8236537835e-06 2.2732768445e-07 1.2205421073e-01" charge=0 multiplicity=2 method=b3lyp basis=def2-svpd config_type=oh_q0_m2 sample_index=475 temperature=500.0 units=atomic
O        -0.0000000003       0.0000000044       0.0613785092   2.161492635462e-10  -3.131783616772e-09  -4.388320719147e-02
H         0.0000000048      -0.0000000695      -0.9741214823  -2.161348906439e-10   3.131790096840e-09   4.388320763590e-02
2
Properties=species:S:1:pos:R:3:forces:R:3 energy=-7.568091160117e+01 dipole="2.9487965030e-09 -4.1930472873e-08 -6.7336027140e-01" quadrupole="-5.1559094191e+00 -2.8106056577e-01 9.6946372565e-09 -2.8106056577e-01 -4.2740397480e+00 5.5472631157e-08 9.6946372565e-09 5.5472631157e-08 -3.3632596995e+00" polarizability="7.6187859576e+00 3.9975188175e-01 -3.3260975342e-08 3.9975197409e-01 6.3645090203e+00 1.9702140999e-07 -7.8868907086e-07 1.8914671302e-07 9.4916444494e+00" dipole_derivatives="-3.4668036433e-01 1.1923111772e-07 -9.4255173696e-10 -1.1918662705e-07 -3.4668036408e-01 1.3947150446e-08 3.4969444007e-08 2.5807320170e-07 -1.2340410358e-01 3.4668078490e-01 -4.8079040046e-09 9.9084665535e-10 4.7867773914e-09 3.4668078463e-01 -1.3945647526e-08 -3.4920136227e-08 -2.5805865778e-07 1.2336994436e-01" charge=0 multiplicity=2 method=b3lyp basis=def2-svpd config_type=oh_q0_m2 sample_index=476 temperature=500.0 units=atomic
O        -0.0000000003       0.0000000038       0.0609241171   1.706327531614e-10  -2.427128209582e-09  -3.897941526044e-02
H         0.0000000042      -0.0000000602      -0.9669099491  -1.706635861365e-10   2.427139266710e-09   3.897938507426e-02
2
Properties=species:S:1:pos:R:3:forces:R:3 energy=-7.566502329879e+01 dipole="-8.0799921801e-09 1.1635188131e-07 -6.2851305789e-01" quadrupole="-5.0663750736e+00 -1.2425861803e-01 -4.2984843996e-09 -1.2425861803e-01 -4.0717118499e+00 -8.4421716141e-08 -4.2984843996e-09 -8.4421716141e-08 -3.6069810488e+00" polarizability="7.2374668013e+00 1.5746037419e-01 2.9284868764e-08 1.5746075417e-01 5.9770023760e+00 -2.3855606914e-07 1.8945871070e-07 -3.1705136723e-07 7.2630824008e+00" dipole_derivatives="-3.8870835178e-01 -1.2915453132e-07 2.9590720710e-09 1.2911574019e-07 -3.8870835175e-01 -4.2702955170e-08 -5.1344214991e-07 -9.4886237756e-08 -1.5106700863e-01 3.8871046931e-01 2.8892491241e-07 -2.9732085202e-09 -2.8892318686e-07 3.8871046932e-01 4.2675127364e-08 5.1343307383e-07 9.4849489374e-08 1.5117567404e-01" charge=0 multiplicity=2 method=b3lyp basis=def2-svpd config_type=oh_q0_m2 sample_index=477 temperature=500.0 units=atomic
O         0.0000000007      -0.0000000094       0.0507179921   2.288086341771e-09  -3.294868431053e-08   1.779829978086e-01
H        -0.0000000103       0.0000001490      -0.8049313398  -2.288091522089e-09   3.294855875650e-08  -1.779824055332e-01
2
Properties=species:S:1:pos:R:3:forces:R:3 energy=-7.567269223555e+01 dipole="6.9512369748e-09 -9.9383889813e-08 -6.8958751861e-01" quadrupole="-4.2725284548e+00 -1.6651289175e-01 1.3632298735e-08 -1.6651289175e-01 -5.2697132161e+00 2.9102999234e-07 1.3632298735e-08 2.9102999234e-07 -3.2387806186e+00" polarizability="6.4394471967e+00 2.4333925698e-01 -7.7582650796e-08 2.4333930859e-01 7.8967212792e+00 3.9687066725e-07 -4.7038217841e-08 3.9100456667e-07 1.0633770143e+01" dipole_derivatives="-3.3139328653e-01 1.2219234560e-07 -2.1600294554e-09 -1.2219629051e-07 -3.3139328314e-01 3.1763763260e-08 -1.6343755516e-07 -1.5640141959e-08 -1.1089770281e-01 3.3139302593e-01 5.1052004937e-11 2.1475891528e-09 -2.8939151482e-11 3.3139302254e-01 -3.1755128176e-08 1.6344466058e-07 1.5600798431e-08 1.1092156631e-01" charge=0 multiplicity=2 method=b3lyp basis=def2-svpd config_type=oh_q0_m2 sample_index=479 temperature=500.0 units=atomic
O        -0.0000000007       0.0000000094       0.0652704408   7.690385669799e-10  -1.099540335477e-08  -7.629287515625e-02
H         0.0000000104      -0.0000001493      -1.0358892608  -7.690509317748e-10   1.099545236324e-08   7.629332576329e-02
2
Properties=species:S:1:pos:R:3:forces:R:3 energy=-7.567704850426e+01 dipole="-4.7583357051e-09 6.8107764555e-08 -6.4201022672e-01" quadrupole="-5.1276455295e+00 -1.8015475770e-02 9.8005952850e-09 -1.8015475770e-02 -4.0961897889e+00 -5.8110224669e-08 9.8005952850e-09 -5.8110224669e-08 -3.5469869591e+00" polarizability="7.3924583550e+00 2.3798146797e-02 5.7242393297e-09 2.3798235312e-02 6.0299201597e+00 -1.8977589864e-07 1.9622494550e-07 -2.6833772273e-07 7.8260621598e+00" dipole_derivatives="-3.7582478594e-01 -8.1888916519e-09 1.6980547994e-09 8.0491045699e-09 -3.7582478515e-01 -2.4234264861e-08 -1.1976344916e-07 -2.5866320197e-07 -1.4418014719e-01 3.7582652380e-01 7.9087166506e-08 -1.7140924386e-09 -7.9119233581e-08 3.7582652301e-01 2.4224231019e-08 1.1977824288e-07 2.5813948201e-07 1.4417489930e-01" charge=0 multiplicity=2 method=b3lyp basis=def2-svpd config_type=oh_q0_m2 sample_index=480 temperature=500.0 units=atomic
O         0.0000000004      -0.0000000057       0.0535830359   6.673737475246e-10  -9.552312147965e-09   9.004317325936e-02
H        -0.0000000063       0.0000000902      -0.8504016644  -6.673643002207e-10   9.552252747564e-09  -9.004275803376e-02
2
Properties=species:S:1:pos:R:3:forces:R:3 energy=-7.568247688017e+01 dipole="1.2674906066e-09 -1.8011827128e-08 -6.6653877391e-01" quadrupole="-5.2135536201e+00 3.8515288450e-03 -3.5513182986e-09 3.8515288450e-03 -4.1704741530e+00 2.0581938469e-08 -3.5513182986e-09 2.0581938469e-08 -3.4091171218e+00" polarizability="7.6565540575e+00 -5.4112638464e-03 -2.5514273869e-09 -5.4112595392e-03 6.1930263791e+00 7.8273477507e-08 -1.9356029246e-07 2.4334957646e-07 9.0766746045e+00" dipole_derivatives="-3.5301879807e-01 -1.3699449069e-06 -4.2206494007e-10 1.3699690397e-06 -3.5301879805e-01 6.0771792220e-09 -7.7332723558e-08 6.0427107762e-08 -1.2830281334e-01 3.5301852973e-01 -2.7773408551e-07 4.2633860702e-10 2.7773416830e-07 3.5301852975e-01 -6.0829652986e-09 7.7312961588e-08 -6.0423777093e-08 1.2831889833e-01" charge=0 multiplicity=2 method=b3lyp basis=def2-svpd config_type=oh_q0_m2 sample_index=481 temperature=500.0 units=atomic
O        -0.0000000001       0.0000000016       0.0592239720   3.433574144238e-11  -4.883386576905e-10  -1.807069143504e-02
H         0.0000000018      -0.0000000254      -0.9399274127  -3.436138334612e-11   4.883116141777e-10   1.807026227108e-02
2
Properties=species:S:1:pos:R:3:forces:R:3 energy=-7.568278983019e+01 dipole="-4.0763008764e-10 6.6583203001e-09 -6.5950397835e-01" quadrupole="-4.2773014259e+00 -3.4249556436e-01 -2.9039577604e-09 -3.4249556436e-01 -5.0600583206e+00 -1.5991279172e-08 -2.9039577604e-09 -1.5991279172e-08 -3.4527967448e+00" polarizability="6.3188743477e+00 4.7318994237e-01 -2.7726110616e-07 4.7318996267e-01 7.4003116079e+00 8.1478424341e-08 4.7644687031e-08 -7.1230517752e-07 8.6824208886e+00" dipole_derivatives="-3.5953532980e-01 -1.8725076158e-06 1.7176948195e-10 1.8724674922e-06 -3.5953532955e-01 -2.3527567794e-09 2.0439017145e-07 -1.0248982218e-07 -1.3322246188e-01 3.5953508248e-01 -3.8602042368e-07 -1.6588628912e-10 3.8602029922e-07 3.5953508229e-01 2.3790644056e-09 -2.0440127368e-07 1.0248757398e-07 1.3321183816e-01" charge=0 multiplicity=2 method=b3lyp basis=def2-svpd config_type=oh_q0_m2 sample_index=482 temperature=500.0 units=atomic
O         0.0000000000      -0.0000000006       0.0575367204   4.469824811566e-12  -7.338386358557e-11   7.267378934849e-03
H        -0.0000000006       0.0000000092      -0.9131495063  -4.479476812995e-12   7.333758463274e-11  -7.267690125120e-03
2
Properties=species:S:1:pos:R:3:forces:R:3 energy=-7.567332947568e+01 dipole="-5.9710776081e-09 8.6400283478e-08 -6.3685753653e-01" quadrupole="-4.0810160656e+00 1.7776393712e-02 7.1826635824e-09 1.7776393712e-02 -5.1099326492e+00 -2.0895447139e-07 7.1826635824e-09 -2.0895447139e-07 -3.5711222129e+00" polarizability="6.0011677602e+00 -2.3134222734e-02 1.1813203036e-08 -2.3134025168e-02 7.3401961042e+00 -3.5397119508e-08 -1.0778630505e-07 -3.9524590782e-07 7.6023168493e+00" dipole_derivatives="-3.8069469952e-01 -2.5666807143e-08 2.1522988358e-09 2.5603117502e-08 -3.8069468873e-01 -3.1691896020e-08 8.2305634530e-07 8.9061394370e-07 -1.4701556735e-01 3.8069660103e-01 7.6345062665e-08 -2.1901483100e-09 -7.6306401546e-08 3.8069659020e-01 3.1703985044e-08 -8.2015075287e-07 -8.8691470834e-07 1.4701028315e-01" charge=0 multiplicity=2 method=b3lyp basis=def2-svpd config_type=oh_q0_m2 sample_index=483 temperature=500.0 units=atomic
O         0.0000000005      -0.0000000071       0.0524730624   1.132454868873e-09  -1.638741880923e-08   1.207918492601e-01
H        -0.0000000078       0.0000001130      -0.8327855789  -1.132510898707e-09   1.638740969673e-08  -1.207917940782e-01
2
Properties=species:S:1:pos:R:3:forces:R:3 energy=-7.567874613182e+01 dipole="4.3218995498e-09 -6.1808227858e-08 -6.7899431897e-01" quadrupole="-4.6211349239e+00 5.1157838443e-01 -5.4831137436e-08 5.1157838443e-01 -4.8472877834e+00 1.4201814627e-07 -5.4831137436e-08 1.4201814627e-07 -3.3226070526e+00" polarizability="6.8874809896e+00 -7.3516625750e-01 4.8601164217e-08 -7.3516623756e-01 7.2124650638e+00 2.3685605318e-07 1.9981790946e-07 2.2338859047e-07 9.8615874800e+00" dipole_derivatives="-3.4141404010e-01 1.1754702575e-07 -1.5344442439e-09 -1.1761597196e-07 -3.4141404016e-01 2.0185308999e-08 -2.3467781884e-07 4.2281442236e-08 -1.1906798367e-01 3.4141420702e-01 8.9199990604e-10 1.5273114946e-09 -8.8686635127e-10 3.4141420705e-01 -2.0194041190e-08 2.3468416099e-07 -4.2295042468e-08 1.1913713440e-01" charge=0 multiplicity=2 method=b3lyp basis=def2-svpd config_type=oh_q0_m2 sample_index=484 temperature=500.0 units=atomic
O        -0.0000000004       0.0000000057       0.0623815127   3.424879708301e-10  -4.896789909783e-09  -5.379420261650e-02
H         0.0000000063      -0.0000000901      -0.9900398758  -3.424702961662e-10   4.896802852554e-09   5.379436298796e-02
2
Properties=species:S:1:pos:R:3:forces:R:3 energy=-7.567226904971e+01 dipole="-6.2784003826e-09 9.0928483616e-08 -6.3560515190e-01" quadrupole="-4.0773499856e+00 1.7750687580e-02 7.5029756860e-09 1.7750687580e-02 -5.1056357693e+00 -2.1885639645e-07 7.5029756860e-09 -2.1885639645e-07 -3.5767550672e+00" polarizability="5.9944343416e+00 -2.3015031810e-02 1.2006550301e-08 -2.3014839023e-02 7.3276546563e+00 -3.1584423131e-08 -1.0686888055e-07 -3.7118877302e-07 7.5496437143e+00" dipole_derivatives="-3.8188668668e-01 -4.3028504421e-08 1.5980236855e-09 4.2943030937e-08 -3.8188668609e-01 -3.3444720077e-08 9.8620778211e-08 -1.1131814914e-07 -1.4766852288e-01 3.8188864568e-01 1.1379600220e-07 -1.5979791777e-09 -1.1372444826e-07 3.8188864511e-01 3.3444591754e-08 -9.8614644228e-08 1.1133499678e-07 1.4766994779e-01" charge=0 multiplicity=2 method=b3lyp basis=def2-svpd config_type=oh_q0_m2 sample_index=485 temperature=500.0 units=atomic
O         0.0000000005      -0.0000000075       0.0522064571   1.271959606426e-09  -1.842147232972e-08   1.287689577749e-01
H        -0.0000000082       0.0000001185      -0.8285543588  -1.271947802500e-09   1.842142745980e-08  -1.287688228910e-01
2
Properties=species:S:1:pos:R:3:forces:R:3 energy=-7.568152374494e+01 dipole="-2.2859665777e-09 3.3109072464e-08 -6.5194693424e-01" quadrupole="-4.6058457309e+00 5.1699232126e-01 3.0141663768e-08 5.1699232126e-01 -4.6820751865e+00 -6.2093604017e-08 3.0141663768e-08 -6.2093604017e-08 -3.4959026678e+00" polarizability="6.7413968984e+00 -7.0117381565e-01 -2.9942162231e-08 -7.0117401574e-01 6.8447779553e+00 -7.0882978517e-08 1.3189878234e-07 -9.0380405975e-07 8.2925544648e+00" dipole_derivatives="-3.6654243123e-01 -1.5591252455e-06 1.6596235796e-09 1.5591403720e-06 -3.6654243134e-01 -1.0552889175e-08 -2.7806384972e-07 -1.9115622973e-07 -1.3844398890e-01 3.6654186189e-01 -4.3477380680e-07 -1.6616131676e-09 4.3477406698e-07 3.6654186197e-01 1.0601626279e-08 2.7806118519e-07 1.9115400929e-07 1.3819162707e-01" charge=0 multiplicity=2 method=b3lyp basis=def2-svpd config_type=oh_q0_m2 sample_index=486 temperature=500.0 units=atomic
O         0.0000000002      -0.0000000028       0.0557901420   1.377411025979e-10  -1.994738523918e-09   3.927879535705e-02
H        -0.0000000031       0.0000000450      -0.8854300393  -1.377288129494e-10   1.994778328883e-09  -3.927891595715e-02
2
Properties=species:S:1:pos:R:3:forces:R:3 energy=-7.568268189413e+01 dipole="-8.1838873320e-10 1.1660905154e-08 -6.5807251356e-01" quadrupole="-4.2974433844e+00 3.6853006611e-01 7.5338403045e-09 3.6853006611e-01 -5.0305004829e+00 -2.8282023000e-08 7.5338403045e-09 -2.8282023000e-08 -3.4612575507e+00" polarizability="6.3419975598e+00 -5.0736994147e-01 -5.1192419178e-07 -5.0736998299e-01 7.3512289724e+00 -2.0402709591e-07 7.0870579490e-08 -1.0020633873e-06 8.6060234007e+00" dipole_derivatives="-3.6086140233e-01 -1.4693819641e-06 2.4079929371e-10 1.4693150995e-06 -3.6086140218e-01 -4.0776943320e-09 3.2722693999e-07 -7.9442008527e-09 -1.3417399275e-01 3.6086099154e-01 -3.7657356592e-07 -2.2509871260e-10 3.7657356076e-07 3.6086099136e-01 4.0781435792e-09 -3.2722469179e-07 7.9345141568e-09 1.3418495226e-01" charge=0 multiplicity=2 method=b3lyp basis=def2-svpd config_type=oh_q0_m2 sample_index=487 temperature=500.0 units=atomic
O         0.0000000001      -0.0000000010       0.0572009018   1.612863377172e-11  -2.291285233265e-10   1.293192294659e-02
H        -0.0000000011       0.0000000161      -0.9078198214  -1.607977537261e-11   2.291618566648e-10  -1.293248274172e-02
2
Properties=species:S:1:pos:R:3:forces:R:3 energy=-7.568143441823e+01 dipole="2.4355465353e-09 -3.5677520120e-08 -6.7158067756e-01" quadrupole="-5.1635690687e+00 2.5765315859e-01 -2.0196597788e-08 2.5765315859e-01 -4.2543329764e+00 4.7634538169e-08 -2.0196597788e-08 4.7634538169e-08 -3.3755689704e+00" polarizability="7.6182211085e+00 -3.6520426216e-01 -7.6047563802e-08 -3.6520536987e-01 6.3294387002e+00 -1.8345475808e-07 -5.4650496674e-07 6.3499353054e-07 9.3800610406e+00" dipole_derivatives="-3.4833668318e-01 -1.3863545047e-06 -8.4545644813e-10 1.3863549211e-06 -3.4833668322e-01 1.1804537414e-08 1.8829651727e-07 1.7410162201e-07 -1.2467928301e-01 3.4833648776e-01 -2.1750750334e-07 8.3264640972e-10 2.1750735198e-07 3.4833648782e-01 -1.1795586905e-08 -1.8830015325e-07 -1.7410398123e-07 1.2467925885e-01" charge=0 multiplicity=2 method=b3lyp basis=def2-svpd config_type=oh_q0_m2 sample_index=488 temperature=500.0 units=atomic
O        -0.0000000002       0.0000000032       0.0604740736   1.227490686332e-10  -1.798333629629e-09  -3.385063342298e-02
H         0.0000000035      -0.0000000510      -0.9597674329  -1.227479466894e-10   1.798339968743e-09   3.385052634754e-02
2
Properties=species:S:1:pos:R:3:forces:R:3 energy=-7.568113430452e+01 dipole="-2.5711565969e-09 3.7594419214e-08 -6.5066896710e-01" quadrupole="-5.1461854222e+00 -1.0960824802e-01 1.8463921209e-10 -1.0960824802e-01 -4.1334376030e+00 -3.6011072987e-08 1.8463921209e-10 -3.6011072987e-08 -3.5028199202e+00" polarizability="7.4668295061e+00 1.4818595675e-01 3.6744355128e-09 1.4818645194e-01 6.0976814685e+00 -6.7818783402e-08 1.7834737335e-07 -2.9282928672e-07 8.2297713659e+00" dipole_derivatives="-3.6773034018e-01 -1.5973309756e-06 1.8101530470e-09 1.5973448647e-06 -3.6773034007e-01 -1.3340047768e-08 2.1880908196e-07 6.1246840932e-08 -1.3898669450e-01 3.6772973979e-01 -4.4643577654e-07 -1.7827604741e-09 4.4643593705e-07 3.6772973963e-01 1.3356034295e-08 -2.1881738088e-07 -6.1246480110e-08 1.3898889226e-01" charge=0 multiplicity=2 method=b3lyp basis=def2-svpd config_type=oh_q0_m2 sample_index=490 temperature=500.0 units=atomic
O         0.0000000002      -0.0000000032       0.0555009097   1.787262142615e-10  -2.613051248373e-09   4.522717095865e-02
H        -0.0000000035       0.0000000509      -0.8808397121  -1.787180992251e-10   2.613165287360e-09  -4.522759572364e-02
2
Properties=species:S:1:pos:R:3:forces:R:3 energy=-7.568267282240e+01 dipole="-8.1847082983e-10 1.2004767905e-08 -6.5797994826e-01" quadrupole="-4.4627917250e+00 4.7935930685e-01 9.9551422893e-09 4.7935930685e-01 -4.8645438228e+00 -2.6242915723e-08 9.9551422893e-09 -2.6242915723e-08 -3.4617999727e+00" polarizability="6.5692848315e+00 -6.5979689345e-01 -9.4349533371e-09 -6.5979697185e-01 7.1222687879e+00 -2.6121809271e-08 7.1619381643e-08 -1.0144448506e-06 8.6011234602e+00" dipole_derivatives="-3.6094713539e-01 -1.5782559458e-06 7.3054973052e-10 1.5782813697e-06 -3.6094713515e-01 -3.9723000538e-09 1.2840517538e-07 2.3133325810e-07 -1.3434656544e-01 3.6094674852e-01 -3.8568648255e-07 -7.3177772501e-10 3.8568672817e-07 3.6094674829e-01 3.9699021645e-09 -1.2840567498e-07 -2.3133031601e-07 1.3424562716e-01" charge=0 multiplicity=2 method=b3lyp basis=def2-svpd config_type=oh_q0_m2 sample_index=491 temperature=500.0 units=atomic
O         0.0000000001      -0.0000000010       0.0571792577   1.659876388671e-11  -2.427478657774e-10   1.330485862953e-02
H        -0.0000000011       0.0000000166      -0.9074763142  -1.655852784308e-11   2.427481329250e-10  -1.330519813800e-02
2
Properties=species:S:1:pos:R:3:forces:R:3 energy=-7.568219406676e+01 dipole="1.6602009531e-09 -2.3973141994e-08 -6.6826661252e-01" quadrupole="-4.2679393383e+00 2.9598042643e-01 -1.2840382938e-08 2.9598042643e-01 -5.1276537500e+00 6.2840330102e-08 -1.2840382938e-08 6.2840330102e-08 -3.3978377677e+00" polarizability="6.3360971650e+00 -4.1681567592e-01 7.9620180768e-09 -4.1681575039e-01 7.5467862170e+00 5.7507689690e-08 -2.7077746048e-07 3.2178875944e-08 9.1785799863e+00" dipole_derivatives="-3.5141599021e-01 -1.3992489189e-06 -5.2338523371e-10 1.3992237952e-06 -3.5141599032e-01 8.0674998423e-09 3.2167693509e-07 -1.3556414324e-07 -1.2708834225e-01 3.5141575596e-01 -2.5892361879e-07 5.1275915795e-10 2.5892404238e-07 3.5141575607e-01 -8.0561929687e-09 -3.2167885022e-07 1.3555656597e-07 1.2708597547e-01" charge=0 multiplicity=2 method=b3lyp basis=def2-svpd config_type=oh_q0_m2 sample_index=492 temperature=500.0 units=atomic
O        -0.0000000001       0.0000000021       0.0596483189   5.886772040320e-11  -8.499337440694e-10  -2.369177259355e-02
H         0.0000000024      -0.0000000340      -0.9466621062  -5.885466252751e-11   8.498945698332e-10   2.369135744204e-02
2
Properties=species:S:1:pos:R:3:forces:R:3 energy=-7.568214535046e+01 dipole="-1.6516593802e-09 2.4224410065e-08 -6.5449380510e-01" quadrupole="-5.1711503695e+00 8.9118886668e-03 4.6453212142e-09 8.9118886668e-03 -4.1333581391e+00 -2.4121482550e-08 4.6453212142e-09 -2.4121482550e-08 -3.4818004526e+00" polarizability="7.5234371131e+00 -1.2172177973e-02 -8.6151498780e-09 -1.2172214904e-02 6.1068045273e+00 -1.8544631426e-07 1.3205949802e-07 -2.4573081327e-07 8.4203153108e+00" dipole_derivatives="-3.6417818219e-01 -1.5996804029e-06 5.6392071089e-10 1.5997078590e-06 -3.6417818214e-01 -8.4295403366e-09 2.8008639852e-07 1.2888162759e-07 -1.3654644433e-01 3.6417770174e-01 -4.1859437102e-07 -5.7484452580e-10 4.1859451076e-07 3.6417770173e-01 8.4268467379e-09 -2.8008903530e-07 -1.2887457768e-07 1.3654888349e-01" charge=0 multiplicity=2 method=b3lyp basis=def2-svpd config_type=oh_q0_m2 sample_index=493 temperature=500.0 units=atomic
O         0.0000000001      -0.0000000021       0.0563716954   7.041631718353e-11  -1.032529124853e-09   2.789769320311e-02
H        -0.0000000023       0.0000000331      -0.8946597133  -7.040323844114e-11   1.032582285865e-09  -2.789825090842e-02
2
Properties=species:S:1:pos:R:3:forces:R:3 energy=-7.568230259557e+01 dipole="1.5298263899e-09 -2.1949709959e-08 -6.6765836616e-01" quadrupole="-4.1817941139e+00 8.9972984195e-02 -4.7909128266e-09 8.9972984195e-02 -5.2097232478e+00 5.9586246403e-08 -4.7909128266e-09 5.9586246403e-08 -3.4018337902e+00" polarizability="6.2126926140e+00 -1.2653722551e-01 -2.5479734620e-09 -1.2653623952e-01 7.6583393654e+00 4.8489461833e-08 1.2977035425e-07 3.4676600495e-08 9.1424689560e+00" dipole_derivatives="-3.5198036026e-01 -1.3872013398e-06 -5.1451491933e-10 1.3871934791e-06 -3.5198036012e-01 7.3712787381e-09 -1.9021445530e-07 -1.3345599625e-07 -1.2749902466e-01 3.5198011380e-01 -2.6552942664e-07 5.1377496600e-10 2.6552942806e-07 3.5198011365e-01 -7.3792503613e-09 1.9022516895e-07 1.3345549665e-07 1.2751830281e-01" charge=0 multiplicity=2 method=b3lyp basis=def2-svpd config_type=oh_q0_m2 sample_index=494 temperature=500.0 units=atomic
O        -0.0000000001       0.0000000020       0.0594984762   4.980699718484e-11  -7.147080333935e-10  -2.173900899308e-02
H         0.0000000022      -0.0000000310      -0.9442839937  -4.981059907977e-11   7.146699623965e-10   2.173860630630e-02
2
Properties=species:S:1:pos:R:3:forces:R:3 energy=-7.568244926456e+01 dipole="-1.2333730513e-09 1.8226461516e-08 -6.5619957436e-01" quadrupole="-5.1752076210e+00 4.5262620843e-02 4.4665755576e-09 4.5262620843e-02 -4.1404523384e+00 -1.8619735584e-08 4.4665755576e-09 -1.8619735584e-08 -3.4721160665e+00" polarizability="7.5392539083e+00 -6.2039730590e-02 1.1043729342e-10 -6.2040199845e-02 6.1208748903e+00 -6.5928062992e-08 1.0770055956e-07 8.2215684275e-07 8.5079124793e+00" dipole_derivatives="-3.6259662841e-01 -1.6178125225e-06 4.2065387308e-10 1.6178130732e-06 -3.6259662831e-01 -6.5595812481e-09 4.9551807102e-08 -3.1716021476e-07 -1.3542491486e-01 3.6259620331e-01 -4.0519959685e-07 -3.8263570332e-10 4.0519961223e-07 3.6259620321e-01 6.5640746642e-09 -4.9560799908e-08 3.1716534954e-07 1.3542683514e-01" charge=0 multiplicity=2 method=b3lyp basis=def2-svpd config_type=oh_q0_m2 sample_index=495 temperature=500.0 units=atomic
O         0.0000000001      -0.0000000016       0.0567651331   3.872250678450e-11  -5.726744905322e-10   2.061856653458e-02
H        -0.0000000017       0.0000000250      -0.9009038549  -3.875753762776e-11   5.726904239135e-10  -2.061892309200e-02
2
Properties=species:S:1:pos:R:3:forces:R:3 energy=-7.567499475819e+01 dipole="6.0734584582e-09 -8.6731126142e-08 -6.8604337792e-01" quadrupole="-4.2338673718e+00 1.8372867415e-02 -1.0833178249e-08 1.8372867415e-02 -5.2834497019e+00 2.5500067580e-07 -1.0833178249e-08 2.5500067580e-07 -3.2679521866e+00" polarizability="6.3643263441e+00 -2.6711524056e-02 -3.2067456891e-08 -2.6711350248e-02 7.8902662469e+00 3.1235260810e-07 -3.0322065718e-07 3.1019003704e-07 1.0363403129e+01" dipole_derivatives="-3.3476673961e-01 1.2283546515e-07 -1.3538173473e-09 -1.2280483306e-07 -3.3476673985e-01 2.7997815499e-08 -4.9510506805e-08 -1.8551013503e-07 -1.1371041656e-01 3.3476661839e-01 -7.1773473116e-10 1.4030974802e-09 7.1522906413e-10 3.3476661861e-01 -2.7987313809e-08 4.9503900978e-08 1.8549403680e-07 1.1370674985e-01" charge=0 multiplicity=2 method=b3lyp basis=def2-svpd config_type=oh_q0_m2 sample_index=496 temperature=500.0 units=atomic
O        -0.0000000006       0.0000000081       0.0642806536   6.152274763803e-10  -8.785840006947e-09  -6.949593582014e-02
H         0.0000000090      -0.0000001290      -1.0201806193  -6.151758050396e-10   8.785914160088e-09   6.949658888494e-02
2
Properties=species:S:1:pos:R:3:forces:R:3 energy=-7.567549291743e+01 dipole="5.7702539226e-09 -8.3763940004e-08 -6.8521596333e-01" quadrupole="-5.2722003021e+00 9.4345560525e-02 -2.8406214537e-08 9.4345560525e-02 -4.2393329185e+00 1.1876728442e-07 -2.8406214537e-08 1.1876728442e-07 -3.2745958732e+00" polarizability="7.8675693490e+00 -1.3696752089e-01 -3.6653338195e-09 -1.3696846060e-01 6.3680989197e+00 4.8064426507e-07 5.6293288480e-08 5.4260649624e-07 1.0302086138e+01" dipole_derivatives="-3.3555102538e-01 1.2014805073e-07 -1.8578933014e-09 -1.2024945418e-07 -3.3555102492e-01 2.7277701933e-08 -1.6684507942e-07 4.5807697913e-07 -1.1435665379e-01 3.3555093838e-01 -2.2180523130e-10 1.8655805739e-09 2.7214771231e-10 3.3555093791e-01 -2.7280175531e-08 1.6685275384e-07 -4.5809314675e-07 1.1435294404e-01" charge=0 multiplicity=2 method=b3lyp basis=def2-svpd config_type=oh_q0_m2 sample_index=497 temperature=500.0 units=atomic
O        -0.0000000005       0.0000000078       0.0640530636   5.710218718424e-10  -8.288970792138e-09  -6.780659090782e-02
H         0.0000000086      -0.0000001243      -1.0165686015  -5.710090074837e-10   8.289052821269e-09   6.780720452803e-02
2
Properties=species:S:1:pos:R:3:forces:R:3 energy=-7.568266343317e+01 dipole="-8.8692898835e-10 1.2348762929e-08 -6.5788627423e-01" quadrupole="-4.1458425371e+00 4.7859715180e-02 1.7912737531e-09 4.7859715180e-02 -5.1808770410e+00 -3.2288185465e-08 1.7912737531e-09 -3.2288185465e-08 -3.4623479796e+00" polarizability="6.1327760580e+00 -6.5862179666e-02 2.0808081620e-09 -6.5861624335e-02 7.5572090107e+00 -1.9424236737e-08 -4.5257736005e-08 -8.9599474083e-07 8.5961750236e+00" dipole_derivatives="-3.6103396989e-01 -1.3751404746e-06 2.8913590659e-10 1.3751617813e-06 -3.6103397006e-01 -4.2688519763e-09 -2.1707888265e-07 -2.3287458073e-07 -1.3432431746e-01 3.6103353478e-01 -3.7052695300e-07 -3.0563049582e-10 3.7052672044e-07 3.6103353493e-01 4.2554701754e-09 2.1705690023e-07 2.3287352602e-07 1.3430950169e-01" charge=0 multiplicity=2 method=b3lyp basis=def2-svpd config_type=oh_q0_m2 sample_index=498 temperature=500.0 units=atomic
O         0.0000000001      -0.0000000011       0.0571573866   1.843742271663e-11  -2.568251446281e-10   1.368231208618e-02
H        -0.0000000012       0.0000000170      -0.9071292038  -1.844684833664e-11   2.568307868162e-10  -1.368278986745e-02
2
Properties=species:S:1:pos:R:3:forces:R:3 energy=-7.567099312658e+01 dipole="-6.6627121619e-09 9.5957849669e-08 -6.3418890016e-01" quadrupole="-5.0931840810e+00 8.9804176206e-02 2.9508053519e-08 8.9804176206e-02 -4.0808121945e+00 -7.6208515196e-08 2.9508053519e-08 -7.6208515196e-08 -3.5830164174e+00" polarizability="7.3029952568e+00 -1.1587196774e-01 -1.5436839592e-08 -1.1587232219e-01 5.9967210814e+00 -2.2356856542e-07 1.6148475826e-07 -3.0211953455e-07 7.4908487334e+00" dipole_derivatives="-3.8323868071e-01 -9.4008256963e-08 2.4691365804e-09 9.4677860672e-08 -3.8323868131e-01 -3.5757559753e-08 -1.2869305621e-07 2.2812546296e-07 -1.4839912273e-01 3.8324070082e-01 2.4648405559e-07 -2.4542334803e-09 -2.4715076221e-07 3.8324070138e-01 3.5743155691e-08 1.2870274291e-07 -2.2807769562e-07 1.4840051022e-01" charge=0 multiplicity=2 method=b3lyp basis=def2-svpd config_type=oh_q0_m2 sample_index=499 temperature=500.0 units=atomic
O         0.0000000005      -0.0000000079       0.0519063975   1.450189787349e-09  -2.088637631219e-08   1.380382456332e-01
H        -0.0000000087       0.0000001246      -0.8237921954  -1.450203699862e-09   2.088631077737e-08  -1.380380249357e-01
