2
Properties=species:S:1:pos:R:3:forces:R:3 energy=-7.540535015745e+01 dipole="2.7067936085e-14 -2.2292304579e-14 4.7420383183e-01" quadrupole="-7.6842557773e+00 3.8868485134e-09 7.6095292356e-14 3.8868485134e-09 -7.6842557731e+00 -3.0622416302e-15 7.6095292356e-14 -3.0622416302e-15 -5.8093287983e+00" polarizability="2.0382115318e+01 2.2862377530e-08 -7.2554930155e-13 2.2862348668e-08 2.0382115343e+01 6.5070854436e-14 -2.8653840659e-12 1.7453054463e-12 1.1814444180e+01" dipole_derivatives="-1.4181953487e+00 -7.7065984921e-09 1.6560875306e-12 7.6749947483e-09 -1.4181953499e+00 4.1618493715e-11 1.0118106353e-07 -3.7873038039e-08 -9.5272296103e-01 4.1819688690e-01 7.7176645100e-09 1.9077294327e-13 -7.7180575239e-09 4.1819688805e-01 3.1874303925e-15 -1.0120060345e-07 3.7867708969e-08 -4.7276048050e-02" charge=-1 multiplicity=1 method=b3lyp basis=def2-svpd config_type=oh_q-1_m1 sample_index=0 bond_length=0.600000 units=atomic
O         0.0000000000       0.0000000000       0.0000000000   1.537391476552e-14   2.928321890278e-14  -1.612587098954e+00
H         0.0000000000       0.0000000000       0.6000000000  -1.393669852510e-15  -6.348027980949e-16   1.612587566173e+00
2
Properties=species:S:1:pos:R:3:forces:R:3 energy=-7.553228975145e+01 dipole="-1.9544494532e-14 -5.4325363820e-14 4.6843804469e-01" quadrupole="-7.7485789401e+00 2.3049782050e-09 1.3397904140e-14 2.3049782050e-09 -7.7485789408e+00 -1.1000607583e-13 1.3397904140e-14 -1.1000607583e-13 -5.8501928941e+00" polarizability="2.0574052538e+01 -2.1900056151e-08 -1.0944650218e-13 -2.1900056593e-08 2.0574052545e+01 1.3110767845e-12 2.8538277852e-12 1.4169570371e-11 1.2573083424e+01" dipole_derivatives="-1.3813312754e+00 -6.4370514715e-09 -4.6109089826e-13 -2.2187959356e-11 -1.3813313465e+00 9.4802296161e-12 4.4936721011e-08 -1.5801249198e-08 -9.2494812273e-01 3.8133436914e-01 6.4464567071e-09 -1.7550091712e-15 3.8818641631e-15 3.8133444028e-01 -9.2339845036e-14 -4.4920289710e-08 1.5798917730e-08 -7.5051933857e-02" charge=-1 multiplicity=1 method=b3lyp basis=def2-svpd config_type=oh_q-1_m1 sample_index=1 bond_length=0.650000 units=atomic
O         0.0000000000       0.0000000000       0.0000000000   1.979685698263e-14   3.843166388345e-14  -1.103855133681e+00
H         0.0000000000       0.0000000000       0.6500000000   9.241779142548e-16  -4.999091834846e-16   1.103855664299e+00
2
Properties=species:S:1:pos:R:3:forces:R:3 energy=-7.561861663816e+01 dipole="-5.0457565040e-14 8.2895715456e-15 4.5996863200e-01" quadrupole="-7.8100313115e+00 -2.1025394330e-10 -7.7336553584e-14 -2.1025394330e-10 -7.8100313096e+00 -9.5042593822e-15 -7.7336553584e-14 -9.5042593822e-15 -5.8850053546e+00" polarizability="2.0730463291e+01 1.4736121796e-09 8.2846201258e-13 1.4736168245e-09 2.0730463278e+01 1.5584675762e-13 2.1521670105e-11 -1.5493038644e-12 1.3399621163e+01" dipole_derivatives="-1.3476935424e+00 -1.4965917316e-11 -8.3518202235e-12 -9.5025435828e-13 -1.3476935322e+00 1.0746253479e-11 4.6923576136e-10 1.3557299727e-07 -8.9542115150e-01 3.4769443474e-01 -2.4100748777e-13 -2.9404158077e-13 -6.6984989144e-14 3.4769442449e-01 -2.8847300359e-13 -4.8905324235e-10 -1.3558165701e-07 -1.0457951851e-01" charge=-1 multiplicity=1 method=b3lyp basis=def2-svpd config_type=oh_q-1_m1 sample_index=2 bond_length=0.700000 units=atomic
O         0.0000000000       0.0000000000       0.0000000000   1.553829973458e-14   2.126220095016e-14  -7.440151320111e-01
H         0.0000000000       0.0000000000       0.7000000000   1.874473464914e-15   1.625023982156e-15   7.440147645715e-01
2
Properties=species:S:1:pos:R:3:forces:R:3 energy=-7.567615532041e+01 dipole="-3.8496861163e-14 -6.7277699320e-15 4.4860528248e-01" quadrupole="-7.8683502283e+00 5.1722026240e-12 -5.1076023089e-14 5.1722026240e-12 -7.8683502282e+00 -2.4983679350e-15 -5.1076023089e-14 -2.4983679350e-15 -5.9155906700e+00" polarizability="2.0855381211e+01 -3.5845284528e-11 3.8713768616e-13 -3.5820622399e-11 2.0855381210e+01 3.7217289597e-14 2.3534646148e-11 5.1604261448e-12 1.4291478565e+01" dipole_derivatives="-1.3164995972e+00 -1.0445657667e-08 -5.7635951040e-13 -1.0390753482e-08 -1.3164996000e+00 6.3206425448e-12 -4.8561815680e-07 1.4714446328e-07 -8.6358191355e-01 3.1649811951e-01 1.0399579962e-08 -1.3299463862e-13 1.0398968706e-08 3.1649812230e-01 -3.1826681239e-13 4.8562198707e-07 -1.4713658070e-07 -1.3641836780e-01" charge=-1 multiplicity=1 method=b3lyp basis=def2-svpd config_type=oh_q-1_m1 sample_index=3 bond_length=0.750000 units=atomic
O         0.0000000000       0.0000000000       0.0000000000   5.958477566740e-14   5.591123078312e-14  -4.883702768598e-01
H         0.0000000000       0.0000000000       0.7500000000   2.845634778680e-16  -7.783433796192e-16   4.883690367843e-01
2
Properties=species:S:1:pos:R:3:forces:R:3 energy=-7.571320844466e+01 dipole="-2.5374009177e-14 -8.9769364526e-15 4.3410306723e-01" quadrupole="-7.9231529894e+00 3.9440312249e-10 -1.2254157055e-14 3.9440312249e-10 -7.9231529882e+00 2.3754668338e-14 -1.2254157055e-14 2.3754668338e-14 -5.9438737045e+00" polarizability="2.0950666019e+01 -2.6032815707e-09 2.8970983303e-14 -2.6032922708e-09 2.0950666011e+01 -2.8617669742e-13 1.4593611316e-11 -1.9234227114e-12 1.5244655144e+01" dipole_derivatives="-1.2871274866e+00 -1.4374544464e-12 -2.7720121417e-11 -1.6247023010e-11 -1.2871274895e+00 -4.4479545260e-12 -3.9288572395e-08 4.9186876794e-08 -8.2892097054e-01 2.8712534027e-01 -2.6561032610e-13 1.5830205711e-14 5.9212454235e-14 2.8712534315e-01 -6.6610557242e-13 3.9302866517e-08 -4.9186654749e-08 -1.7107868497e-01" charge=-1 multiplicity=1 method=b3lyp basis=def2-svpd config_type=oh_q-1_m1 sample_index=4 bond_length=0.800000 units=atomic
O         0.0000000000       0.0000000000       0.0000000000   5.499804867709e-14   2.117716923784e-14  -3.061727075487e-01
H         0.0000000000       0.0000000000       0.8000000000  -5.552160564913e-16  -1.282472724804e-15   3.061713197031e-01
2
Properties=species:S:1:pos:R:3:forces:R:3 energy=-7.573565087190e+01 dipole="-3.8573694832e-14 -5.3238421753e-15 4.1618772673e-01" quadrupole="-7.9740471229e+00 5.5729864451e-09 -6.8427781214e-14 5.5729864451e-09 -7.9740471382e+00 3.4126771742e-14 -6.8427781214e-14 3.4126771742e-14 -5.9719950356e+00" polarizability="2.1017046846e+01 -3.8070384030e-08 5.9795903773e-13 -3.8070385550e-08 2.1017046950e+01 -2.5728694222e-13 5.1404948497e-11 -2.2060384891e-12 1.6255534606e+01" dipole_derivatives="-1.2590850258e+00 3.5715554170e-08 2.9085185432e-11 3.5694421173e-08 -1.2590850247e+00 -3.1080352856e-12 2.4690197109e-07 -1.0817158280e-07 -7.9136823670e-01 2.5908374051e-01 -3.5715150645e-08 1.1317189575e-13 -3.5714755268e-08 2.5908373939e-01 -8.3972377272e-14 -2.4689217337e-07 1.0817072238e-07 -2.0863117765e-01" charge=-1 multiplicity=1 method=b3lyp basis=def2-svpd config_type=oh_q-1_m1 sample_index=5 bond_length=0.850000 units=atomic
O         0.0000000000       0.0000000000       0.0000000000   3.323640839671e-14   2.944535362186e-14  -1.761765707840e-01
H         0.0000000000       0.0000000000       0.8500000000   2.040629375011e-16   2.460988540561e-16   1.761757041772e-01
2
Properties=species:S:1:pos:R:3:forces:R:3 energy=-7.574767493045e+01 dipole="-9.6963707400e-15 1.5773160758e-14 3.9460393895e-01" quadrupole="-8.0207105337e+00 -2.6809614174e-09 1.2555920541e-14 -2.6809614174e-09 -8.0207105330e+00 3.5648883179e-14 1.2555920541e-14 3.5648883179e-14 -6.0023114668e+00" polarizability="2.1055350257e+01 2.5361669477e-08 -7.6422609452e-14 2.5361673675e-08 2.1055350250e+01 -3.3151371509e-13 4.8427587189e-12 -5.1606296437e-11 1.7321681748e+01" dipole_derivatives="-1.2320010390e+00 -4.2729405923e-08 -5.6324797965e-09 -4.2757388840e-08 -1.2320010361e+00 2.0881915808e-10 -2.6216445681e-08 6.6793598430e-08 -7.5138764328e-01 2.3200113737e-01 4.2772704204e-08 5.6340081870e-09 4.2772937812e-08 2.3200113451e-01 -1.9777476367e-10 2.6203622605e-08 -6.6788991004e-08 -2.4861198950e-01" charge=-1 multiplicity=1 method=b3lyp basis=def2-svpd config_type=oh_q-1_m1 sample_index=6 bond_length=0.900000 units=atomic
O         0.0000000000       0.0000000000       0.0000000000   2.098580910522e-14   4.178126786659e-15  -8.359754874923e-02
H         0.0000000000       0.0000000000       0.9000000000   4.735876543502e-16   7.762434607370e-16   8.359739416211e-02
2
Properties=species:S:1:pos:R:3:forces:R:3 energy=-7.575229629394e+01 dipole="-2.3758646452e-14 7.0680728000e-15 3.6916114894e-01" quadrupole="-8.0629305972e+00 -1.0682502931e-12 -3.0572180456e-15 -1.0682502931e-12 -8.0629305972e+00 3.8589010622e-14 -3.0572180456e-15 3.8589010622e-14 -6.0372858919e+00" polarizability="2.1067343593e+01 6.6327068926e-12 4.1939731493e-14 6.6326040630e-12 2.1067343593e+01 -3.2612304748e-13 4.3244601141e-11 -4.4979046000e-11 1.8441666617e+01" dipole_derivatives="-1.2056190073e+00 -2.8702438888e-11 -1.0175853764e-09 -1.5836810753e-12 -1.2056190094e+00 -9.0957457911e-08 5.8141880199e-08 2.2325308269e-08 -7.0985525299e-01 2.0562009593e-01 1.4375194800e-13 1.0292785434e-09 -3.4692385191e-13 2.0562009802e-01 9.0946415912e-08 -5.8134747016e-08 -2.2324309068e-08 -2.9014478913e-01" charge=-1 multiplicity=1 method=b3lyp basis=def2-svpd config_type=oh_q-1_m1 sample_index=7 bond_length=0.950000 units=atomic
O         0.0000000000       0.0000000000       0.0000000000  -2.144575009957e-14   3.865495447245e-14  -1.803190304158e-02
H         0.0000000000       0.0000000000       0.9500000000   7.736196424947e-16  -1.812029927912e-15   1.803218699626e-02
2
Properties=species:S:1:pos:R:3:forces:R:3 energy=-7.575169759296e+01 dipole="-1.1506136356e-09 -5.2265226874e-10 3.3976305976e-01" quadrupole="-8.1006104266e+00 3.4224613607e-09 2.4639290801e-11 3.4224613607e-09 -8.1006104326e+00 1.1339255617e-11 2.4639290801e-11 1.1339255617e-11 -6.0793229597e+00" polarizability="2.1055996790e+01 -2.1820277281e-08 -2.8798175341e-09 -2.1815218357e-08 2.1055996828e+01 -1.3097232209e-09 -1.5951072237e-08 1.2106035006e-06 1.9614359792e+01" dipole_derivatives="-1.1797827582e+00 -3.3066899180e-08 8.0137115769e-08 3.3122165992e-08 -1.1797827571e+00 -1.1609168290e-07 -4.4418635436e-08 2.4110946573e-07 -6.6785405635e-01 1.7978404897e-01 3.3115527816e-08 -8.0132103576e-08 -3.3115646061e-08 1.7978404785e-01 1.1611124472e-07 4.4404341315e-08 -2.4111720953e-07 -3.3214627713e-01" charge=-1 multiplicity=1 method=b3lyp basis=def2-svpd config_type=oh_q-1_m1 sample_index=8 bond_length=1.000000 units=atomic
O         0.0000000000       0.0000000000       0.0000000000  -8.615007365111e-11   1.154982138949e-10   2.793637372898e-02
H         0.0000000000       0.0000000000       1.0000000000   8.615016515780e-11  -1.154586157958e-10  -2.793611824556e-02
2
Properties=species:S:1:pos:R:3:forces:R:3 energy=-7.574746443421e+01 dipole="-3.2509463170e-11 -1.2070938433e-12 3.0641747794e-01" quadrupole="-8.1337541719e+00 2.2739988094e-11 -1.7456524125e-11 2.2739988094e-11 -8.1337541726e+00 -6.1905163806e-13 -1.7456524125e-11 -6.1905163806e-13 -6.1306095924e+00" polarizability="2.1025259729e+01 -8.1951413490e-11 2.9763157622e-11 -8.1966931289e-11 2.1025259731e+01 7.5090881080e-13 1.7658742226e-07 6.5471797614e-09 2.0838168829e+01" dipole_derivatives="-1.1544182761e+00 8.1234096176e-12 5.8917679288e-10 2.0938177215e-11 -1.1544182748e+00 9.9646653502e-12 -1.4031341367e-07 -3.4321226416e-08 -6.2647494351e-01 1.5441909827e-01 2.2426609604e-13 -5.9609317231e-10 -8.8485570940e-14 1.5441909694e-01 -1.8161403392e-11 1.4030779316e-07 3.4328123677e-08 -3.7352543765e-01" charge=-1 multiplicity=1 method=b3lyp basis=def2-svpd config_type=oh_q-1_m1 sample_index=9 bond_length=1.050000 units=atomic
O         0.0000000000       0.0000000000       0.0000000000  -1.066993532865e-12   3.226326040583e-11   5.965140754395e-02
H         0.0000000000       0.0000000000       1.0500000000   1.083225340429e-12  -3.227475902040e-11  -5.965152711214e-02
2
Properties=species:S:1:pos:R:3:forces:R:3 energy=-7.574075067859e+01 dipole="-1.5957426244e-09 -1.7293193265e-09 2.6922974898e-01" quadrupole="-8.1624411781e+00 1.3449860926e-10 -2.1054978332e-09 1.3449860926e-10 -8.1624411780e+00 -2.2817573290e-09 -2.1054978332e-09 -2.2817573290e-09 -6.1929997823e+00" polarizability="2.0979597113e+01 1.4748869199e-09 1.4060026426e-08 1.4748874812e-09 2.0979597113e+01 1.5237004508e-08 7.6425601628e-09 9.3264648933e-09 2.2110537983e+01" dipole_derivatives="-1.1295117698e+00 -2.7139298276e-12 -8.9619973642e-09 -9.8492308788e-12 -1.1295117700e+00 5.9823915262e-09 -1.1340015038e-07 -1.2197987065e-07 -5.8667277124e-01 1.2951182524e-01 1.1311967215e-14 8.9723259151e-09 -1.2464306152e-13 1.2951182544e-01 -6.0002929432e-09 1.1340835215e-07 1.2195711108e-07 -4.1332748126e-01" charge=-1 multiplicity=1 method=b3lyp basis=def2-svpd config_type=oh_q-1_m1 sample_index=10 bond_length=1.100000 units=atomic
O         0.0000000000       0.0000000000       0.0000000000   2.587466039098e-11   2.532570920630e-11   8.099033435022e-02
H         0.0000000000       0.0000000000       1.1000000000  -2.583123115508e-11  -2.533588401001e-11  -8.099087260359e-02
2
Properties=species:S:1:pos:R:3:forces:R:3 energy=-7.573239642117e+01 dipole="-3.7638254402e-09 2.3075161659e-09 2.2838553259e-01" quadrupole="-8.1867981023e+00 -6.1128014574e-10 -6.6292776617e-09 -6.1128014574e-10 -8.1867981029e+00 4.0642508461e-09 -6.6292776617e-09 4.0642508461e-09 -6.2679605184e+00" polarizability="2.0923519597e+01 1.1759324280e-08 5.7540462083e-08 1.1759330250e-08 2.0923519609e+01 -3.5276556146e-08 5.5636252307e-08 -3.1770688804e-08 2.3427850167e+01" dipole_derivatives="-1.1050884978e+00 -5.1798096780e-12 -2.4447036263e-09 -3.4048721243e-08 -1.1050884927e+00 7.1115965084e-10 -2.0972171222e-07 -9.2199789470e-08 -5.4918617386e-01 1.0508785148e-01 1.3420381777e-13 2.4373149347e-09 3.4023948741e-08 1.0508784645e-01 -7.2397781726e-10 2.0972651393e-07 9.2172922073e-08 -4.5081387177e-01" charge=-1 multiplicity=1 method=b3lyp basis=def2-svpd config_type=oh_q-1_m1 sample_index=11 bond_length=1.150000 units=atomic
O         0.0000000000       0.0000000000       0.0000000000   1.581955257027e-10  -1.283421267732e-10   9.477471493014e-02
H         0.0000000000       0.0000000000       1.1500000000  -1.581758782246e-10   1.283920200225e-10  -9.477553611876e-02
2
Properties=species:S:1:pos:R:3:forces:R:3 energy=-7.572301322170e+01 dipole="6.4738336964e-10 -3.2917187858e-11 1.8413000130e-01" quadrupole="-8.2069813823e+00 -7.1982722833e-10 2.4405685432e-09 -7.1982722833e-10 -8.2069813964e+00 -1.2427132549e-10 2.4405685432e-09 -1.2427132549e-10 -6.3565751956e+00" polarizability="2.0861264320e+01 3.5609272922e-09 -2.1757129185e-08 3.5597033874e-09 2.0861264390e+01 1.1081212459e-09 -1.6668822201e-08 9.2469971207e-07 2.4785702488e+01" dipole_derivatives="-1.0811958767e+00 5.6062022930e-12 -1.0044142323e-07 3.0873261868e-11 -1.0811958765e+00 2.6987067652e-08 5.6237653423e-09 3.8743258601e-08 -5.1454329419e-01 8.1194798821e-02 6.0061877152e-14 1.0045645541e-07 -8.4023881545e-14 8.1194798522e-02 -2.6976864775e-08 -5.6453591801e-09 -3.8743119823e-08 -4.8545655498e-01" charge=-1 multiplicity=1 method=b3lyp basis=def2-svpd config_type=oh_q-1_m1 sample_index=12 bond_length=1.200000 units=atomic
O         0.0000000000       0.0000000000       0.0000000000  -9.126957596317e-11   9.194941581109e-12   1.030610542806e-01
H         0.0000000000       0.0000000000       1.2000000000   9.127249136931e-11  -9.208537940103e-12  -1.030620613391e-01
2
Properties=species:S:1:pos:R:3:forces:R:3 energy=-7.571304593705e+01 dipole="-4.8708133282e-10 1.4920689641e-09 1.3675109241e-01" quadrupole="-8.2231803100e+00 5.8251455896e-09 -1.0692993155e-09 5.8251455896e-09 -8.2231803259e+00 3.2731956869e-09 -1.0692993155e-09 3.2731956869e-09 -6.4595795159e+00" polarizability="2.0796661267e+01 -4.2569613922e-08 1.2141922992e-08 -4.2569597264e-08 2.0796661384e+01 -3.7154245998e-08 1.3576877474e-09 -3.4161142736e-08 2.6179373092e+01" dipole_derivatives="-1.0578920719e+00 -2.8769948747e-12 2.1212375446e-08 -1.4514475304e-11 -1.0578920723e+00 -8.5461436519e-08 6.1411008223e-08 1.8539475510e-09 -4.8313842217e-01 5.7890879480e-02 9.1569643964e-14 -2.1194198146e-08 4.6870608939e-14 5.7890879876e-02 8.5436364127e-08 -6.1404985263e-08 -1.8519283329e-09 -5.1686141029e-01" charge=-1 multiplicity=1 method=b3lyp basis=def2-svpd config_type=oh_q-1_m1 sample_index=13 bond_length=1.250000 units=atomic
O         0.0000000000       0.0000000000       0.0000000000  -4.538552336034e-11   1.986827255665e-10   1.073510396758e-01
H         0.0000000000       0.0000000000       1.2500000000   4.540135127396e-11  -1.986472415579e-10  -1.073521066460e-01
2
Properties=species:S:1:pos:R:3:forces:R:3 energy=-7.570281753503e+01 dipole="-1.0496492687e-11 2.8010992453e-15 8.6570993406e-02" quadrupole="-8.2356341925e+00 -1.2574600829e-12 -9.0572842756e-12 -1.2574600829e-12 -8.2356341932e+00 6.0374092732e-15 -9.0572842756e-12 6.0374092732e-15 -6.5773945395e+00" polarizability="2.0733107088e+01 5.4938242969e-12 9.6042746303e-11 5.4896493921e-12 2.0733107091e+01 -1.1123666205e-13 -3.4408350253e-07 7.4296809578e-10 2.7604234922e+01" dipole_derivatives="-1.0352401862e+00 2.2124600639e-07 1.5719052405e-10 1.2614112037e-11 -1.0352401876e+00 9.0642682034e-13 3.1969475678e-08 9.8680438820e-09 -4.5530932338e-01 3.5239184756e-02 -2.2123690372e-07 -1.3664516393e-10 1.5359642462e-13 3.5239186148e-02 4.8390857523e-12 -3.1984734306e-08 -9.8730745801e-09 -5.4469076685e-01" charge=-1 multiplicity=1 method=b3lyp basis=def2-svpd config_type=oh_q-1_m1 sample_index=14 bond_length=1.300000 units=atomic
O         0.0000000000       0.0000000000       0.0000000000   7.899883224960e-13   5.503152090441e-15   1.087450763823e-01
H         0.0000000000       0.0000000000       1.3000000000  -7.836273223790e-13   4.257974490315e-15  -1.087459908028e-01
2
Properties=species:S:1:pos:R:3:forces:R:3 energy=-7.569256137208e+01 dipole="-4.2542352009e-11 -4.3679886815e-10 3.3941446911e-02" quadrupole="-8.2446418341e+00 -6.1023798866e-11 -2.1243356675e-11 -6.1023798866e-11 -8.2446418347e+00 -2.1796570815e-10 -2.1243356675e-11 -2.1796570815e-10 -6.7101433713e+00" polarizability="2.0673540882e+01 7.0927066872e-10 -6.7125055178e-11 7.0943424433e-10 2.0673540890e+01 -6.9025253269e-10 9.5490870338e-07 -2.4991206512e-08 2.9055998282e+01" dipole_derivatives="-1.0133057230e+00 -3.4380556100e-12 1.1496388878e-07 1.2904341171e-12 -1.0133057234e+00 -2.3689276157e-08 1.3905411544e-08 -9.6286936757e-09 -4.3133562708e-01 1.3305188857e-02 8.1799364891e-14 -1.1496356001e-07 -3.0166935018e-14 1.3305189263e-02 2.3695205907e-08 -1.3898708573e-08 9.6029087460e-09 -5.6866484958e-01" charge=-1 multiplicity=1 method=b3lyp basis=def2-svpd config_type=oh_q-1_m1 sample_index=15 bond_length=1.350000 units=atomic
O         0.0000000000       0.0000000000       0.0000000000  -1.734050129415e-13  -1.590191036230e-12   1.080555511789e-01
H         0.0000000000       0.0000000000       1.3500000000   1.515035191936e-13   1.586944243747e-12  -1.080563062875e-01
2
Properties=species:S:1:pos:R:3:forces:R:3 energy=-7.568244425320e+01 dipole="1.2999394350e-09 1.3320054919e-10 -2.0764985311e-02" quadrupole="-8.2505471441e+00 6.1775358300e-10 9.0881269405e-10 6.1775358300e-10 -8.2505471501e+00 9.3121840506e-11 9.0881269405e-10 9.3121840506e-11 -6.8576710868e+00" polarizability="2.0620374939e+01 -4.7373025236e-09 -6.9842712668e-09 -4.7373429989e-09 2.0620374984e+01 -7.1574255849e-10 -6.7132949299e-10 6.3382433326e-08 3.0530854003e+01" dipole_derivatives="-9.9215266923e-01 7.4378047360e-09 -1.1333284910e-07 -7.4570484034e-09 -9.9215266777e-01 -1.3045881953e-08 3.3855285936e-07 3.2067838662e-07 -4.1136260137e-01 -7.8472037810e-03 -7.4700727817e-09 1.1333084020e-07 7.4700575718e-09 -7.8472052486e-03 1.3061844896e-08 -3.3855267895e-07 -3.2068542266e-07 -5.8863827131e-01" charge=-1 multiplicity=1 method=b3lyp basis=def2-svpd config_type=oh_q-1_m1 sample_index=16 bond_length=1.400000 units=atomic
O         0.0000000000       0.0000000000       0.0000000000   1.444366072843e-10   1.268312048451e-11   1.058900687292e-01
H         0.0000000000       0.0000000000       1.4000000000  -1.444485998614e-10  -1.264534601346e-11  -1.058907383353e-01
2
Properties=species:S:1:pos:R:3:forces:R:3 energy=-7.567258290844e+01 dipole="1.7435574839e-11 2.0263886147e-10 -7.7170983692e-02" quadrupole="-8.2537088066e+00 5.2046126885e-10 -4.6972777683e-11 5.2046126885e-10 -8.2537088006e+00 -5.4569294352e-10 -4.6972777683e-11 -5.4569294352e-10 -7.0195933609e+00" polarizability="2.0575423471e+01 -2.3939482030e-09 1.1920466240e-09 -2.3948153302e-09 2.0575423444e+01 1.3848134694e-08 7.4353174561e-07 -4.2323079271e-08 3.2025620716e+01" dipole_derivatives="-9.7183789504e-01 -1.2051082831e-11 9.3562374248e-09 -1.9045624838e-08 -9.7183790330e-01 1.0985861064e-07 2.4545289412e-08 -7.2708665477e-08 -3.9533968872e-01 -2.8161172270e-02 3.4219631828e-14 -9.3788535512e-09 1.9064289152e-08 -2.8161164033e-02 -1.0985815344e-07 -2.4547870681e-08 7.2686738573e-08 -6.0466151335e-01" charge=-1 multiplicity=1 method=b3lyp basis=def2-svpd config_type=oh_q-1_m1 sample_index=17 bond_length=1.450000 units=atomic
O         0.0000000000       0.0000000000       0.0000000000  -4.698571983733e-11   3.857104476373e-12   1.027086130748e-01
H         0.0000000000       0.0000000000       1.4500000000   4.697356788698e-11  -3.855820374637e-12  -1.027091386648e-01
2
Properties=species:S:1:pos:R:3:forces:R:3 energy=-7.566305607431e+01 dipole="7.9837144684e-10 1.3494863546e-10 -1.3491370473e-01" quadrupole="-8.2544709470e+00 -2.6073895702e-10 1.1626831955e-09 -2.6073895702e-10 -8.2544709455e+00 1.9655431179e-10 1.1626831955e-09 1.9655431179e-10 -7.1953720040e+00" polarizability="2.0539877190e+01 1.8560944743e-09 -1.1004779218e-08 1.8561139543e-09 2.0539877179e+01 -1.8601600029e-09 -1.7924929885e-09 5.7783750268e-08 3.3537878945e+01" dipole_derivatives="-9.5240566203e-01 1.3847200119e-11 4.1086947512e-08 -1.0720003927e-08 -9.5240564244e-01 4.6425854648e-09 1.5750622334e-07 -3.5951658317e-08 -3.8301670253e-01 -4.7592491789e-02 -6.6910951295e-14 -4.1086952199e-08 1.0718132594e-08 -4.7592511361e-02 -4.6346869916e-09 -1.5752267546e-07 3.5953268140e-08 -6.1698482042e-01" charge=-1 multiplicity=1 method=b3lyp basis=def2-svpd config_type=oh_q-1_m1 sample_index=18 bond_length=1.500000 units=atomic
O         0.0000000000       0.0000000000       0.0000000000   6.117023842051e-11   1.333774588705e-11   9.886030134531e-02
H         0.0000000000       0.0000000000       1.5000000000  -6.117667988245e-11  -1.335667914696e-11  -9.886071634347e-02
2
Properties=species:S:1:pos:R:3:forces:R:3 energy=-7.565391372454e+01 dipole="3.8276563783e-09 -3.8730112537e-11 -1.9366145618e-01" quadrupole="-8.2531447508e+00 -6.4408446632e-12 2.5981413474e-09 -6.4408446632e-12 -8.2531447514e+00 -2.6186459332e-11 2.5981413474e-09 -2.6186459332e-11 -7.3843962512e+00" polarizability="2.0514335737e+01 2.7208867344e-11 -7.1071912850e-09 2.7197121632e-11 2.0514335740e+01 7.0464026771e-11 -9.4512168990e-10 2.1228469939e-06 3.5066018090e+01" dipole_derivatives="-9.3388381221e-01 -1.7496302860e-11 -6.2499545072e-08 -2.6964845405e-08 -9.3388364170e-01 8.8509654861e-10 -4.3457681898e-08 -2.9242858135e-09 -3.7399539391e-01 -6.6113566556e-02 6.6187117386e-14 6.2533565770e-08 2.6941140536e-08 -6.6113737078e-02 -8.8158737052e-10 4.3484951751e-08 2.9044336380e-09 -6.2600674171e-01" charge=-1 multiplicity=1 method=b3lyp basis=def2-svpd config_type=oh_q-1_m1 sample_index=19 bond_length=1.550000 units=atomic
O         0.0000000000       0.0000000000       0.0000000000  -1.082821105551e-13  -6.226165894907e-12   9.460802074351e-02
H         0.0000000000       0.0000000000       1.5500000000   8.810120499727e-14   6.191899034725e-12  -9.460833774496e-02
2
Properties=species:S:1:pos:R:3:forces:R:3 energy=-7.564518437204e+01 dipole="-4.8519413879e-12 4.2532710041e-10 -2.5312418823e-01" quadrupole="-8.2500015887e+00 6.9720735373e-12 -1.5459339992e-12 6.9720735373e-12 -8.2500015893e+00 1.4147826169e-10 -1.5459339992e-12 1.4147826169e-10 -7.5860487521e+00" polarizability="2.0498883300e+01 -7.7296549503e-11 -3.3025568063e-11 -7.7289816622e-11 2.0498883306e+01 2.7464910142e-09 2.6696523789e-08 -3.4502689855e-06 3.6609154107e+01" dipole_derivatives="-9.1628338855e-01 3.8189324137e-11 -5.1766209502e-10 6.4473690339e-09 -9.1628313666e-01 4.5803117613e-08 3.9007755359e-08 -3.3460144377e-08 -3.6780468302e-01 -8.3713517887e-02 -3.9474685889e-14 5.0046084056e-10 -6.4421144708e-09 -8.3713769775e-02 -4.5784665286e-08 -3.9007817809e-08 3.3448188663e-08 -6.3219743541e-01" charge=-1 multiplicity=1 method=b3lyp basis=def2-svpd config_type=oh_q-1_m1 sample_index=20 bond_length=1.600000 units=atomic
O         0.0000000000       0.0000000000       0.0000000000   5.947723836287e-11   7.891410282691e-13   9.014556786204e-02
H         0.0000000000       0.0000000000       1.6000000000  -5.946473751183e-11  -7.830348016336e-13  -9.014579919358e-02
2
Properties=species:S:1:pos:R:3:forces:R:3 energy=-7.563688093979e+01 dipole="-3.0681642546e-15 7.7808879956e-11 -3.1305706712e-01" quadrupole="-8.2452746338e+00 -1.2733252080e-13 7.3939792317e-14 -1.2733252080e-13 -8.2452746334e+00 -1.1834875439e-10 7.3939792317e-14 -1.1834875439e-10 -7.7997463340e+00" polarizability="2.0493191316e+01 6.3232698720e-13 -2.7421916890e-13 6.4140153242e-13 2.0493191314e+01 -5.6807229767e-10 2.4685449819e-09 6.0239826016e-08 3.8166935925e+01" dipole_derivatives="-8.9959950096e-01 9.3516481901e-12 9.6588494625e-12 -8.0692358035e-09 -8.9959949793e-01 -9.4750011129e-09 -8.4697672487e-08 -2.4920440711e-08 -3.6396721532e-01 -1.0039737687e-01 -1.1393315213e-14 9.9412897814e-12 8.0822177820e-09 -1.0039737989e-01 9.4711537663e-09 8.4683787760e-08 2.4920857045e-08 -6.3603367166e-01" charge=-1 multiplicity=1 method=b3lyp basis=def2-svpd config_type=oh_q-1_m1 sample_index=21 bond_length=1.650000 units=atomic
O         0.0000000000       0.0000000000       0.0000000000  -2.744696885566e-12  -1.668848943888e-14   8.561135534581e-02
H         0.0000000000       0.0000000000       1.6500000000   2.673976654680e-12  -8.849098940666e-16  -8.561150355189e-02
2
Properties=species:S:1:pos:R:3:forces:R:3 energy=-7.562900541263e+01 dipole="-1.1804976582e-14 9.4572785208e-15 -3.7325836598e-01" quadrupole="-8.2391648583e+00 2.8326963164e-14 -1.0847560566e-15 2.8326963164e-14 -8.2391648583e+00 5.8966490250e-14 -1.0847560566e-15 5.8966490250e-14 -8.0249559496e+00" polarizability="2.0496626649e+01 -3.3336789989e-13 -1.1532858853e-13 -3.3494373375e-13 2.0496626649e+01 -1.5333036408e-13 1.3498665923e-09 -1.4603255469e-09 3.9739309854e+01" dipole_derivatives="-8.8381368835e-01 4.3205934909e-11 4.2111890213e-12 -2.0765722895e-09 -8.8381370139e-01 -9.3295726349e-10 -9.1722198586e-07 5.7802811149e-08 -3.6205720115e-01 -1.1618368840e-01 1.7984889654e-15 4.4957813960e-13 2.0832698339e-09 -1.1618367534e-01 9.4359709961e-10 9.1722820311e-07 -5.7815169319e-08 -6.3794408764e-01" charge=-1 multiplicity=1 method=b3lyp basis=def2-svpd config_type=oh_q-1_m1 sample_index=22 bond_length=1.700000 units=atomic
O         0.0000000000       0.0000000000       0.0000000000  -9.688287395253e-15  -3.615066181942e-15   8.110024338584e-02
H         0.0000000000       0.0000000000       1.7000000000  -5.203434204422e-16   4.977680956199e-16  -8.110033519304e-02
2
Properties=species:S:1:pos:R:3:forces:R:3 energy=-7.562155246413e+01 dipole="-1.0590804142e-14 4.0263261545e-15 -4.3356340428e-01" quadrupole="-8.2318490618e+00 1.9078484352e-14 -1.7779204183e-14 1.9078484352e-14 -8.2318490618e+00 6.8629967902e-15 -1.7779204183e-14 6.8629967902e-15 -8.2611917353e+00" polarizability="2.0508356741e+01 -2.1521039564e-13 2.1388899331e-13 -2.1878227835e-13 2.0508356741e+01 -1.1350687915e-13 3.0241945134e-09 -3.5323514633e-09 4.1326301516e+01" dipole_derivatives="-8.6889877344e-01 -1.7379188398e-11 -4.0033989035e-10 -9.0136939891e-12 -8.6889877316e-01 -4.8439810142e-08 1.4255832625e-08 2.9678676183e-08 -3.6172191318e-01 -1.3109942613e-01 7.6629729760e-14 3.8968104236e-10 -3.7838045745e-14 -1.3109942638e-01 4.8468097924e-08 -1.4244369573e-08 -2.9667171497e-08 -6.3828001926e-01" charge=-1 multiplicity=1 method=b3lyp basis=def2-svpd config_type=oh_q-1_m1 sample_index=23 bond_length=1.750000 units=atomic
O         0.0000000000       0.0000000000       0.0000000000  -6.066217892212e-14  -3.776491519814e-15   7.667401125602e-02
H         0.0000000000       0.0000000000       1.7500000000   8.951116377595e-17   3.250423239173e-16  -7.667412094379e-02
2
Properties=species:S:1:pos:R:3:forces:R:3 energy=-7.561451211783e+01 dipole="2.0114639986e-14 2.8625383099e-14 -4.9383656968e-01" quadrupole="-8.2234877024e+00 -7.7819400114e-13 2.2903431969e-14 -7.7819400114e-13 -8.2234877024e+00 -3.9063715750e-15 2.2903431969e-14 -3.9063715750e-15 -8.5080011648e+00" polarizability="2.0527441008e+01 4.0999583632e-12 1.7713448881e-14 4.0970177919e-12 2.0527441009e+01 2.5842237812e-14 -6.4041526618e-09 -1.1511655235e-08 4.2927842330e+01" dipole_derivatives="-8.5482200480e-01 -1.6209077479e-11 9.8447323166e-12 1.7576078396e-11 -8.5482200446e-01 1.4540567677e-11 -1.5667134257e-08 -1.3250178038e-07 -3.6269358258e-01 -1.4517728140e-01 1.1671591597e-13 -2.0845182777e-13 2.6183267402e-14 -1.4517728168e-01 1.4950439824e-13 1.5665753417e-08 1.3251603981e-07 -6.3730733000e-01" charge=-1 multiplicity=1 method=b3lyp basis=def2-svpd config_type=oh_q-1_m1 sample_index=24 bond_length=1.800000 units=atomic
O         0.0000000000       0.0000000000       0.0000000000  -1.040905479211e-14  -5.131682255671e-14   7.237054398219e-02
H         0.0000000000       0.0000000000       1.8000000000   6.897244168564e-16  -1.743164402999e-15  -7.237079129738e-02
2
Properties=species:S:1:pos:R:3:forces:R:3 energy=-7.560787164747e+01 dipole="-4.0789427255e-16 -1.3633223719e-14 -5.5396373412e-01" quadrupole="-8.2142307917e+00 -1.0877695646e-13 -1.1523607247e-14 -1.0877695646e-13 -8.2142307917e+00 -3.4897378133e-14 -1.1523607247e-14 -3.4897378133e-14 -8.7649499521e+00" polarizability="2.0552901150e+01 6.3733583582e-13 -1.2997349214e-13 6.4055622696e-13 2.0552901150e+01 2.4508001075e-13 4.8187187966e-10 7.7773008255e-09 4.4543663257e+01" dipole_derivatives="-8.4154795925e-01 -2.2557537174e-09 -9.1112685624e-12 2.2164704226e-09 -8.4154795962e-01 4.5211538915e-12 7.4176914611e-08 -3.6328051678e-08 -3.6478198914e-01 -1.5845240840e-01 2.2122635493e-09 -2.0108789268e-13 -2.2120165450e-09 -1.5845240808e-01 -5.9024982931e-14 -7.4197169242e-08 3.6347896915e-08 -6.3521669898e-01" charge=-1 multiplicity=1 method=b3lyp basis=def2-svpd config_type=oh_q-1_m1 sample_index=25 bond_length=1.850000 units=atomic
O         0.0000000000       0.0000000000       0.0000000000   2.076490462779e-14  -1.022188587746e-14   6.821171231499e-02
H         0.0000000000       0.0000000000       1.8500000000  -9.161986156657e-16  -3.276181012662e-16  -6.821212744720e-02
2
Properties=species:S:1:pos:R:3:forces:R:3 energy=-7.560161677572e+01 dipole="1.0869068272e-14 1.9221739516e-14 -6.1384617034e-01" quadrupole="-8.2042215887e+00 1.8420814069e-13 1.1848726486e-14 1.8420814069e-13 -8.2042215887e+00 7.2645744151e-14 1.1848726486e-14 7.2645744151e-14 -9.0316105831e+00" polarizability="2.0583772132e+01 -1.2684821287e-12 -3.6537853921e-14 -1.2627742757e-12 2.0583772132e+01 -3.7742381693e-13 -8.2590867700e-09 -2.7949088696e-08 4.6173264176e+01" dipole_derivatives="-8.2904071002e-01 3.7392962425e-11 3.4368911447e-12 -2.4553350840e-11 -8.2904070958e-01 1.1898542258e-11 9.4946273066e-09 -2.4999932680e-08 -3.6785194046e-01 -1.7096077269e-01 1.2346850880e-13 -7.9211884216e-14 -2.9020608846e-14 -1.7096077302e-01 5.6723353821e-15 -9.4969726527e-09 2.5010549187e-08 -6.3214633364e-01" charge=-1 multiplicity=1 method=b3lyp basis=def2-svpd config_type=oh_q-1_m1 sample_index=26 bond_length=1.900000 units=atomic
O         0.0000000000       0.0000000000       0.0000000000   5.455084950783e-16  -1.821161282386e-14   6.420933797485e-02
H         0.0000000000       0.0000000000       1.9000000000  -2.181695966558e-15  -1.235708203245e-15  -6.420997446138e-02
2
Properties=species:S:1:pos:R:3:forces:R:3 energy=-7.559573239881e+01 dipole="-6.2675351797e-15 7.1210936336e-15 -6.7339638855e-01" quadrupole="-8.1935978718e+00 1.4626845412e-12 4.5280937632e-15 1.4626845412e-12 -8.1935978718e+00 -4.9308450001e-14 4.5280937632e-15 -4.9308450001e-14 -9.3075579746e+00" polarizability="2.0619133354e+01 -7.4378845167e-12 9.9026081529e-14 -7.4387945022e-12 2.0619133354e+01 1.8950546313e-13 1.3607114725e-08 -1.5792498791e-09 4.7815953609e+01" dipole_derivatives="-8.1726491180e-01 5.6235293611e-08 2.3161332902e-11 1.1941661702e-11 -8.1726493011e-01 2.5497713161e-11 -1.2948791345e-08 -1.4601940837e-07 -3.7179998026e-01 -1.8273752358e-01 -5.6223589457e-08 1.3383497579e-13 -1.0258267176e-13 -1.8273750530e-01 -1.5492660231e-14 1.2955473500e-08 1.4600130133e-07 -6.2819918313e-01" charge=-1 multiplicity=1 method=b3lyp basis=def2-svpd config_type=oh_q-1_m1 sample_index=27 bond_length=1.950000 units=atomic
O         0.0000000000       0.0000000000       0.0000000000   6.413970373539e-15   1.802884484055e-14   6.036981942058e-02
H         0.0000000000       0.0000000000       1.9500000000   2.996774850093e-16  -3.900729870375e-16  -6.037071110999e-02
2
Properties=species:S:1:pos:R:3:forces:R:3 energy=-7.559020294602e+01 dipole="5.4152769719e-15 8.1342454355e-15 -7.3253582070e-01" quadrupole="-8.1824914707e+00 2.1815029730e-13 -3.1605043869e-15 2.1815029730e-13 -8.1824914707e+00 2.5568009775e-14 -3.1605043869e-15 2.5568009775e-14 -9.5923717758e+00" polarizability="2.0658127188e+01 -1.1958973446e-12 4.9270278063e-14 -1.1972022897e-12 2.0658127188e+01 -6.1829452104e-14 -1.3697190561e-08 -5.1932582721e-09 4.9470918421e+01" dipole_derivatives="-8.0618660132e-01 -1.1811885868e-07 2.2128866349e-11 -6.9414170210e-12 -8.0618664492e-01 2.1694822044e-11 5.6412999272e-09 6.8935288033e-08 -3.7653340674e-01 -1.9381671788e-01 1.1811665423e-07 1.3482677329e-13 9.3981287789e-14 -1.9381667432e-01 -1.0164818260e-13 -5.6288654293e-09 -6.8929396912e-08 -6.2346533278e-01" charge=-1 multiplicity=1 method=b3lyp basis=def2-svpd config_type=oh_q-1_m1 sample_index=28 bond_length=2.000000 units=atomic
O         0.0000000000       0.0000000000       0.0000000000   1.752160126116e-14   6.300106765540e-16   5.669703298630e-02
H         0.0000000000       0.0000000000       2.0000000000   3.390873593977e-17   2.781170631185e-16  -5.669816138388e-02
2
Properties=species:S:1:pos:R:3:forces:R:3 energy=-7.558501253383e+01 dipole="-4.7188373178e-14 -1.5208916998e-14 -7.9119444264e-01" quadrupole="-8.1710263785e+00 1.9071347828e-14 -1.9513263812e-15 1.9071347828e-14 -8.1710263785e+00 -6.0079182713e-14 -1.9513263812e-15 -6.0079182713e-14 -9.8856457383e+00" polarizability="2.0699964524e+01 -1.9714837319e-13 2.9899309790e-13 -2.0002028955e-13 2.0699964524e+01 2.7892478273e-13 1.0529234816e-07 4.3704629711e-08 5.1137309459e+01" dipole_derivatives="-7.9577227784e-01 -4.1625478548e-13 -7.7679853530e-12 -6.8959310241e-07 -7.9577265503e-01 -8.0918473957e-12 -3.6568290063e-08 -2.8076048431e-08 -3.8196028915e-01 -2.0423175424e-01 -9.3108159712e-14 2.8174656512e-12 6.8963601709e-07 -2.0423137705e-01 8.9577636043e-14 3.6562201183e-08 2.8079094605e-08 -6.1803646066e-01" charge=-1 multiplicity=1 method=b3lyp basis=def2-svpd config_type=oh_q-1_m1 sample_index=29 bond_length=2.050000 units=atomic
O         0.0000000000       0.0000000000       0.0000000000   5.399743961356e-14  -2.564849773988e-14   5.319373728948e-02
H         0.0000000000       0.0000000000       2.0500000000   4.187216335970e-16   1.050467828107e-15  -5.319507671410e-02
2
Properties=species:S:1:pos:R:3:forces:R:3 energy=-7.558014505182e+01 dipole="1.4101139282e-14 -1.4738028980e-14 -8.4931123389e-01" quadrupole="-8.1593163587e+00 1.3370671875e-15 1.7195737977e-14 1.3370671875e-15 -8.1593163587e+00 -1.2161003393e-14 1.7195737977e-14 -1.2161003393e-14 -1.0186999268e+01" polarizability="2.0743923503e+01 9.2230676644e-15 -5.3877243203e-14 1.2023202844e-14 2.0743923503e+01 1.5845071217e-13 -2.4555350030e-08 5.6875408650e-08 5.2814341556e+01" dipole_derivatives="-6.8916924341e-01 6.6481083501e-08 2.0601266289e-11 9.2166497336e-11 -7.3758024559e-01 1.1286660361e-11 -8.2958119541e-09 -7.3645503683e+00 -3.8798263107e-01 -3.1083436487e-01 -6.6470343283e-08 -1.1317029700e-13 -1.1947411450e-10 -2.6242387116e-01 -1.2363797765e-13 8.2956592984e-09 7.3646694803e+00 -6.1201221115e-01" charge=-1 multiplicity=1 method=b3lyp basis=def2-svpd config_type=oh_q-1_m1 sample_index=30 bond_length=2.100000 units=atomic
O         0.0000000000       0.0000000000       0.0000000000   1.402910304639e-14   1.184534570257e-14   4.986229946348e-02
H         0.0000000000       0.0000000000       2.1000000000   2.076263812992e-16   4.681176236982e-16  -4.986367121462e-02
2
Properties=species:S:1:pos:R:3:forces:R:3 energy=-7.557558419328e+01 dipole="-1.0758416460e-14 6.0376670312e-15 -9.0683491606e-01" quadrupole="-8.1474627997e+00 2.6249063476e-14 5.2270750044e-14 2.6249063476e-14 -8.1474627997e+00 7.6451747326e-14 5.2270750044e-14 7.6451747326e-14 -1.0496088646e+01" polarizability="2.0789344178e+01 -1.1402968810e-13 -8.7422732038e-14 -1.1496121705e-13 2.0789344178e+01 -2.7297895678e-13 5.6410540939e-08 -3.6942583354e-08 5.4501372390e+01" dipole_derivatives="-7.7681075370e-01 7.0203221448e-09 3.5504062364e-12 -4.3575174924e-07 -7.7681107647e-01 1.5023927524e-11 -1.5382640647e-07 6.8260456315e-08 -3.9449561154e-01 -2.2319428262e-01 -7.0236860506e-09 -1.5404910900e-13 4.3580820760e-07 -2.2319395984e-01 -3.9278903640e-13 1.5380970109e-07 -6.8234876083e-08 -6.0550005628e-01" charge=-1 multiplicity=1 method=b3lyp basis=def2-svpd config_type=oh_q-1_m1 sample_index=31 bond_length=2.150000 units=atomic
O         0.0000000000       0.0000000000       0.0000000000   3.912627685824e-14  -8.647486947568e-16   4.670411449663e-02
H         0.0000000000       0.0000000000       2.1500000000   6.207405388375e-16  -1.190986023233e-16  -4.670544121885e-02
2
Properties=species:S:1:pos:R:3:forces:R:3 energy=-7.557131356809e+01 dipole="-1.0354267314e-14 3.6142278294e-14 -9.6372488441e-01" quadrupole="-8.1355534398e+00 -8.1761797123e-15 -6.1339768072e-15 -8.1761797123e-15 -8.1355534398e+00 1.3705251774e-13 -6.1339768072e-15 1.3705251774e-13 -1.0812617055e+01" polarizability="2.0835622521e+01 1.4133786463e-13 -3.5379730132e-14 1.3836806163e-13 2.0835622521e+01 -2.3850321612e-13 3.2673595637e-08 -2.1857122593e-07 5.6197976727e+01" dipole_derivatives="-7.6819924296e-01 3.6508047436e-07 1.8707292049e-11 -2.1376725464e-11 -7.6819897281e-01 4.4004266482e-11 1.0506439468e-08 -4.0746377106e-07 -4.0138650789e-01 -2.3180585895e-01 -3.6516429221e-07 5.2209164375e-12 3.9410927531e-14 -2.3180612911e-01 -1.3955109293e-11 -1.0516754134e-08 4.0747757946e-07 -5.9861121802e-01" charge=-1 multiplicity=1 method=b3lyp basis=def2-svpd config_type=oh_q-1_m1 sample_index=32 bond_length=2.200000 units=atomic
O         0.0000000000       0.0000000000       0.0000000000  -9.532183848823e-15   1.180508042989e-14   4.371956342991e-02
H         0.0000000000       0.0000000000       2.2000000000   1.103645181957e-15   3.206963162483e-15  -4.372073612680e-02
2
Properties=species:S:1:pos:R:3:forces:R:3 energy=-7.556731681887e+01 dipole="4.8535967432e-14 9.5820658697e-14 -1.0199503382e+00" quadrupole="-8.1236618557e+00 -6.2135733514e-15 -9.0848276261e-15 -6.2135733514e-15 -8.1236618557e+00 -1.1922689870e-13 -9.0848276261e-15 -1.1922689870e-13 -1.1136335536e+01" polarizability="2.0882205014e+01 5.1765461929e-14 -1.1658378823e-13 5.5042689909e-14 2.0882205014e+01 -2.4225531609e-13 -3.5409004303e-07 -8.7531556502e-07 5.7903959965e+01" dipole_derivatives="-6.5277001974e-01 -2.3142177727e-07 -4.1838157917e-08 -7.9904239460e-11 -7.0644866067e-01 1.0852301265e-07 4.5153221440e-09 6.9406797338e+00 -7.2393907782e+00 -3.4723413273e-01 2.3143076087e-07 4.1868708939e-08 8.0654822725e-11 -2.9355584124e-01 -1.0846041601e-07 -4.5317603836e-09 -6.9407841168e+00 6.2394957652e+00" charge=-1 multiplicity=1 method=b3lyp basis=def2-svpd config_type=oh_q-1_m1 sample_index=33 bond_length=2.250000 units=atomic
O         0.0000000000       0.0000000000       0.0000000000   4.286794544723e-14  -3.000320841114e-14   4.090741397465e-02
H         0.0000000000       0.0000000000       2.2500000000  -6.212897310258e-15  -3.045759106758e-15  -4.090831960541e-02
2
Properties=species:S:1:pos:R:3:forces:R:3 energy=-7.557719172808e+01 dipole="-3.6081697526e-12 1.8615129008e-08 -1.5517086432e+00" quadrupole="-8.0417392850e+00 7.3713475386e-03 7.3012669478e-11 7.3713475386e-03 -7.4523151368e+00 2.4138473304e-08 7.3012669478e-11 2.4138473304e-08 -1.4319032363e+01" polarizability="2.1358971699e+01 -1.7740841111e-02 -3.6357035297e-10 -1.7744574255e-02 1.9940285433e+01 1.4258473858e-08 -1.2169785348e-08 -5.4834624257e-06 6.7918642161e+01" dipole_derivatives="-6.9777792035e-01 4.8819629886e-12 4.1945482323e-09 2.4355365934e-07 -6.4299296567e-01 1.3738389583e-07 6.6979557094e+00 -4.1143755070e-09 -7.0136161091e+00 -3.0222612245e-01 -1.4442296823e-11 -4.2286432299e-09 -2.4357015174e-07 -3.5701093094e-01 -1.3738784677e-07 -6.6980733968e+00 4.1099242065e-09 6.0137360566e+00" charge=-1 multiplicity=1 method=b3lyp basis=def2-svpd config_type=oh_q-1_m1 sample_index=34 bond_length=2.300000 units=atomic
O         0.0000000000       0.0000000000       0.0000000000  -1.711511524069e-11  -1.182482053031e-09   2.486850930161e-02
H         0.0000000000       0.0000000000       2.3000000000   1.707965828675e-11   1.182443629425e-09  -2.486889099715e-02
2
Properties=species:S:1:pos:R:3:forces:R:3 energy=-7.556008070137e+01 dipole="-4.4613857053e-10 -2.8433041338e-10 -1.6246347834e+00" quadrupole="-7.6131131726e+00 -2.8482324722e-01 -1.0736203385e-09 -2.8482324722e-01 -7.8304008190e+00 -4.1549842039e-10 -1.0736203385e-09 -4.1549842039e-10 -1.4800514340e+01" polarizability="2.0417204588e+01 6.7507412525e-01 2.7062892205e-10 6.7507423731e-01 2.0932210386e+01 -1.3892518157e-08 5.0312374489e-08 1.8368601751e-08 6.9537201293e+01" dipole_derivatives="-6.8982124776e-01 -1.1863464931e-08 -6.0518576221e-08 -1.3381200018e-08 -6.3416674730e-01 8.2967817220e-08 -6.4299589345e+00 3.6631774003e-09 6.0981323582e+00 -3.1018205176e-01 1.1856710101e-08 6.0508812778e-08 1.3368526344e-08 -3.6583661691e-01 -8.2930247815e-08 6.4300500370e+00 -3.6516206725e-09 -7.0982153352e+00" charge=-1 multiplicity=1 method=b3lyp basis=def2-svpd config_type=oh_q-1_m1 sample_index=35 bond_length=2.350000 units=atomic
O         0.0000000000       0.0000000000       0.0000000000  -2.250975834044e-09   6.993305640167e-10   3.578584058962e-02
H         0.0000000000       0.0000000000       2.3500000000   2.251040681044e-09  -6.993525824117e-10  -3.578602120009e-02
2
Properties=species:S:1:pos:R:3:forces:R:3 energy=-7.555681034395e+01 dipole="7.8759523250e-10 1.7496569338e-09 -1.1844847347e+00" quadrupole="-8.0886364638e+00 -1.2187565419e-11 -1.2589830359e-09 -1.2187565419e-11 -8.0886364628e+00 -2.2780421004e-09 -1.2589830359e-09 -2.2780421004e-09 -1.2148920549e+01" polarizability="2.1018945658e+01 7.6664512632e-11 -4.7716320642e-10 7.6658951680e-11 2.1018945651e+01 -1.7920054890e-09 -1.0839274476e-08 -2.0448309958e-08 6.3079595410e+01" dipole_derivatives="-6.2618230039e-01 1.1575416426e-09 -6.1747549598e-08 1.3948904164e-09 -6.2618230023e-01 -1.2321021870e-08 -1.3306543367e-10 -2.1530100619e-08 -6.4930371201e+00 -3.7382024086e-01 -1.1743455982e-09 6.1702015580e-08 -1.4196401479e-09 -3.7382024103e-01 1.2321712434e-08 1.2248188574e-10 2.1537027370e-08 5.4930822704e+00" charge=-1 multiplicity=1 method=b3lyp basis=def2-svpd config_type=oh_q-1_m1 sample_index=36 bond_length=2.400000 units=atomic
O         0.0000000000       0.0000000000       0.0000000000   2.495368800778e-10   7.781707236582e-11   3.346482963611e-02
H         0.0000000000       0.0000000000       2.4000000000  -2.495613810575e-10  -7.782173982758e-11  -3.346456916249e-02
2
Properties=species:S:1:pos:R:3:forces:R:3 energy=-7.557092969983e+01 dipole="7.3569735534e-09 2.1268793451e-09 -1.2379398767e+00" quadrupole="-8.0773044556e+00 2.2082553034e-11 -1.0955619308e-08 2.2082553034e-11 -8.0773044580e+00 -3.4329514606e-09 -1.0955619308e-08 -3.4329514606e-09 -1.2499910340e+01" polarizability="2.1062134798e+01 -1.6423673255e-10 -4.2829494061e-09 -1.6424628047e-10 2.1062134816e+01 6.9375424525e-09 -8.8089486999e-08 -2.1507679408e-08 6.4825448177e+01" dipole_derivatives="-6.1894507590e-01 1.4192968993e-09 -4.5336495221e-08 -4.7167912447e-10 -6.1894507550e-01 4.5035281317e-07 -4.0186656086e-09 9.5713870857e-09 -2.8130280702e-01 -3.8105651634e-01 -1.4332940577e-09 4.5340217020e-08 4.8739462606e-10 -3.8105651666e-01 -4.5030964583e-07 4.0424434633e-09 -9.5485355733e-09 -7.1869649666e-01" charge=-1 multiplicity=1 method=b3lyp basis=def2-svpd config_type=oh_q-1_m1 sample_index=37 bond_length=2.450000 units=atomic
O         0.0000000000       0.0000000000       0.0000000000   1.565390048632e-11  -2.590638529981e-12   1.957865942450e-02
H         0.0000000000       0.0000000000       2.4500000000  -1.563850154367e-11   2.598534280795e-12  -1.957804706720e-02
2
Properties=species:S:1:pos:R:3:forces:R:3 energy=-7.556914938573e+01 dipole="7.0082831352e-10 -7.9156961541e-10 -1.8312830104e+00" quadrupole="-7.9834448179e+00 4.0560637529e-04 -1.4256128510e-10 4.0560637529e-04 -7.3248111519e+00 3.5239094004e-09 -1.4256128510e-10 3.5239094004e-09 -1.6249943141e+01" polarizability="2.1496494279e+01 -9.2328103286e-04 5.4571759691e-09 -9.2360623255e-04 1.9996932479e+01 3.9908926941e-08 1.6560755463e-07 1.3653611645e-06 7.4572825554e+01" dipole_derivatives="-6.6958538560e-01 -8.3747973416e-08 1.2311853566e-06 -1.2696412699e-07 -6.6958538421e-01 6.4283497169e-08 -5.5666758352e+00 5.5666761712e+00 -2.9918899844e-01 -3.3041455409e-01 8.3745435407e-08 -1.2310832741e-06 1.2695109914e-07 -3.3041455552e-01 -6.4236320749e-08 5.5666946661e+00 -5.5666950021e+00 -7.0081095775e-01" charge=-1 multiplicity=1 method=b3lyp basis=def2-svpd config_type=oh_q-1_m1 sample_index=38 bond_length=2.500000 units=atomic
O         0.0000000000       0.0000000000       0.0000000000   2.205949790699e-11  -4.479578346214e-11   1.812937758883e-02
H         0.0000000000       0.0000000000       2.5000000000  -2.208097076136e-11   4.481398203976e-11  -1.812840195808e-02
2
Properties=species:S:1:pos:R:3:forces:R:3 energy=-7.556455133547e+01 dipole="-2.8151214693e-10 3.7262225202e-09 -2.0233106493e+00" quadrupole="-7.2497420355e+00 1.5438679517e-02 1.5174955459e-09 1.5438679517e-02 -7.9440211816e+00 -5.7877089395e-09 1.5174955459e-09 -5.7877089395e-09 -1.7722099641e+01" polarizability="2.0044637164e+01 -3.3994778039e-02 6.2071311979e-09 -3.3991714104e-02 2.1573388270e+01 2.2229205160e-08 8.3551653274e-07 -2.4006496363e-06 7.9857850900e+01" dipole_derivatives="-7.1143046305e-01 3.1998746158e-08 3.2734256693e-06 4.2466998574e-07 -7.1142754720e-01 -2.6571181257e-08 2.2939511575e-07 4.7077113041e-07 4.3229792007e+00 -2.8856581691e-01 -3.1993030803e-08 -3.2730517271e-06 -4.2463050848e-07 -2.8856873253e-01 2.6545957063e-08 -2.2940901435e-07 -4.7079324467e-07 -5.3229171021e+00" charge=-1 multiplicity=1 method=b3lyp basis=def2-svpd config_type=oh_q-1_m1 sample_index=39 bond_length=2.650000 units=atomic
O         0.0000000000       0.0000000000       0.0000000000  -9.526421846317e-09  -2.726854799549e-10   1.446876608975e-02
H         0.0000000000       0.0000000000       2.6500000000   9.525313990631e-09   2.726362176903e-10  -1.446740749815e-02
2
Properties=species:S:1:pos:R:3:forces:R:3 energy=-7.556087460265e+01 dipole="2.8636019889e-10 1.4166463233e-10 -1.0585928010e+00" quadrupole="-6.5832231356e+00 -3.0535202461e-05 -1.5411078455e-08 -3.0535202461e-05 -8.1306709647e+00 7.3493560050e-11 -1.5411078455e-08 7.3493560050e-11 -1.4408787044e+01" polarizability="1.6573970262e+01 8.4805540515e-05 7.9213881442e-08 8.2522123767e-05 2.0907740695e+01 -7.8638087900e-09 1.1114158367e-07 -4.1342873147e-09 1.0625836510e+02" dipole_derivatives="-6.4107652332e-01 -2.9118706290e-08 -3.6609234607e-07 5.9108903448e-08 -5.8342005384e-01 -8.8771821951e-09 -3.9759182857e+00 -2.2007664614e-07 -4.4081274383e+00 -3.5892075421e-01 2.9157562653e-08 3.6605596782e-07 -5.9114477825e-08 -4.1657835369e-01 8.8792810667e-09 3.9758069400e+00 2.2006567055e-07 3.4079304750e+00" charge=-1 multiplicity=1 method=b3lyp basis=def2-svpd config_type=oh_q-1_m1 sample_index=40 bond_length=2.800000 units=atomic
O         0.0000000000       0.0000000000       0.0000000000  -2.108368020393e-09   4.805108515774e-11   1.158250340559e-02
H         0.0000000000       0.0000000000       2.8000000000   2.108086193449e-09  -4.806114786849e-11  -1.158145832887e-02
2
Properties=species:S:1:pos:R:3:forces:R:3 energy=-7.558186929875e+01 dipole="-7.2822469638e-11 -1.4648777135e-10 -1.1103904936e+00" quadrupole="-7.3751421914e+00 7.7368295315e-01 3.0697504066e-08 7.7368295315e-01 -7.3202508889e+00 3.1777332691e-08 3.0697504066e-08 3.1777332691e-08 -1.5214674504e+01" polarizability="1.8777599680e+01 -2.3200957279e+00 3.5451086197e-07 -2.3200958786e+00 1.8612955934e+01 -6.3021688500e-07 -1.7797108844e-07 -1.2251609023e-07 1.3356080980e+02" dipole_derivatives="-6.8825549579e-01 -1.7482440037e-11 -1.2495067334e-07 7.8312074407e-10 -8.1044572968e-01 1.5244465558e-09 -2.2894328523e+00 1.7593418042e-09 -8.8050414735e-01 -3.1174315626e-01 1.7502009886e-11 1.2501329310e-07 -7.9937482140e-10 -1.8955331877e-01 -1.5293398567e-09 2.2894188825e+00 -1.7718179354e-09 -1.1952740307e-01" charge=-1 multiplicity=1 method=b3lyp basis=def2-svpd config_type=oh_q-1_m1 sample_index=42 bond_length=3.100000 units=atomic
O         0.0000000000       0.0000000000       0.0000000000  -9.115436995192e-12  -8.042017427474e-12   2.785036658040e-03
H         0.0000000000       0.0000000000       3.1000000000   9.133409936552e-12   7.989551415592e-12  -2.785403832922e-03
2
Properties=species:S:1:pos:R:3:forces:R:3 energy=-7.558116098649e+01 dipole="9.8274101334e-10 -3.0630039779e-10 -1.1484408975e+00" quadrupole="-8.1156235400e+00 -7.0323595262e-03 -3.1544614897e-09 -7.0323595262e-03 -6.5681822249e+00 6.3764862043e-07 -3.1544614897e-09 6.3764862043e-07 -1.5719972510e+01" polarizability="2.1050652673e+01 2.1238849056e-02 -3.0100617074e-07 2.1241496422e-02 1.6370359404e+01 -2.7581529562e-06 -6.1078552039e-08 -4.0798280657e-06 1.4825920153e+02" dipole_derivatives="-6.1597964524e-01 -2.5319401953e-11 6.3580535001e-09 -4.6648921265e-07 -8.1299759345e-01 1.6143325406e-09 -2.2956135977e+00 -5.5379581129e-09 -8.5169183568e-01 -3.8401630050e-01 3.4105644689e-12 -6.3249897153e-09 4.6651597455e-07 -1.8700204937e-01 -1.5651922918e-09 2.2955044742e+00 5.5600775720e-09 -1.4828330548e-01" charge=-1 multiplicity=1 method=b3lyp basis=def2-svpd config_type=oh_q-1_m1 sample_index=43 bond_length=3.250000 units=atomic
O         0.0000000000       0.0000000000       0.0000000000  -1.994377093167e-11  -9.306674487260e-11   2.224381196496e-03
H         0.0000000000       0.0000000000       3.2500000000   1.994900025559e-11   9.306873113098e-11  -2.224489513850e-03
2
Properties=species:S:1:pos:R:3:forces:R:3 energy=-7.558060169741e+01 dipole="-1.1332443298e-10 2.8526968310e-10 -1.1945858708e+00" quadrupole="-7.3287077684e+00 -7.7290616296e-01 -7.8717048918e-08 -7.7290616296e-01 -7.3420458534e+00 7.8001738348e-08 -7.8717048918e-08 7.8001738348e-08 -1.6301813432e+01" polarizability="1.8701133998e+01 2.3484087031e+00 5.9257699225e-07 2.3484087026e+00 1.8741740100e+01 -4.6567676550e-08 1.6789815975e-07 -1.7841800238e-07 1.6329962697e+02" dipole_derivatives="-6.8461048239e-01 -8.6824149577e-09 -2.0110306260e-09 1.8889439037e-08 -8.1406375451e-01 -1.8359984366e-08 1.4178406332e+00 -9.0640984302e-09 -8.2397235004e-01 -3.1538564976e-01 4.3237154667e-09 2.0086603166e-09 -2.3111865504e-08 -1.8593439652e-01 1.8350940128e-08 -1.4173492800e+00 8.7493493353e-09 -1.7604007790e-01" charge=-1 multiplicity=1 method=b3lyp basis=def2-svpd config_type=oh_q-1_m1 sample_index=44 bond_length=3.400000 units=atomic
O         0.0000000000       0.0000000000       0.0000000000  -1.463843334721e-11  -3.644427098538e-12   1.733255802660e-03
H         0.0000000000       0.0000000000       3.4000000000   1.464533798033e-11   3.626749398956e-12  -1.734712165595e-03
2
Properties=species:S:1:pos:R:3:forces:R:3 energy=-7.558017186415e+01 dipole="3.8956103629e-10 -1.8758341572e-09 -1.2483259454e+00" quadrupole="-8.0900609566e+00 1.2368963622e-01 -4.8277707151e-08 1.2368963622e-01 -6.5664451037e+00 -5.9858715911e-07 -4.8277707151e-08 -5.9858715911e-07 -1.6963522018e+01" polarizability="2.1045213090e+01 -3.7669755235e-01 1.5383615922e-07 -3.7669668137e-01 1.6405078431e+01 2.2482218794e-06 2.7886267272e-07 5.1458162154e-07 1.7838227155e+02" dipole_derivatives="-8.1390959766e-01 5.6143291272e-08 -1.9453030606e-07 8.7195576358e-09 -8.1390965144e-01 1.4684875112e-07 3.8815842901e-09 1.7846915785e-08 -7.9851262087e-01 -1.8608900683e-01 -5.6117875187e-08 1.9455870235e-07 -8.7264897091e-09 -1.8608895306e-01 -1.4679003960e-07 -3.8377599709e-09 -1.7830330094e-08 -2.0150211990e-01" charge=-1 multiplicity=1 method=b3lyp basis=def2-svpd config_type=oh_q-1_m1 sample_index=45 bond_length=3.550000 units=atomic
O         0.0000000000       0.0000000000       0.0000000000  -1.322515117422e-10  -1.380950544484e-10   1.309334784323e-03
H         0.0000000000       0.0000000000       3.5500000000   1.322652704575e-10   1.380825858659e-10  -1.310028645551e-03
2
Properties=species:S:1:pos:R:3:forces:R:3 energy=-7.557942794062e+01 dipole="3.8047079916e-09 -1.7378243794e-09 -1.6799515913e+00" quadrupole="-7.2979007050e+00 -7.6188491468e-01 1.8644695841e-06 -7.6188491468e-01 -7.2674069396e+00 -1.9157795654e-06 1.8644695841e-06 -1.9157795654e-06 -2.2550906253e+01" polarizability="1.8698106913e+01 2.3043583065e+00 -6.8296954355e-06 2.3043583124e+00 1.8606171368e+01 5.7285644895e-06 -6.1798563442e-06 6.7773888825e-06 2.6433674872e+02" dipole_derivatives="-5.8923551760e-01 2.6040133730e-08 1.3309648365e-08 -1.1698356214e-07 -6.6932199104e-01 -2.0853120627e-08 -5.1630462269e-01 -3.3347411584e-01 -7.1259667721e-01 -4.1077412048e-01 -2.5765834484e-08 -1.3297987437e-08 9.9204002902e-08 -3.3068303832e-01 2.0850090897e-08 5.1621991348e-01 3.3321155102e-01 -2.8746382542e-01" charge=-1 multiplicity=1 method=b3lyp basis=def2-svpd config_type=oh_q-1_m1 sample_index=51 bond_length=4.450000 units=atomic
O         0.0000000000       0.0000000000       0.0000000000  -3.709780767157e-11   4.023827546523e-11  -1.832662235911e-04
H         0.0000000000       0.0000000000       4.4500000000   3.707409576634e-11  -4.025588899021e-11   1.837090774239e-04
2
Properties=species:S:1:pos:R:3:forces:R:3 energy=-7.558005372842e+01 dipole="2.3686022245e-09 -7.7604758406e-10 -2.1075595933e+00" quadrupole="-7.2505392243e+00 -7.5445151667e-01 -9.4624875333e-07 -7.5445151667e-01 -7.2516761774e+00 9.1744919694e-07 -9.4624875333e-07 9.1744919694e-07 -2.9071885198e+01" polarizability="1.8610062133e+01 2.2358896612e+00 2.8183684919e-06 2.2358896632e+00 1.8613450221e+01 -2.9257238351e-06 2.8911723591e-06 -3.0140344199e-06 3.3425022122e+02" dipole_derivatives="-7.8552029064e-01 -1.7153275179e-09 1.4994159761e-08 2.6481178651e-08 -7.8552017606e-01 -1.0161034586e-08 1.3864955408e-08 -2.3917749292e-09 -6.8767679281e-01 -2.1447526412e-01 1.1269151617e-09 -1.5074411240e-08 -9.9508645493e-09 -2.1447537947e-01 1.0232249335e-08 -1.3013394453e-08 2.3903322355e-09 -3.1259877917e-01" charge=-1 multiplicity=1 method=b3lyp basis=def2-svpd config_type=oh_q-1_m1 sample_index=56 bond_length=5.200000 units=atomic
O         0.0000000000       0.0000000000       0.0000000000   3.982182734403e-12   3.676138870299e-12  -6.247589707981e-04
H         0.0000000000       0.0000000000       5.2000000000  -4.006179377457e-12  -3.717229610863e-12   6.242230835337e-04
