2
Properties=species:S:1:pos:R:3:forces:R:3 energy=-7.532515064954e+01 dipole="1.0939806902e-14 -9.9002282399e-15 5.5077282258e-01" quadrupole="-3.8365824100e+00 -1.1286009850e-02 -2.9682302031e-15 -1.1286009850e-02 -4.8116088127e+00 -2.4846635332e-15 -2.9682302031e-15 -2.4846635332e-15 -3.6926899306e+00" polarizability="5.6871925266e+00 9.5407076232e-03 -3.3987773104e-14 9.5406318962e-03 6.5113906779e+00 1.1000246100e-14 -2.3435709105e-14 -2.5612192909e-15 5.0113105277e+00" dipole_derivatives="-4.8576291701e-01 1.2381516880e-11 -4.3124259209e-12 -2.5401207737e-11 -4.8576291727e-01 8.6396238970e-12 -2.9554136916e-10 -1.5158985178e-09 -1.6316839507e-01 4.8576460731e-01 -5.6948399563e-13 3.2900375154e-14 -7.8140977971e-14 4.8576460757e-01 -3.1318499337e-13 2.8743674108e-10 1.5277779042e-09 1.6316814622e-01" charge=0 multiplicity=2 method=b3lyp basis=def2-svpd config_type=oh_q0_m2 sample_index=0 bond_length=0.600000 units=atomic
O         0.0000000000       0.0000000000       0.0000000000  -4.379982971614e-15   3.104682959762e-14  -1.630108250239e+00
H         0.0000000000       0.0000000000       0.6000000000  -4.082332928498e-16  -1.709836693186e-15   1.630109298998e+00
2
Properties=species:S:1:pos:R:3:forces:R:3 energy=-7.554163131323e+01 dipole="1.6466822786e-14 1.7652058663e-13 5.8177026844e-01" quadrupole="-4.8921341331e+00 1.6849031206e-01 -8.1176857576e-15 1.6849031206e-01 -3.9531222298e+00 -1.2141651769e-15 -8.1176857576e-15 -1.2141651769e-15 -3.6490153419e+00" polarizability="6.7818502033e+00 -1.7516731332e-01 7.7919620493e-13 -1.7516775037e-01 5.8057644387e+00 4.1419780088e-12 -6.7926341832e-16 1.8510805921e-13 5.7574888787e+00" dipole_derivatives="-4.3980057636e-01 3.8223353264e-11 1.4858216348e-11 -9.0193800645e-12 -4.3980057632e-01 2.1033947841e-11 -1.9298562748e-08 -1.3585799152e-08 -1.6367263498e-01 4.3980237386e-01 -7.9495954621e-13 -6.6067476850e-12 -4.8973706207e-13 4.3980237383e-01 -3.3064443127e-11 1.9298895815e-08 1.3583523195e-08 1.6382323277e-01" charge=0 multiplicity=2 method=b3lyp basis=def2-svpd config_type=oh_q0_m2 sample_index=2 bond_length=0.700000 units=atomic
O         0.0000000000       0.0000000000       0.0000000000   1.953676406615e-14   2.375761707489e-14  -7.605544301635e-01
H         0.0000000000       0.0000000000       0.7000000000   7.445928229017e-16  -7.358849847663e-16   7.605539438926e-01
2
Properties=species:S:1:pos:R:3:forces:R:3 energy=-7.566305821723e+01 dipole="-1.3972147087e-14 -9.1048249888e-15 6.2689521792e-01" quadrupole="-5.0729608594e+00 -5.6918130208e-02 -1.2371975815e-14 -5.6918130208e-02 -4.0549221658e+00 1.4092943306e-14 -1.2371975815e-14 1.4092943306e-14 -3.4941124271e+00" polarizability="7.2370259694e+00 7.1753410525e-02 -1.7361142406e-13 7.1753831070e-02 5.9537240660e+00 2.5945933504e-12 5.9854866676e-13 -1.7910599450e-13 7.2003616400e+00" dipole_derivatives="-3.9028218494e-01 1.5552482621e-12 -1.9894566734e-11 8.0882519248e-12 -3.9028218518e-01 1.3127733717e-11 9.9475871984e-08 4.0445702343e-08 -1.5190563176e-01 3.9028181913e-01 4.0824187225e-13 -3.6235013075e-13 -2.7895292526e-14 3.9028181935e-01 9.3834655018e-13 -9.9473790316e-08 -4.0439734894e-08 1.5189984348e-01" charge=0 multiplicity=2 method=b3lyp basis=def2-svpd config_type=oh_q0_m2 sample_index=5 bond_length=0.850000 units=atomic
O         0.0000000000       0.0000000000       0.0000000000   3.223268046306e-14   3.624077281189e-14  -1.902355073573e-01
H         0.0000000000       0.0000000000       0.8500000000   2.852735240108e-16  -1.126749238851e-15   1.902348499772e-01
2
Properties=species:S:1:pos:R:3:forces:R:3 energy=-7.567634718988e+01 dipole="-5.0603756299e-15 -5.8823378808e-15 6.4092220336e-01" quadrupole="-5.1226159213e+00 -4.0566367993e-02 4.7519910802e-15 -4.0566367993e-02 -4.0942583851e+00 4.5124733163e-15 4.7519910802e-15 4.5124733163e-15 -3.4229892446e+00" polarizability="7.3792532170e+00 5.3411056356e-02 -5.9472635940e-13 5.3411421547e-02 6.0253905243e+00 1.3059258877e-11 1.2353644891e-13 -1.7814658369e-13 7.7778478042e+00" dipole_derivatives="-3.7684667690e-01 -2.0247511572e-11 -1.5325224002e-11 -6.6140256320e-12 -3.7684667698e-01 -2.1559611910e-12 1.2425155349e-07 -1.2994655352e-07 -1.4479155243e-01 3.7684682104e-01 3.3253138624e-14 -9.3338071091e-14 -2.1554109411e-13 3.7684682111e-01 -1.6012250132e-13 -1.2423365114e-07 1.2996204113e-07 1.4479030295e-01" charge=0 multiplicity=2 method=b3lyp basis=def2-svpd config_type=oh_q0_m2 sample_index=6 bond_length=0.900000 units=atomic
O         0.0000000000       0.0000000000       0.0000000000  -4.774421173763e-14   8.732290805799e-15  -9.626676453435e-02
H         0.0000000000       0.0000000000       0.9000000000  -1.150742410863e-16  -1.307674328610e-15   9.626687880070e-02
2
Properties=species:S:1:pos:R:3:forces:R:3 energy=-7.568208984567e+01 dipole="2.5263873546e-13 3.8212066586e-13 6.5422755607e-01" quadrupole="-4.8373652743e+00 4.8443885221e-01 7.7036911739e-14 4.8443885221e-01 -4.4654041487e+00 1.2612904025e-13 7.7036911739e-14 1.2612904025e-13 -3.3440600985e+00" polarizability="7.0666691104e+00 -6.6096190159e-01 -1.4051653420e-13 -6.6096189302e-01 6.5591726094e+00 -2.8120150730e-13 -7.1703499606e-12 -1.1579046131e-11 8.4067902584e+00" dipole_derivatives="-3.6442362121e-01 -1.4641877434e-12 1.0028942178e-10 1.1372948204e-11 -3.6442362128e-01 3.5561235574e-11 4.6285114630e-08 1.4453710451e-07 -1.3678894206e-01 3.6442417261e-01 3.4161775770e-13 -5.7846213545e-11 -2.5229704202e-14 3.6442417266e-01 -2.6030176906e-11 -4.6286752209e-08 -1.4452947172e-07 1.3672150542e-01" charge=0 multiplicity=2 method=b3lyp basis=def2-svpd config_type=oh_q0_m2 sample_index=7 bond_length=0.950000 units=atomic
O         0.0000000000       0.0000000000       0.0000000000  -4.064490131968e-14   5.736346049382e-15  -2.905889441269e-02
H         0.0000000000       0.0000000000       0.9500000000   6.525863045126e-16  -1.014428747777e-15   2.905922832623e-02
2
Properties=species:S:1:pos:R:3:forces:R:3 energy=-7.568244733706e+01 dipole="8.6352179706e-15 7.3197229941e-15 6.6674445359e-01" quadrupole="-5.2093030930e+00 7.2003956131e-02 1.1516290351e-14 7.2003956131e-02 -4.1760992731e+00 1.2284536455e-15 1.1516290351e-14 1.2284536455e-15 -3.2584191304e+00" polarizability="7.6518901861e+00 -1.0107697049e-01 -3.5511694583e-14 -1.0107783167e-01 6.2016051967e+00 -3.5101608574e-14 -1.1760447785e-12 1.5823719572e-13 9.0886962863e+00" dipole_derivatives="-3.5282624671e-01 7.2138813105e-12 -9.6322087790e-12 2.4155388717e-12 -3.5282624673e-01 -7.5983313623e-11 -6.7817335081e-08 4.6349951655e-08 -1.2829191981e-01 3.5282693188e-01 3.0267551086e-13 1.8596392341e-11 -1.4543144760e-15 3.5282693188e-01 7.9698223947e-11 6.7809063919e-08 -4.6353670902e-08 1.2818334421e-01" charge=0 multiplicity=2 method=b3lyp basis=def2-svpd config_type=oh_q0_m2 sample_index=8 bond_length=1.000000 units=atomic
O         0.0000000000       0.0000000000       0.0000000000  -1.234295799720e-14   2.853277708442e-14   1.875160462842e-02
H         0.0000000000       0.0000000000       1.0000000000  -3.592030715022e-17  -1.241865003007e-16  -1.875138135068e-02
2
Properties=species:S:1:pos:R:3:forces:R:3 energy=-7.567898921060e+01 dipole="-1.0568404041e-14 2.9956941358e-15 6.7844816809e-01" quadrupole="-5.2552041875e+00 3.1703131028e-02 -8.0714825156e-15 3.1703131028e-02 -4.2094660425e+00 -7.8056912638e-15 -8.0714825156e-15 -7.8056912638e-15 -3.1670742083e+00" polarizability="7.7948744458e+00 -4.5517210730e-02 4.1671362927e-14 -4.5517707861e-02 6.2935208010e+00 -9.3821230556e-15 3.2768684071e-12 1.3898287143e-13 9.8245708605e+00" dipole_derivatives="-3.4192431081e-01 -7.8370980463e-12 4.3061199286e-12 2.0689060821e-11 -3.4192431091e-01 -8.3771918175e-12 8.7550244832e-08 -7.5669012722e-08 -1.1954347954e-01 3.4192490984e-01 1.9583086999e-13 -1.4332568736e-13 -1.1463116727e-13 3.4192490994e-01 1.3248481706e-13 -8.7560417250e-08 7.5676784284e-08 1.1955488233e-01" charge=0 multiplicity=2 method=b3lyp basis=def2-svpd config_type=oh_q0_m2 sample_index=9 bond_length=1.050000 units=atomic
O         0.0000000000       0.0000000000       0.0000000000   5.088875313395e-14   6.725124213986e-15   5.244957135267e-02
H         0.0000000000       0.0000000000       1.0500000000   2.822305511497e-16   7.398546536808e-16  -5.244966573262e-02
2
Properties=species:S:1:pos:R:3:forces:R:3 energy=-7.567285895056e+01 dipole="-6.2957070954e-15 6.8447189838e-15 6.8934420413e-01" quadrupole="-4.2539511043e+00 9.8518746616e-02 -6.8640843828e-16 9.8518746616e-02 -5.2865724903e+00 2.9817592855e-15 -6.8640843828e-16 2.9817592855e-15 -3.0709478727e+00" polarizability="6.4109696362e+00 -1.4391930444e-01 2.5308350079e-15 -1.4391933304e-01 7.9194486624e+00 -1.9818861798e-14 1.3124671040e-12 -3.4327209690e-12 1.0614800109e+01" dipole_derivatives="-3.3162454402e-01 -3.0518063469e-11 3.4931310840e-11 8.4088352112e-12 -3.3162454410e-01 6.0177504032e-12 8.7387708181e-08 -1.0929371297e-07 -1.1110624303e-01 3.3162495744e-01 3.3033777694e-13 -4.1325847241e-11 1.5688626480e-13 3.3162495752e-01 -3.7830279312e-12 -8.7390442105e-08 1.0931816563e-07 1.1110700677e-01" charge=0 multiplicity=2 method=b3lyp basis=def2-svpd config_type=oh_q0_m2 sample_index=10 bond_length=1.100000 units=atomic
O         0.0000000000       0.0000000000       0.0000000000  -2.931670263090e-14   2.202942876433e-14   7.584860403298e-02
H         0.0000000000       0.0000000000       1.1000000000  -4.494107171284e-16   1.271180389610e-16  -7.584909032317e-02
2
Properties=species:S:1:pos:R:3:forces:R:3 energy=-7.566489254350e+01 dipole="-2.6167723472e-12 9.1326841679e-13 6.9945384605e-01" quadrupole="-4.3892952927e+00 -3.2203103758e-01 -3.5534033399e-13 -3.2203103758e-01 -5.2236446583e+00 1.3589854093e-13 -3.5534033399e-13 1.3589854093e-13 -2.9708922500e+00" polarizability="6.6724196433e+00 4.7642513562e-01 5.3079619208e-13 4.7642509309e-01 7.9067998804e+00 -2.4520483264e-13 7.3931048705e-10 -2.9121113662e-10 1.1459082907e+01" dipole_derivatives="-3.2185644115e-01 5.1546474724e-11 -6.2941481251e-12 -8.3342402115e-12 -3.2185644114e-01 -1.5801108283e-11 4.2216591334e-08 4.9774490085e-08 -1.0293284529e-01 3.2185666465e-01 5.9813963292e-14 -4.3601710986e-12 2.1336894485e-14 3.2185666465e-01 2.7615103988e-12 -4.2229372776e-08 -4.9787909906e-08 1.0291932600e-01" charge=0 multiplicity=2 method=b3lyp basis=def2-svpd config_type=oh_q0_m2 sample_index=11 bond_length=1.150000 units=atomic
O         0.0000000000       0.0000000000       0.0000000000  -9.431782529814e-15   3.149773477837e-14   9.170299252647e-02
H         0.0000000000       0.0000000000       1.1500000000   7.083834305078e-15  -3.238005152539e-15  -9.170375973898e-02
2
Properties=species:S:1:pos:R:3:forces:R:3 energy=-7.565570385118e+01 dipole="-2.9959420416e-16 -3.3171463010e-15 7.0879845464e-01" quadrupole="-4.3688261103e+00 2.3641689997e-01 1.7376238094e-14 2.3641689997e-01 -5.3130726275e+00 -7.3069129169e-15 1.7376238094e-14 -7.3069129169e-15 -2.8677143755e+00" polarizability="6.7127746864e+00 -3.5288785414e-01 -4.1514591075e-14 -3.5288925426e-01 8.1221835012e+00 4.7300770618e-14 -4.7472557795e-12 -3.8045561109e-12 1.2356515243e+01" dipole_derivatives="-3.1256362330e-01 -8.7706575057e-12 -5.1026178108e-11 -1.0530532065e-12 -3.1256362335e-01 -8.2742079946e-12 -4.9603030017e-09 -6.5749898581e-08 -9.4867209977e-02 3.1256371353e-01 2.1904915255e-14 3.1912927087e-11 1.1497300535e-13 3.1256371354e-01 7.5300116234e-12 4.9459741858e-09 6.5749204692e-08 9.4881516174e-02" charge=0 multiplicity=2 method=b3lyp basis=def2-svpd config_type=oh_q0_m2 sample_index=12 bond_length=1.200000 units=atomic
O         0.0000000000       0.0000000000       0.0000000000  -4.200986026884e-14   3.776538988176e-14   1.019994590835e-01
H         0.0000000000       0.0000000000       1.2000000000  -5.569247274449e-16   3.063719461783e-16  -1.020005160617e-01
2
Properties=species:S:1:pos:R:3:forces:R:3 energy=-7.564574674032e+01 dipole="-2.2886701130e-14 3.5817771443e-14 7.1738137089e-01" quadrupole="-4.9840497226e+00 -5.1701914601e-01 -3.5318994498e-14 -5.1701914601e-01 -4.7633267033e+00 4.2291813650e-14 -3.5318994498e-14 4.2291813650e-14 -2.7622223944e+00" polarizability="7.7139350919e+00 7.7584148737e-01 6.3089819935e-14 7.7584148405e-01 7.3827112185e+00 -3.3435839313e-14 -6.1312723719e-11 8.1489938440e-11 1.3305828086e+01" dipole_derivatives="-3.0369735157e-01 -4.5006514200e-12 3.4241694674e-12 9.8025317913e-12 -3.0369735159e-01 1.6426911760e-11 -5.7532770215e-08 -1.2594177784e-07 -8.6688918459e-02 3.0369738269e-01 1.2452684883e-13 1.3661609913e-12 4.9842429225e-15 3.0369738273e-01 -1.3354680403e-12 5.7534518816e-08 1.2593731613e-07 8.6701930042e-02" charge=0 multiplicity=2 method=b3lyp basis=def2-svpd config_type=oh_q0_m2 sample_index=13 bond_length=1.250000 units=atomic
O         0.0000000000       0.0000000000       0.0000000000  -5.964198556920e-15   1.350588815715e-14   1.081698633637e-01
H         0.0000000000       0.0000000000       1.2500000000   1.048341521214e-15  -1.993482629713e-15  -1.081708756647e-01
2
Properties=species:S:1:pos:R:3:forces:R:3 energy=-7.563535983554e+01 dipole="-4.6427641699e-15 -5.5921095677e-15 7.2516079409e-01" quadrupole="-4.4896003109e+00 -3.2801526266e-01 1.5928607074e-14 -3.2801526266e-01 -5.3197277035e+00 -3.3488483114e-15 1.5928607074e-14 -3.3488483114e-15 -2.6553117218e+00" polarizability="7.0575211699e+00 4.9346523140e-01 -5.6178651714e-14 4.9346524099e-01 8.3063673839e+00 -3.9944318786e-15 6.0221373613e-11 -7.2797465199e-11 1.4305899818e+01" dipole_derivatives="-2.9518327940e-01 1.1835590438e-11 2.9729566803e-11 2.2511985191e-11 -2.9518327939e-01 -3.8356493259e-12 1.1075187295e-07 -9.3286538216e-08 -7.7665732343e-02 2.9518332150e-01 -6.4841132038e-14 -7.3980141784e-12 2.5286510407e-14 2.9518332150e-01 9.4390405697e-12 -1.1075988737e-07 9.3285157376e-08 7.7705675515e-02" charge=0 multiplicity=2 method=b3lyp basis=def2-svpd config_type=oh_q0_m2 sample_index=14 bond_length=1.300000 units=atomic
O         0.0000000000       0.0000000000       0.0000000000  -6.121520845624e-14   3.241574089261e-14   1.112411577853e-01
H         0.0000000000       0.0000000000       1.3000000000   2.103332069120e-14  -1.694612745514e-14  -1.112421289236e-01
2
Properties=species:S:1:pos:R:3:forces:R:3 energy=-7.562479957126e+01 dipole="1.2287987076e-14 -8.0806310929e-16 7.3199813687e-01" quadrupole="-4.4083447135e+00 6.2132747257e-02 4.6326235971e-16 6.2132747257e-02 -5.4593309345e+00 -1.4767688919e-14 4.6326235971e-16 -1.4767688919e-14 -2.5481426856e+00" polarizability="7.0271560290e+00 -9.3487587084e-02 -1.7922781987e-12 -9.3488590200e-02 8.6085193210e+00 -5.3901130106e-14 -3.6983198478e-11 2.3822509313e-11 1.5356807453e+01" dipole_derivatives="-2.8693068789e-01 -1.9104669460e-12 6.5142724893e-12 1.6385053863e-12 -2.8693068792e-01 7.7684170459e-12 -1.8226829768e-08 6.8612629467e-08 -6.6411751975e-02 2.8693080598e-01 -1.0652856563e-13 5.1893004202e-12 9.8318731382e-14 2.8693080602e-01 -3.0998395205e-14 1.8229515120e-08 -6.8632904915e-08 6.6429057355e-02" charge=0 multiplicity=2 method=b3lyp basis=def2-svpd config_type=oh_q0_m2 sample_index=15 bond_length=1.350000 units=atomic
O         0.0000000000       0.0000000000       0.0000000000  -2.738426795109e-14   3.307172074734e-15   1.119387391179e-01
H         0.0000000000       0.0000000000       1.3500000000  -4.268598604320e-17  -6.970637646916e-16  -1.119396003133e-01
2
Properties=species:S:1:pos:R:3:forces:R:3 energy=-7.561426575809e+01 dipole="3.5319811917e-15 -1.0943401690e-14 7.3754927886e-01" quadrupole="-5.4884790152e+00 -4.3015455958e-02 6.6776005752e-15 -4.3015455958e-02 -4.4337691622e+00 -9.3351955482e-15 6.6776005752e-15 -9.3351955482e-15 -2.4425351567e+00" polarizability="8.7474396037e+00 6.4605611736e-02 -8.4114090903e-13 6.4607320906e-02 7.1633125723e+00 -1.8270639031e-12 -7.0550406119e-11 -3.0241238691e-11 1.6461889596e+01" dipole_derivatives="-2.7878098983e-01 3.1640344079e-11 -1.0304903708e-11 -2.5890275626e-11 -2.7878098982e-01 -1.2273077796e-11 -2.1526280758e-08 -4.6009071553e-08 -4.9771497050e-02 2.7878125041e-01 -2.6662561510e-14 1.5608250998e-14 1.1865954250e-13 2.7878125040e-01 -3.9447335827e-14 2.1547319484e-08 4.5996900733e-08 4.9768860057e-02" charge=0 multiplicity=2 method=b3lyp basis=def2-svpd config_type=oh_q0_m2 sample_index=16 bond_length=1.400000 units=atomic
O         0.0000000000       0.0000000000       0.0000000000  -4.156582773211e-15  -2.146282385519e-14   1.107431487096e-01
H         0.0000000000       0.0000000000       1.4000000000  -2.659863085736e-16   3.485286471173e-16  -1.107439675918e-01
2
Properties=species:S:1:pos:R:3:forces:R:3 energy=-7.560392367856e+01 dipole="-2.2335846987e-15 -5.8352764286e-14 7.4104181538e-01" quadrupole="-5.4882887200e+00 1.6682621558e-01 9.7500284551e-15 1.6682621558e-01 -4.4843577744e+00 -2.0831874189e-14 9.7500284551e-15 -2.0831874189e-14 -2.3418098371e+00" polarizability="8.8453939941e+00 -2.4976629001e-01 1.3213360565e-12 -2.4976639729e-01 7.3423289723e+00 1.8883620901e-12 1.0097695827e-09 -1.8741546091e-09 1.7632802463e+01" dipole_derivatives="-2.7044198793e-01 2.3032600584e-11 -1.4341240311e-11 -4.6226733353e-12 -2.7044198789e-01 -1.6026187247e-11 1.6398937763e-08 4.3047780618e-08 -2.1522018358e-02 2.7044243816e-01 -3.2168672451e-14 -1.2277299062e-12 -3.7874205847e-14 2.7044243808e-01 -1.8918972145e-12 -1.6383214230e-08 -4.3015403739e-08 2.1463538578e-02" charge=0 multiplicity=2 method=b3lyp basis=def2-svpd config_type=oh_q0_m2 sample_index=17 bond_length=1.450000 units=atomic
O         0.0000000000       0.0000000000       0.0000000000  -2.055499202668e-14   9.677361529393e-15   1.079014190045e-01
H         0.0000000000       0.0000000000       1.4500000000  -2.986602379728e-16   2.484451969663e-16  -1.079020418580e-01
2
Properties=species:S:1:pos:R:3:forces:R:3 energy=-7.559392715259e+01 dipole="-4.2188203453e-13 1.2121851320e-12 7.4092065486e-01" quadrupole="-5.4209331547e+00 -3.3156194811e-01 -8.2517535110e-14 -3.3156194811e-01 -4.5970809194e+00 2.8438860149e-13 -8.2517535110e-14 2.8438860149e-13 -2.2522155499e+00" polarizability="8.8463429019e+00 4.9438362557e-01 1.7504173898e-11 4.9438355066e-01 7.6179408969e+00 -5.3106629371e-11 -1.8258284470e-08 5.3124417163e-08 1.8887535890e+01" dipole_derivatives="-2.6138419279e-01 -3.0964670407e-11 -1.6398085645e-10 -3.1356306373e-11 -2.6138419272e-01 -7.8163285078e-11 3.0553615193e-09 -2.6789404028e-09 2.8471644765e-02 2.6138483977e-01 -7.5690877914e-14 1.7348710797e-10 2.7774579256e-14 2.6138483971e-01 6.3381552180e-11 -3.0590530109e-09 2.6596225222e-09 -2.8450649697e-02" charge=0 multiplicity=2 method=b3lyp basis=def2-svpd config_type=oh_q0_m2 sample_index=18 bond_length=1.500000 units=atomic
O         0.0000000000       0.0000000000       0.0000000000  -5.402149517889e-15   2.557889397600e-14   1.034079366991e-01
H         0.0000000000       0.0000000000       1.5000000000  -5.767581472144e-15  -1.009610091764e-14  -1.034084475569e-01
2
Properties=species:S:1:pos:R:3:forces:R:3 energy=-7.558443971548e+01 dipole="-2.2643733473e-12 -2.1506190982e-12 7.3482206601e-01" quadrupole="-4.6729475397e+00 3.9116718933e-01 -2.4737134114e-12 3.9116718933e-01 -5.3840252889e+00 -9.9003477605e-13 -2.4737134114e-12 -9.9003477605e-13 -2.1834213129e+00" polarizability="7.8407056976e+00 -5.8053828381e-01 -5.7351781083e-12 -5.8053840406e-01 8.8960188467e+00 1.7054134470e-11 -1.1506356842e-07 -2.5130113006e-07 2.0219432526e+01" dipole_derivatives="-2.5086989701e-01 -1.0677982001e-11 -1.7060866486e-12 -8.5345962381e-12 -2.5086989709e-01 -1.1449071176e-11 4.1111780646e-08 1.1171827352e-08 1.0414562360e-01 2.5087067531e-01 1.6479938272e-14 -2.3962257015e-13 -6.0091435340e-14 2.5087067537e-01 -1.8688469494e-13 -4.1109587956e-08 -1.1170016301e-08 -1.0415466080e-01" charge=0 multiplicity=2 method=b3lyp basis=def2-svpd config_type=oh_q0_m2 sample_index=19 bond_length=1.550000 units=atomic
O         0.0000000000       0.0000000000       0.0000000000  -2.989618954594e-14   1.734363950203e-14   9.710515985551e-02
H         0.0000000000       0.0000000000       1.5500000000   7.039642512466e-15  -4.958377110353e-15  -9.710559954076e-02
2
Properties=species:S:1:pos:R:3:forces:R:3 energy=-7.556762890906e+01 dipole="1.8126331417e-13 3.3428798498e-13 7.0000464602e-01" quadrupole="-5.3441274290e+00 4.4247451196e-01 7.4114111862e-14 4.4247451196e-01 -4.7685568196e+00 9.3521086648e-14 7.4114111862e-14 9.3521086648e-14 -2.1338844452e+00" polarizability="9.0469862528e+00 -6.4848260163e-01 4.6549738423e-14 -6.4848246832e-01 8.2034278334e+00 1.0744192613e-13 1.2731050378e-08 1.9526447321e-08 2.2704470005e+01" dipole_derivatives="-2.2449909913e-01 9.0164899707e-12 8.8796314767e-13 2.5125139930e-12 -2.2449909918e-01 -2.7803589004e-11 7.7097078721e-09 2.3244323133e-09 2.5295755689e-01 2.2449967209e-01 -3.5126886377e-14 1.9700666635e-12 -6.1024460799e-14 2.2449967211e-01 1.4840092477e-11 -7.7036016455e-09 -2.3193807985e-09 -2.5295923994e-01" charge=0 multiplicity=2 method=b3lyp basis=def2-svpd config_type=oh_q0_m2 sample_index=21 bond_length=1.650000 units=atomic
O         0.0000000000       0.0000000000       0.0000000000  -5.581842737163e-14   3.242619996274e-14   8.016015219568e-02
H         0.0000000000       0.0000000000       1.6500000000   6.240227216911e-14  -9.543191540589e-15  -8.016037784466e-02
2
Properties=species:S:1:pos:R:3:forces:R:3 energy=-7.556048670583e+01 dipole="2.4167668120e-13 6.4612871432e-13 6.7394918189e-01" quadrupole="-4.6498499771e+00 -3.2412993210e-01 -3.6041948203e-13 -3.2412993210e-01 -5.4811406934e+00 -7.8186621811e-13 -3.6041948203e-13 -7.8186621811e-13 -2.1480979580e+00" polarizability="8.1392743034e+00 4.7100591820e-01 -6.2371124514e-11 4.7100601630e-01 9.3472439615e+00 -1.7556173654e-10 1.8724768301e-08 5.7476837836e-08 2.3678641337e+01" dipole_derivatives="-2.0978568801e-01 -3.1112565704e-11 1.9128772914e-11 9.3711900769e-13 -2.0978568807e-01 5.8393240232e-12 -2.7387883628e-09 -9.1193996798e-09 2.9470437338e-01 2.0978593322e-01 3.9733499797e-13 -2.0037792703e-12 3.5264133223e-13 2.0978593325e-01 -6.1282435734e-12 2.7382471290e-09 9.1093660393e-09 -2.9470662479e-01" charge=0 multiplicity=2 method=b3lyp basis=def2-svpd config_type=oh_q0_m2 sample_index=22 bond_length=1.700000 units=atomic
O         0.0000000000       0.0000000000       0.0000000000  -3.269629403125e-14   4.949245729579e-14   7.105327270723e-02
H         0.0000000000       0.0000000000       1.7000000000  -1.036160262662e-14  -4.331144781550e-14  -7.105345740649e-02
2
Properties=species:S:1:pos:R:3:forces:R:3 energy=-7.552799769409e+01 dipole="-4.1356799350e-16 -9.8233576243e-15 8.0258409946e-01" quadrupole="-5.6503948131e+00 -8.4640821193e-02 -1.1965479438e-14 -8.4640821193e-02 -4.6305397760e+00 1.0736653974e-14 -1.1965479438e-14 1.0736653974e-14 -1.3890377346e+00" polarizability="9.8440762075e+00 1.1760932145e-01 -7.7133885675e-15 1.1760904482e-01 8.4269943462e+00 -2.1443206028e-14 8.2418228036e-07 -3.8791311139e-06 2.6247321576e+01" dipole_derivatives="-2.2957088775e-01 2.0601096388e-11 4.6598291620e-09 1.7565773777e-11 -2.2957088746e-01 -3.0653149812e-09 1.1937957567e-08 -4.4178057046e-08 -2.5636922171e-01 2.2957079989e-01 6.6274339422e-14 -4.6304060158e-09 1.0368586848e-13 2.2957079965e-01 3.0745249888e-09 -1.1948754486e-08 4.4159308155e-08 2.5636722005e-01" charge=0 multiplicity=2 method=b3lyp basis=def2-svpd config_type=oh_q0_m2 sample_index=25 bond_length=1.850000 units=atomic
O         0.0000000000       0.0000000000       0.0000000000  -3.591505079532e-13  -6.659078366838e-13   7.750003475621e-02
H         0.0000000000       0.0000000000       1.8500000000   3.321759983589e-13   6.624636347018e-13  -7.750052253613e-02
2
Properties=species:S:1:pos:R:3:forces:R:3 energy=-7.552075772586e+01 dipole="-1.7197467313e-13 -3.2820245167e-13 8.1924122747e-01" quadrupole="-5.4384697204e+00 -4.3408651960e-01 3.1356633482e-12 -4.3408651960e-01 -4.8771756286e+00 5.5959687731e-14 3.1356633482e-12 5.5959687731e-14 -1.2275102143e+00" polarizability="9.6572591946e+00 5.9919152095e-01 1.8776718177e-08 5.9919149791e-01 8.8824708521e+00 1.0182327585e-08 3.1268767690e-10 1.0378413286e-12 2.8357606561e+01" dipole_derivatives="-2.2816904598e-01 -1.0052751818e-11 -5.0827552954e-11 -1.2457746904e-11 -2.2816904600e-01 4.4879048713e-11 2.4998454695e-08 -4.9509701894e-10 -1.3810615713e-01 2.2816853263e-01 7.3544360844e-13 5.4903848190e-11 8.6644952214e-13 2.2816853262e-01 -2.6716929295e-11 -2.4994228909e-08 4.9163451088e-10 1.3810310933e-01" charge=0 multiplicity=2 method=b3lyp basis=def2-svpd config_type=oh_q0_m2 sample_index=26 bond_length=1.900000 units=atomic
O         0.0000000000       0.0000000000       0.0000000000   4.807400212676e-14  -3.923119741149e-15   7.539777059019e-02
H         0.0000000000       0.0000000000       1.9000000000  -1.551617459310e-14   4.633936767352e-15  -7.539823634274e-02
2
Properties=species:S:1:pos:R:3:forces:R:3 energy=-7.551377806227e+01 dipole="1.8149063236e-16 2.4158242912e-15 8.3103785032e-01" quadrupole="-4.6559854245e+00 1.5484316339e-02 3.4503250789e-15 1.5484316339e-02 -5.6885064418e+00 -2.3796566304e-14 3.4503250789e-15 -2.3796566304e-14 -1.0857538025e+00" polarizability="8.6869376545e+00 -2.1221563327e-02 1.9317334085e-15 -2.1221573897e-02 1.0102171660e+01 1.2030458709e-13 4.0677526665e-09 -2.6805201696e-07 2.9906370358e+01" dipole_derivatives="-2.2552001419e-01 2.2100678475e-11 3.4814937823e-11 -9.9395457467e-12 -2.2552001424e-01 -1.0906022686e-11 6.2342908613e-09 -1.7567836075e-08 -1.1589274879e-01 2.2551928811e-01 6.5939947004e-14 -3.3067063615e-15 -2.6403565151e-14 2.2551928812e-01 -8.1824231425e-14 -6.2171170989e-09 1.7570500610e-08 1.1589287646e-01" charge=0 multiplicity=2 method=b3lyp basis=def2-svpd config_type=oh_q0_m2 sample_index=27 bond_length=1.950000 units=atomic
O         0.0000000000       0.0000000000       0.0000000000   1.998015992753e-14  -1.998719470148e-14   7.226974934745e-02
H         0.0000000000       0.0000000000       1.9500000000  -2.905605842180e-16  -2.045528780242e-16  -7.227066547200e-02
2
Properties=species:S:1:pos:R:3:forces:R:3 energy=-7.550710748951e+01 dipole="4.5947602613e-13 1.2075290556e-12 8.4155718011e-01" quadrupole="-4.8345776169e+00 -3.7860639830e-01 -1.9067499446e-11 -3.7860639830e-01 -5.5356419279e+00 -4.2804698732e-11 -1.9067499446e-11 -4.2804698732e-11 -9.4900362007e-01" polarizability="9.0361753455e+00 5.1530315307e-01 1.5211712770e-07 5.1530311380e-01 9.9903656542e+00 3.4811774731e-07 -5.1352367516e-08 -1.2033624971e-07 3.1373274059e+01" dipole_derivatives="-2.2266493614e-01 -2.3576320093e-11 3.1771844890e-10 -2.1191524818e-11 -2.2266493592e-01 -2.0058297984e-10 -2.2585669446e-08 -9.7514982200e-09 -1.0794587531e-01 2.2266412660e-01 2.4951972868e-14 -3.4046938053e-10 1.0851694205e-13 2.2266412645e-01 1.8536452861e-10 2.2593975302e-08 9.7478761174e-09 1.0794730418e-01" charge=0 multiplicity=2 method=b3lyp basis=def2-svpd config_type=oh_q0_m2 sample_index=28 bond_length=2.000000 units=atomic
O         0.0000000000       0.0000000000       0.0000000000   6.518574036686e-14  -4.606191809191e-13   6.890612051907e-02
H         0.0000000000       0.0000000000       2.0000000000  -6.203374781101e-14   4.714126303866e-13  -6.890717210954e-02
2
Properties=species:S:1:pos:R:3:forces:R:3 energy=-7.550075765168e+01 dipole="-2.4397159268e-13 4.3745600374e-12 8.5157124084e-01" quadrupole="-5.6853164952e+00 -1.6416563706e-01 1.9592093136e-10 -1.6416563706e-01 -4.7082229491e+00 6.2962096505e-11 1.9592093136e-10 6.2962096505e-11 -8.1409047946e-01" polarizability="1.0286990032e+01 2.2189007127e-01 -2.9035922641e-07 2.2189030731e-01 8.9663325698e+00 -5.0456887167e-08 -5.9790603652e-10 -7.5849840187e-07 3.2821010399e+01" dipole_derivatives="-2.1981899490e-01 2.8166124770e-11 -1.6989631052e-11 1.5548638356e-12 -2.1981899489e-01 2.5178012156e-11 2.1842173903e-08 1.0651486637e-08 -1.0448782591e-01 2.1981820037e-01 -7.5759448539e-14 1.1690699952e-11 -1.9463623326e-14 2.1981820034e-01 -4.1528809903e-11 -2.1852714083e-08 -1.0663026018e-08 1.0447931324e-01" charge=0 multiplicity=2 method=b3lyp basis=def2-svpd config_type=oh_q0_m2 sample_index=29 bond_length=2.050000 units=atomic
O         0.0000000000       0.0000000000       0.0000000000   4.116845625114e-14   4.757983572927e-14   6.549973542604e-02
H         0.0000000000       0.0000000000       2.0500000000   1.724009528492e-17  -2.696642695819e-16  -6.550084805734e-02
2
Properties=species:S:1:pos:R:3:forces:R:3 energy=-7.548901385486e+01 dipole="3.5947240329e-13 -2.7712301914e-13 8.7102335375e-01" quadrupole="-5.1399753710e+00 5.0844608495e-01 6.1863393509e-12 5.0844608495e-01 -5.2941802688e+00 -6.1995038169e-12 6.1863393509e-12 -6.1995038169e-12 -5.4596481916e-01" polarizability="9.7353965328e+00 -6.7839018955e-01 -2.2895248497e-07 -6.7839019374e-01 9.9411529847e+00 2.6625464130e-07 -2.7738565806e-08 3.2652038156e-08 3.5719449625e+01" dipole_derivatives="-2.1438220089e-01 -3.0282293675e-11 -3.0615444604e-09 -6.2740200925e-12 -2.1438220093e-01 7.9346343686e-09 -2.7174512640e-08 4.9087296727e-08 -1.0197409558e-01 2.1438160915e-01 2.1132987481e-12 3.0722055034e-09 2.0963913927e-12 2.1438160915e-01 -7.9109356316e-09 2.7183574836e-08 -4.9102867605e-08 1.0195081006e-01" charge=0 multiplicity=2 method=b3lyp basis=def2-svpd config_type=oh_q0_m2 sample_index=31 bond_length=2.150000 units=atomic
O         0.0000000000       0.0000000000       0.0000000000   7.284608136323e-14  -8.787985076532e-15   5.884200262576e-02
H         0.0000000000       0.0000000000       2.1500000000  -7.389309540120e-14  -3.825750552779e-14  -5.884297879360e-02
2
Properties=species:S:1:pos:R:3:forces:R:3 energy=-7.548360534646e+01 dipole="-1.6246571212e-11 1.0920396603e-11 8.8063258141e-01" quadrupole="-5.7122263718e+00 1.6553654698e-01 -2.3880996614e-10 1.6553654698e-01 -4.7395800106e+00 9.4890269057e-11 -2.3880996614e-10 9.4890269057e-11 -4.1207506980e-01" polarizability="1.0581412990e+01 -2.1954756890e-01 2.7068348754e-09 -2.1954812002e-01 9.2914304147e+00 -5.2517509234e-10 5.6725507256e-07 -8.6115923126e-08 3.7179674523e+01" dipole_derivatives="-2.1182121246e-01 2.5632947665e-11 -2.0350799012e-09 3.4869112367e-11 -2.1182121250e-01 1.2408781839e-09 -2.4388716741e-08 2.8342696246e-08 -1.0153336522e-01 2.1182075172e-01 4.8183511681e-12 2.0164739858e-09 4.7201304792e-12 2.1182075176e-01 -1.2415100353e-09 2.4372372176e-08 -2.8357101389e-08 1.0150489461e-01" charge=0 multiplicity=2 method=b3lyp basis=def2-svpd config_type=oh_q0_m2 sample_index=32 bond_length=2.200000 units=atomic
O         0.0000000000       0.0000000000       0.0000000000  -2.376968819656e-14  -1.083170116307e-14   5.565858354772e-02
H         0.0000000000       0.0000000000       2.2000000000   4.309184505403e-16   1.049016958541e-15  -5.565957138414e-02
2
Properties=species:S:1:pos:R:3:forces:R:3 energy=-7.547849196693e+01 dipole="8.0703935908e-11 1.9658949411e-10 8.9021106212e-01" quadrupole="-4.7273763115e+00 -8.2481533720e-02 5.7684006357e-10 -8.2481533720e-02 -5.7404734063e+00 2.1988750314e-09 5.7684006357e-10 2.1988750314e-09 -2.7812875678e-01" polarizability="9.3613889340e+00 1.0878416334e-01 -3.0822790294e-09 1.0878451073e-01 1.0697491920e+01 -3.1014089568e-08 -1.9779298589e-07 -2.9090820269e-09 3.8649485918e+01" dipole_derivatives="-2.0936668221e-01 1.4825780876e-11 4.6866165924e-09 -2.3384540108e-11 -2.0936668225e-01 -2.3864908854e-10 4.9076437358e-09 7.7635120554e-10 -1.0130062887e-01 2.0936634903e-01 -9.7334727100e-12 -4.6755178316e-09 -9.8128016414e-12 2.0936634908e-01 2.2176191803e-10 -4.9237627864e-09 -7.7578221624e-10 1.0128153587e-01" charge=0 multiplicity=2 method=b3lyp basis=def2-svpd config_type=oh_q0_m2 sample_index=33 bond_length=2.250000 units=atomic
O         0.0000000000       0.0000000000       0.0000000000   7.165844266097e-13  -1.632895945253e-13   5.259724123895e-02
H         0.0000000000       0.0000000000       2.2500000000  -7.375360517211e-13   2.168109816131e-13  -5.259798347944e-02
2
Properties=species:S:1:pos:R:3:forces:R:3 energy=-7.547366170609e+01 dipole="6.5830403635e-10 -4.2435909745e-12 8.9977552943e-01" quadrupole="-4.7284413500e+00 -1.3584282785e-05 4.3284660823e-09 -1.3584282785e-05 -5.7539418405e+00 3.7092274976e-11 4.3284660823e-09 3.7092274976e-11 -1.4406970108e-01" polarizability="9.4445980788e+00 1.7871159256e-05 -5.8958115467e-09 1.6749935815e-05 1.0789849614e+01 -4.9673670948e-10 -3.9005775897e-08 3.0447411743e-09 4.0129480543e+01" dipole_derivatives="-2.0701574770e-01 1.4558059338e-10 1.8445016452e-07 1.3596683793e-10 -2.0701574768e-01 -2.2586460631e-08 -6.8910571693e-09 2.5177124274e-08 -1.0122670822e-01 2.0701555932e-01 -1.1878774560e-10 -1.8448259270e-07 -1.2547132722e-10 2.0701555931e-01 2.2601243395e-08 6.9003934511e-09 -2.5197000736e-08 1.0120616268e-01" charge=0 multiplicity=2 method=b3lyp basis=def2-svpd config_type=oh_q0_m2 sample_index=34 bond_length=2.300000 units=atomic
O         0.0000000000       0.0000000000       0.0000000000  -1.005436266601e-12   3.330652172586e-13   4.966763433253e-02
H         0.0000000000       0.0000000000       2.3000000000   1.023418883076e-12  -3.208508262940e-13  -4.966811979153e-02
2
Properties=species:S:1:pos:R:3:forces:R:3 energy=-7.546910185668e+01 dipole="-1.8990967637e-10 -1.4056191131e-10 9.0933867754e-01" quadrupole="-4.8539991759e+00 3.2777144594e-01 -1.0135390904e-09 3.2777144594e-01 -5.6414861867e+00 -1.0337929365e-09 -1.0135390904e-09 -1.0337929365e-09 -9.8557198936e-03" polarizability="9.6858625500e+00 -4.2782326065e-01 -2.1231307352e-07 -4.2782331302e-01 1.0713763270e+01 -2.4143074843e-08 1.3706724264e-09 -2.2255568029e-09 4.1620060257e+01" dipole_derivatives="-2.0476455963e-01 -1.8900430639e-08 3.1773840901e-08 -1.8966113447e-08 -2.0476455971e-01 8.7495805304e-09 3.9135916730e-09 -8.5669041305e-09 -1.0125035189e-01 2.0476452756e-01 1.8896741797e-08 -3.1780318124e-08 1.8949586952e-08 2.0476452764e-01 -8.7583722782e-09 -3.9068297208e-09 8.5557949614e-09 1.0124936204e-01" charge=0 multiplicity=2 method=b3lyp basis=def2-svpd config_type=oh_q0_m2 sample_index=35 bond_length=2.350000 units=atomic
O         0.0000000000       0.0000000000       0.0000000000  -1.342736787003e-14  -4.603478604068e-14   4.687502349080e-02
H         0.0000000000       0.0000000000       2.3500000000   1.755993997573e-14  -1.943581246571e-14  -4.687508605844e-02
2
Properties=species:S:1:pos:R:3:forces:R:3 energy=-7.546479933961e+01 dipole="3.6936905062e-14 -3.0460055998e-13 9.1891145170e-01" quadrupole="-4.7684119632e+00 1.6321583770e-01 2.8123781371e-13 1.6321583770e-01 -5.7388174824e+00 -2.0831451772e-12 2.8123781371e-13 -2.0831451772e-12 1.2455975001e-01" polarizability="9.6468067131e+00 -2.1206335551e-01 -8.8446688843e-12 -2.1206334997e-01 1.0907605614e+01 5.4704543569e-11 8.2486632965e-09 -5.1395657041e-08 4.3121419409e+01" dipole_derivatives="-2.0260916523e-01 2.9679676245e-07 1.3484269740e-10 2.9512269067e-07 -2.0260916514e-01 -9.2133066107e-10 4.0994013739e-09 -2.6872701980e-08 2.3452054723e-01 2.0260927812e-01 -2.9684483437e-07 -1.4592367918e-10 -2.9517895776e-07 2.0260927806e-01 9.1510899708e-10 -4.1298492404e-09 2.6863671010e-08 -2.3456688662e-01" charge=0 multiplicity=2 method=b3lyp basis=def2-svpd config_type=oh_q0_m2 sample_index=36 bond_length=2.400000 units=atomic
O         0.0000000000       0.0000000000       0.0000000000  -1.696543519054e-10  -5.147573314390e-10   4.422048768935e-02
H         0.0000000000       0.0000000000       2.4000000000   1.696486378479e-10   5.147771871872e-10  -4.422023454463e-02
2
Properties=species:S:1:pos:R:3:forces:R:3 energy=-7.546074119408e+01 dipole="1.9462409743e-10 -8.1485222782e-10 9.2850391000e-01" quadrupole="-5.7639512235e+00 -8.0958576838e-02 1.2284894337e-09 -8.0958576838e-02 -4.7537299343e+00 -5.5574584307e-09 1.2284894337e-09 -5.5574584307e-09 2.5923152458e-01" polarizability="1.1002927518e+01 1.0473211630e-01 -2.8137821526e-08 1.0473224924e-01 9.6959678666e+00 5.2520576317e-09 -6.5841254845e-09 3.8705958088e-09 4.4633840138e+01" dipole_derivatives="-2.0054603222e-01 1.5637413654e-07 3.6418866328e-08 1.6035003578e-07 -2.0054603220e-01 -2.4323717827e-07 8.2566106729e-09 -1.0264240846e-08 -1.6048137492e+01 2.0054627769e-01 -1.5640780325e-07 -3.6412980656e-08 -1.6037047070e-07 2.0054627763e-01 2.4322401343e-07 -8.2792661615e-09 1.0259956079e-08 1.6048185080e+01" charge=0 multiplicity=2 method=b3lyp basis=def2-svpd config_type=oh_q0_m2 sample_index=37 bond_length=2.450000 units=atomic
O         0.0000000000       0.0000000000       0.0000000000  -2.997058443166e-12   5.423001453741e-11   4.170256708067e-02
H         0.0000000000       0.0000000000       2.4500000000   3.046550103936e-12  -5.421471601108e-11  -4.170203691334e-02
2
Properties=species:S:1:pos:R:3:forces:R:3 energy=-7.551671828361e+01 dipole="1.6019033798e-10 -1.6021149627e-10 2.4276343789e-01" quadrupole="-5.0815635967e+00 5.0627826302e-01 -2.2236573824e-09 5.0627826302e-01 -5.0815631968e+00 2.2235835071e-09 -2.2236573824e-09 2.2235835071e-09 -3.2459350849e+00" polarizability="9.8207562339e+00 -5.9869204800e-01 3.2704994164e-09 -5.9869204800e-01 9.8207563566e+00 -3.2704361633e-09 -2.1085727474e-08 2.1079040075e-08 2.5310592118e+01" dipole_derivatives="-5.1385098451e-02 2.8815749891e-08 2.9076208038e-09 2.8921198303e-08 -5.1385098486e-02 1.6710964704e-08 1.5654691085e-09 -1.4169221352e-10 -1.5423803372e+01 5.1384838151e-02 -2.8811196392e-08 -2.9144605893e-09 -2.8919550860e-08 5.1384838159e-02 -1.6713854243e-08 -1.5775939582e-09 1.4723725711e-10 1.5423948285e+01" charge=0 multiplicity=2 method=b3lyp basis=def2-svpd config_type=oh_q0_m2 sample_index=38 bond_length=2.500000 units=atomic
O         0.0000000000       0.0000000000       0.0000000000   1.806769852216e-11  -9.692703534602e-12   8.349349248772e-03
H         0.0000000000       0.0000000000       2.5000000000  -1.811510793663e-11   9.709579338352e-12  -8.348188470855e-03
2
Properties=species:S:1:pos:R:3:forces:R:3 energy=-7.551474751636e+01 dipole="-2.3092395993e-15 2.9214438152e-15 1.8728152291e-01" quadrupole="-4.5736451238e+00 4.5031014763e-03 -2.4192635569e-15 4.5031014763e-03 -5.5809530980e+00 -8.4383079310e-14 -2.4192635569e-15 -8.4383079310e-14 -3.4751803263e+00" polarizability="9.3236714133e+00 -5.1746311479e-03 -1.5734607803e-14 -5.1749575140e-03 1.0481218685e+01 1.4497237341e-13 2.5233536224e-12 3.7098830352e-13 2.3838101195e+01" dipole_derivatives="-3.7397091467e-02 3.6009729497e-11 4.6491126155e-12 1.9331772577e-11 -3.7397091481e-02 4.9840468018e-10 1.3210561117e-09 1.0532924359e-09 1.7862058728e-01 3.7398385724e-02 -2.3523257223e-11 -2.4743505953e-14 -3.5833104935e-12 3.7398385722e-02 -4.9532921927e-10 -1.3132190647e-09 -1.0463730576e-09 -1.7861594669e-01" charge=0 multiplicity=2 method=b3lyp basis=def2-svpd config_type=oh_q0_m2 sample_index=39 bond_length=2.650000 units=atomic
O         0.0000000000       0.0000000000       0.0000000000  -4.739769039402e-14  -4.983939620381e-14   5.722981335896e-03
H         0.0000000000       0.0000000000       2.6500000000   9.339483706230e-16   3.103516350614e-16  -5.721849997483e-03
2
Properties=species:S:1:pos:R:3:forces:R:3 energy=-7.551339786326e+01 dipole="1.3958281246e-14 2.0488065821e-14 1.4142233435e-01" quadrupole="-4.5761792092e+00 7.1559554664e-02 6.3868688741e-14 7.1559554664e-02 -5.5692842011e+00 -1.5585449741e-13 6.3868688741e-14 -1.5585449741e-13 -3.6850112989e+00" polarizability="9.4020118220e+00 -8.0432666073e-02 6.7777201248e-15 -8.0431690778e-02 1.0518127333e+01 3.3691847399e-13 2.0024274058e-12 7.7000815747e-13 2.1997348068e+01" dipole_derivatives="-2.6727248113e-02 -1.6654019812e-11 1.0844647801e-09 -7.5905719898e-11 -2.6727248106e-02 -3.2524958465e-10 -2.4036874921e-09 1.9874765896e-09 1.4503318726e-01 2.6728689370e-02 3.8890328426e-11 -1.0904135292e-09 4.0505793695e-11 2.6728689370e-02 3.4883802382e-10 2.3937310467e-09 -1.9647625540e-09 -1.4503527127e-01" charge=0 multiplicity=2 method=b3lyp basis=def2-svpd config_type=oh_q0_m2 sample_index=40 bond_length=2.800000 units=atomic
O         0.0000000000       0.0000000000       0.0000000000  -3.232449408780e-15  -8.297201935772e-14   3.911392856981e-03
H         0.0000000000       0.0000000000       2.8000000000  -1.565299232117e-15   7.635867813677e-15  -3.910431563790e-03
2
Properties=species:S:1:pos:R:3:forces:R:3 energy=-7.551247848593e+01 dipole="5.1309450631e-13 -8.1474791492e-13 1.0482218102e-01" quadrupole="-4.8544396661e+00 4.5221007746e-01 -1.7256899964e-11 4.5221007746e-01 -5.2820798061e+00 2.7206046846e-11 -1.7256899964e-11 2.7206046846e-11 -3.8683244210e+00" polarizability="9.7626521722e+00 -4.9958137136e-01 5.0786040923e-09 -4.9958137815e-01 1.0235074252e+01 -8.0182575374e-09 4.3898719649e-11 -7.3517425039e-11 1.9974190939e+01" dipole_derivatives="-1.8804397009e-02 -7.0428917041e-10 8.3076852074e-11 -6.6680701348e-10 -1.8804396986e-02 -5.3305024371e-11 -7.1539193840e-10 3.5166314305e-10 1.1366326314e-01 1.8804483309e-02 6.8801581802e-10 -8.9504891090e-11 6.8880054201e-10 1.8804483309e-02 4.7941655371e-11 7.2174557997e-10 -3.4188689206e-10 -1.1370023375e-01" charge=0 multiplicity=2 method=b3lyp basis=def2-svpd config_type=oh_q0_m2 sample_index=41 bond_length=2.950000 units=atomic
O         0.0000000000       0.0000000000       0.0000000000  -7.398958114595e-15   3.067160772854e-14   2.653493412469e-03
H         0.0000000000       0.0000000000       2.9500000000  -1.050256860017e-14   7.772414703556e-15  -2.652860921778e-03
2
Properties=species:S:1:pos:R:3:forces:R:3 energy=-7.551185708416e+01 dipole="6.6895271293e-10 5.8324746551e-09 7.6618442042e-02" quadrupole="-4.5773347809e+00 -1.1018635282e-01 -2.9291653179e-08 -1.1018635282e-01 -5.5510450306e+00 -2.6191124815e-07 -2.9291653179e-08 -2.6191124815e-07 -4.0214134986e+00" polarizability="9.4931932475e+00 1.2039476468e-01 -4.5049098751e-07 1.2039478049e-01 1.0557096290e+01 1.0817352805e-07 4.6332412082e-08 -2.7085783163e-07 1.7972112075e+01" dipole_derivatives="-1.3078837546e-02 1.6072871391e-08 -1.4660438349e-05 1.5856608876e-08 -1.3078837543e-02 -9.1523982777e-05 -3.8172568405e-10 9.0690844591e-10 -6.7609033540e+00 1.3079540459e-02 -1.6019984337e-08 1.4392341979e-05 -1.5829875009e-08 1.3079540457e-02 6.2058725343e-05 3.7640095034e-10 -9.1267770251e-10 6.7608365713e+00" charge=0 multiplicity=2 method=b3lyp basis=def2-svpd config_type=oh_q0_m2 sample_index=42 bond_length=3.100000 units=atomic
O         0.0000000000       0.0000000000       0.0000000000  -1.350371774091e-10  -1.586518978470e-09   1.785576056020e-03
H         0.0000000000       0.0000000000       3.1000000000   1.346194750509e-10   1.584656998593e-09  -1.786310547631e-03
2
Properties=species:S:1:pos:R:3:forces:R:3 energy=-7.551049814574e+01 dipole="2.8525923480e-13 9.3230888652e-14 -9.2127888304e-03" quadrupole="-4.5542264049e+00 -1.8039427318e-12 -1.5404557429e-11 -1.8039427318e-12 -4.5542264049e+00 -4.2542740445e-12 -1.5404557429e-11 -4.2542740445e-12 -5.6901340793e+00" polarizability="9.3678988226e+00 1.3309908725e-11 2.5487156989e-11 1.3309411695e-11 9.3678988221e+00 7.1677575094e-12 4.8250652036e-12 1.4101310673e-12 1.1440474570e+01" dipole_derivatives="1.5097572457e-03 -3.0324518162e-11 -9.2334801894e-12 -3.8285068413e-11 1.5097572523e-03 1.5754950528e-11 -1.7203035871e-11 2.1886789256e-11 -1.3524129810e-02 -1.5110969865e-03 -5.2106959324e-12 -1.1705712916e-12 -5.4940656826e-12 -1.5110969864e-03 2.8241283172e-14 1.6132928327e-11 -2.5595844888e-11 1.3464333827e-02" charge=0 multiplicity=2 method=b3lyp basis=def2-svpd config_type=oh_q0_m2 sample_index=43 bond_length=3.250000 units=atomic
O         0.0000000000       0.0000000000       0.0000000000  -3.088920685895e-14  -1.252738677568e-14  -2.282124366267e-04
H         0.0000000000       0.0000000000       3.2500000000  -9.859357488613e-15  -4.077252293412e-15   2.262506419824e-04
2
Properties=species:S:1:pos:R:3:forces:R:3 energy=-7.551054683864e+01 dipole="-3.6656230860e-07 9.7892372975e-08 -5.9749086194e-03" quadrupole="-4.5540842213e+00 1.7126750939e-10 2.6363803490e-05 1.7126750939e-10 -4.5540842209e+00 -7.0413455425e-06 2.6363803490e-05 -7.0413455425e-06 -5.6602349149e+00" polarizability="9.3887001890e+00 -1.2415894363e-09 -8.3504152026e-06 -1.4630588101e-09 9.3887004183e+00 2.2224521167e-06 -8.1212552320e-06 2.0927372099e-06 1.1376526947e+01" dipole_derivatives="9.4241360218e-04 -2.0557938395e-07 -2.6684760284e-10 -2.8286297887e-07 9.4243600158e-04 -6.4471596279e-10 3.5097691897e-09 2.6678930332e-10 4.8106886857e-01 -9.4382673529e-04 2.0533807838e-07 2.7416076333e-10 2.8255491931e-07 -9.4384908823e-04 6.2971027946e-10 -3.5552715286e-09 -2.5803437078e-10 -4.8125501637e-01" charge=0 multiplicity=2 method=b3lyp basis=def2-svpd config_type=oh_q0_m2 sample_index=44 bond_length=3.400000 units=atomic
O         0.0000000000       0.0000000000       0.0000000000  -5.078359581094e-10   7.864934436604e-10  -1.244811086373e-04
H         0.0000000000       0.0000000000       3.4000000000   5.072532619593e-10  -7.856136131709e-10   1.241871539371e-04
2
Properties=species:S:1:pos:R:3:forces:R:3 energy=-7.551057256381e+01 dipole="2.1008505438e-12 -4.9304274437e-13 -3.6435984579e-03" quadrupole="-4.5538677191e+00 -1.4384861013e-11 -1.9556495081e-10 -1.4384861013e-11 -4.5538677191e+00 4.6129207136e-11 -1.9556495081e-10 4.6129207136e-11 -5.6367463725e+00" polarizability="9.4046633974e+00 3.9995994275e-11 2.5592890177e-10 3.9996852108e-11 9.4046634005e+00 -6.0474986577e-11 6.8999241428e-11 -1.6161277765e-11 1.1320507008e+01" dipole_derivatives="5.5247806531e-04 2.0444875810e-11 -4.7221668922e-08 -3.1648254934e-12 5.5247806187e-04 3.5226935408e-08 6.2597496631e-12 2.8799120207e-11 -2.8720800810e-01 -5.6060767855e-04 5.2870389127e-12 4.7581400197e-08 5.1785911625e-12 -5.6060767925e-04 -3.5051584439e-08 -5.9161659946e-12 -1.2354483755e-12 2.8747983291e-01" charge=0 multiplicity=2 method=b3lyp basis=def2-svpd config_type=oh_q0_m2 sample_index=45 bond_length=3.550000 units=atomic
O         0.0000000000       0.0000000000       0.0000000000   4.654511895024e-14  -4.576507308062e-14  -6.372875009142e-05
H         0.0000000000       0.0000000000       3.5500000000  -5.726798685634e-14   1.705605007451e-14   6.312227779055e-05
2
Properties=species:S:1:pos:R:3:forces:R:3 energy=-7.551059042919e+01 dipole="-4.3634900220e-09 -6.6651975777e-09 -7.5634707661e-04" quadrupole="-4.5532439468e+00 3.0250306654e-11 6.4778188184e-07 3.0250306654e-11 -4.5532439467e+00 9.8948244090e-07 6.4778188184e-07 9.8948244090e-07 -5.6030004564e+00" polarizability="9.4239219401e+00 -8.3996398906e-10 -7.4420682227e-07 -8.3987066349e-10 9.4239219296e+00 -1.1367710504e-06 -2.7113036798e-07 -4.1417993110e-07 1.1213913386e+01" dipole_derivatives="1.2024581011e-04 -1.0461343350e-08 -1.2072442095e-06 -1.0758261631e-08 1.2024276616e-04 2.0680884950e-06 -4.0119220879e-11 -7.6023970105e-09 -3.6513244572e-03 -1.2856161040e-04 1.0427847124e-08 1.2006173317e-06 1.0700021382e-08 -1.2855857577e-04 -2.0567385540e-06 4.6754375545e-11 7.6745253490e-09 3.4470572723e-03" charge=0 multiplicity=2 method=b3lyp basis=def2-svpd config_type=oh_q0_m2 sample_index=47 bond_length=3.850000 units=atomic
O         0.0000000000       0.0000000000       0.0000000000   1.722996724995e-11   7.674594367760e-11  -1.081772047366e-05
H         0.0000000000       0.0000000000       3.8500000000  -1.715120733470e-11  -7.635921223212e-11   1.019878186198e-05
2
Properties=species:S:1:pos:R:3:forces:R:3 energy=-7.551059185520e+01 dipole="7.0902355226e-11 -1.5325018811e-10 7.6810714044e-05" quadrupole="-4.5528578968e+00 -2.0347988279e-11 -1.3102375773e-08 -2.0347988279e-11 -4.5528578968e+00 2.8320775207e-08 -1.3102375773e-08 2.8320775207e-08 -5.5907978116e+00" polarizability="9.4282112815e+00 9.0236271131e-09 1.4456854789e-08 9.0696508331e-09 9.4282114030e+00 -3.1248441641e-08 2.3210269722e-09 -5.0711203785e-09 1.1159635337e+01" dipole_derivatives="1.9873443749e-05 4.3543769770e-12 2.0286945447e-08 8.8575218288e-12 1.9873434554e-05 -2.7145463074e-08 3.0706014988e-11 1.0704219629e-11 -2.2952819085e-03 -1.6516263285e-05 -5.5377312911e-12 -2.0410523483e-08 -5.7144359303e-12 -1.6516262277e-05 2.7279298632e-08 -1.9776904723e-11 -1.0643748253e-11 2.3991953648e-03" charge=0 multiplicity=2 method=b3lyp basis=def2-svpd config_type=oh_q0_m2 sample_index=48 bond_length=4.000000 units=atomic
O         0.0000000000       0.0000000000       0.0000000000  -1.043289660991e-12   3.680857896314e-13  -1.301294593347e-07
H         0.0000000000       0.0000000000       4.0000000000   1.023240722663e-12  -3.728421341636e-13  -3.759136021889e-07
2
Properties=species:S:1:pos:R:3:forces:R:3 energy=-7.551059071418e+01 dipole="-2.2268812271e-07 6.0803536638e-08 5.9734085853e-04" quadrupole="-4.5524446299e+00 7.1484634827e-10 4.8963375680e-05 7.1484634827e-10 -4.5524446275e+00 -1.3370861597e-05 4.8963375680e-05 -1.3370861597e-05 -5.5810978876e+00" polarizability="9.4300327120e+00 -8.8206191505e-10 -2.7258853714e-05 -8.8463337130e-10 9.4300325229e+00 7.4613943311e-06 -2.7259203451e-05 7.4740906290e-06 1.1110692106e+01" dipole_derivatives="-4.3118129298e-05 -1.6963170511e-07 1.1762819840e-10 -2.5005602772e-07 -4.2855861493e-05 3.2055151871e-10 4.8586007369e-08 3.9582860373e-08 -1.4954818127e-03 4.5702811088e-05 1.7054282763e-07 -1.1854310240e-10 2.5142551754e-07 4.5439083782e-05 -3.2700955540e-10 -4.9025952433e-08 -3.9922170116e-08 1.3214967424e-03" charge=0 multiplicity=2 method=b3lyp basis=def2-svpd config_type=oh_q0_m2 sample_index=49 bond_length=4.150000 units=atomic
O         0.0000000000       0.0000000000       0.0000000000  -2.135884256921e-10   5.361718071049e-11   7.022099642785e-06
H         0.0000000000       0.0000000000       4.1500000000   2.146632924502e-10  -5.391431455579e-11  -6.529594821906e-06
2
Properties=species:S:1:pos:R:3:forces:R:3 energy=-7.551058814934e+01 dipole="1.3664626907e-12 1.4846952826e-13 8.8826850273e-04" quadrupole="-4.5520223065e+00 2.4809613143e-11 -3.5835157783e-10 2.4809613143e-11 -4.5520223068e+00 -3.6414194649e-11 -3.5835157783e-10 -3.6414194649e-11 -5.5733611363e+00" polarizability="9.4312013417e+00 8.0666578113e-10 3.7625938456e-10 8.0626379291e-10 9.4312014212e+00 3.8195722505e-11 3.3343234130e-10 3.4203890425e-11 1.1056833547e+01" dipole_derivatives="-7.1795858705e-05 -1.9591641217e-11 -9.9492967321e-07 8.6040089250e-12 -7.1795878181e-05 -9.0093731656e-08 -2.2992648367e-11 -8.3741038192e-11 -4.7587002730e-04 7.8216701101e-05 1.9382277639e-12 1.0030816240e-06 2.1016201666e-12 7.8216699045e-05 9.0834242542e-08 2.6987960478e-11 7.8007560264e-11 7.1887287282e-04" charge=0 multiplicity=2 method=b3lyp basis=def2-svpd config_type=oh_q0_m2 sample_index=50 bond_length=4.300000 units=atomic
O         0.0000000000       0.0000000000       0.0000000000   1.752820334984e-14  -2.054983814920e-14   1.151723448636e-05
H         0.0000000000       0.0000000000       4.3000000000  -4.082673501543e-15  -1.526739002989e-15  -1.174260527039e-05
2
Properties=species:S:1:pos:R:3:forces:R:3 energy=-7.551057944732e+01 dipole="-1.3191744799e-11 -2.1052433919e-12 9.0893528650e-04" quadrupole="-4.5512310390e+00 -9.1918406777e-12 4.6896652984e-09 -9.1918406777e-12 -4.5512310389e+00 7.4445997710e-10 4.6896652984e-09 7.4445997710e-10 -5.5635815966e+00" polarizability="9.4382874513e+00 -2.1275582692e-10 -4.7973311143e-09 -1.9825028883e-10 9.4382873685e+00 -7.6145549546e-10 -5.2554292599e-09 -8.5639755546e-10 1.0961196499e+01" dipole_derivatives="-8.7180672583e-05 1.2926918607e-10 -4.0651211350e-09 1.2109982897e-10 -8.7180683640e-05 -1.9077703625e-09 1.2235444456e-10 6.9565413271e-11 5.4349838497e-04 7.6442811823e-05 -1.2369151991e-10 3.8252559531e-09 -1.2608726081e-10 7.6442832466e-05 1.7904518057e-09 -1.1104679188e-10 -8.3407103923e-11 -3.0045109424e-04" charge=0 multiplicity=2 method=b3lyp basis=def2-svpd config_type=oh_q0_m2 sample_index=52 bond_length=4.600000 units=atomic
O         0.0000000000       0.0000000000       0.0000000000  -7.403758368097e-14  -9.290702835205e-15   1.786899502610e-05
H         0.0000000000       0.0000000000       4.6000000000   6.032979877380e-14   5.744277529002e-15  -1.708808075127e-05
2
Properties=species:S:1:pos:R:3:forces:R:3 energy=-7.551057417747e+01 dipole="-5.3304558418e-11 1.5022546882e-10 7.5888852523e-04" quadrupole="-4.5508930118e+00 -1.1098418594e-10 2.1766303494e-08 -1.1098418594e-10 -4.5508930114e+00 -6.1342537753e-08 2.1766303494e-08 -6.1342537753e-08 -5.5608407219e+00" polarizability="9.4496888724e+00 2.0766044562e-09 -2.2101679711e-08 -3.1476389391e-10 9.4496889916e+00 6.2287564212e-08 -1.7533606973e-08 2.7330791884e-08 1.0922164205e+01" dipole_derivatives="-1.0671222222e-04 -1.3465383715e-11 -6.5496753534e-09 -1.5129858242e-11 -1.0671220771e-04 3.1233272051e-09 4.5351417934e-11 5.6342531010e-11 2.8952873036e-03 5.1556926349e-05 5.5290238123e-12 4.1153130230e-09 5.2857361962e-12 5.1556940600e-05 -2.7028993371e-09 -2.1123971712e-11 -4.4887067696e-11 -2.7775901027e-03" charge=0 multiplicity=2 method=b3lyp basis=def2-svpd config_type=oh_q0_m2 sample_index=53 bond_length=4.750000 units=atomic
O         0.0000000000       0.0000000000       0.0000000000  -3.453077652137e-13   3.353440154840e-13   1.726582897605e-05
H         0.0000000000       0.0000000000       4.7500000000   2.841973618611e-13  -2.628851415575e-13  -1.802088318367e-05
2
Properties=species:S:1:pos:R:3:forces:R:3 energy=-7.551057858111e+01 dipole="-1.6992690872e-11 1.3684882653e-10 2.7019273372e-03" quadrupole="-4.5651618245e+00 1.1929299800e-01 8.8235484626e-09 1.1929299800e-01 -5.5306478475e+00 -7.2441451506e-08 8.8235484626e-09 -7.2441451506e-08 -4.5120676667e+00" polarizability="9.5802394055e+00 -1.2718765987e-01 -9.0710446621e-09 -1.2718762317e-01 1.0608916516e+01 7.3538148812e-08 -6.2703352392e-09 5.7088012951e-08 9.9100546240e+00" dipole_derivatives="-2.8411640081e-04 8.3186640178e-09 -3.3183657740e-09 8.5849609723e-09 -2.8411638322e-04 9.2392854927e-10 -4.0823596538e-11 -3.3195234755e-11 1.8518853864e-03 2.8199380392e-04 -6.4809797163e-09 2.2521153933e-09 -6.6987504193e-09 2.8199378827e-04 -7.4605446431e-10 7.7430137904e-11 3.8470684700e-11 -1.9360544119e-03" charge=0 multiplicity=2 method=b3lyp basis=def2-svpd config_type=oh_q0_m2 sample_index=55 bond_length=5.050000 units=atomic
O         0.0000000000       0.0000000000       0.0000000000  -5.596847233374e-14  -4.554346184380e-13   2.530985998020e-05
H         0.0000000000       0.0000000000       5.0500000000   5.476544160316e-14   2.941053351721e-13  -2.393949337999e-05
2
Properties=species:S:1:pos:R:3:forces:R:3 energy=-7.548394917057e+01 dipole="-3.0350006022e-13 -1.8747069348e-14 1.9465563005e-03" quadrupole="-4.6041293593e+00 -1.3784682185e-01 4.4341294347e-12 -1.3784682185e-01 -5.5067150272e+00 3.7784057337e-11 4.4341294347e-12 3.7784057337e-11 -4.5554684788e+00" polarizability="-7.5972562773e+00 -1.1587046429e+02 -1.6634328382e-11 -1.1587047493e+02 -7.7186691395e+02 -3.4968704048e-11 -1.5617876076e-08 9.9592512947e-07 9.8126469856e+00" dipole_derivatives="-2.2724601249e-04 -4.0136162064e-05 3.2614017962e-09 -5.7815348436e-06 -2.4417028665e-04 -8.1674895314e-08 -1.2628378335e-05 -4.4321193681e-03 5.8632463414e-03 1.9989098635e-04 2.9051431588e-05 -2.2338954188e-08 1.6254252726e-05 2.3285025357e-04 3.3714386705e-07 1.3675006819e-05 4.3466055731e-03 -5.7668350109e-03" charge=0 multiplicity=2 method=b3lyp basis=def2-svpd config_type=oh_q0_m2 sample_index=56 bond_length=5.200000 units=atomic
O         0.0000000000       0.0000000000       0.0000000000   2.185557620382e-14  -3.716236552793e-14   9.602396813076e-06
H         0.0000000000       0.0000000000       5.2000000000   3.676085589811e-15  -6.237122742295e-16  -1.067514602207e-05
