7
Properties=species:S:1:pos:R:3:forces:R:3 energy=-6.997826480438e+02 dipole="1.1639751187e-01 2.5781997087e-01 -1.3100943524e+00" quadrupole="-2.3599911315e+01 -3.7757285074e+00 -3.8024670165e-01 -3.7757285074e+00 -2.8454368567e+01 4.0035863443e-01 -3.8024670165e-01 4.0035863443e-01 -2.6122100490e+01" polarizability="3.4858800453e+01 -1.2320952075e+00 -9.9964521853e-01 -1.2320952075e+00 3.7624076401e+01 -7.3203525038e-01 -9.9964521853e-01 -7.3203525038e-01 3.5316098614e+01" charge=0 multiplicity=1 method=wB97M-V basis=def2-svpd config_type=h2so4 sample_index=0 temperature=300.0 units=atomic
S         0.0039343722       0.0223548889       0.1597260329   2.295287255755e-02  -1.412612319096e-01  -1.955856928508e-04
O        -0.0483652792       1.2422598461       0.8160272098   9.405145211512e-03   7.788763086669e-02   3.856158596574e-02
O        -0.0068389628      -1.2950325355       0.8538665409   4.979739905000e-03   4.585114411395e-02  -2.206901021094e-02
O         1.2254656341       0.0340408364      -0.8935525918  -1.522471279966e-02   6.890581965776e-02   1.998262082849e-02
O        -1.1933919448      -0.0318580062      -0.8307884869  -1.869909185511e-02  -4.991358240687e-02  -9.256466430040e-03
H         1.6309151602      -0.7268935743      -1.2206111254   1.217521657834e-02  -5.211174160600e-02  -8.086342786311e-03
H        -1.3881668175       0.8266231271      -1.1060041528  -1.558562035457e-02   5.064690719974e-02  -1.902897457580e-02
7
Properties=species:S:1:pos:R:3:forces:R:3 energy=-6.997940394426e+02 dipole="1.3708172541e-01 1.6380603719e-01 -1.0239057181e+00" quadrupole="-2.4096175015e+01 -4.1958286503e+00 3.1318688936e-01 -4.1958286503e+00 -2.7967461266e+01 -9.9899305930e-02 3.1318688936e-01 -9.9899305930e-02 -2.7637919573e+01" polarizability="3.7698150412e+01 -2.0278538245e+00 -2.4651895453e-01 -2.0278538245e+00 4.0381013824e+01 -6.2231857603e-02 -2.4651895453e-01 -6.2231857603e-02 3.6202040109e+01" charge=0 multiplicity=1 method=wB97M-V basis=def2-svpd config_type=h2so4 sample_index=1 temperature=300.0 units=atomic
S         0.0249511630       0.0317062235       0.1502135909  -2.291318384745e-02  -5.742728089099e-02   1.504905035785e-02
O        -0.0641336256       1.2934862912       0.8464107053   1.109123733773e-02   2.964710747015e-04  -4.538266119736e-03
O         0.0037118126      -1.3053076981       0.8014181964   1.055492592492e-02   4.127084119393e-02  -1.286448404199e-02
O         1.2782878243       0.0091075572      -0.8830700184  -3.345201125368e-03  -1.716010430360e-02   1.119001846296e-02
O        -1.2706366660      -0.0578956899      -0.8305230822   5.661071622679e-03   4.214342652194e-02  -5.727001729959e-03
H         1.5492623839      -0.9511325853      -0.8592276804  -2.196181097748e-03   2.156913161568e-02  -4.476401268320e-03
H        -1.4996337799       0.9064753805      -1.0126219621   1.214467211616e-03  -3.070783206440e-02   1.362796969520e-03
7
Properties=species:S:1:pos:R:3:forces:R:3 energy=-6.997818481367e+02 dipole="1.7762435643e-01 -1.9841883734e-01 -7.1681976013e-01" quadrupole="-2.4265552090e+01 -4.1896115837e+00 -3.3623062340e-01 -4.1896115837e+00 -2.7338564925e+01 -1.3465642768e-01 -3.3623062340e-01 -1.3465642768e-01 -2.7881850789e+01" polarizability="3.6859374935e+01 -2.2542501253e+00 4.8431165724e-01 -2.2542501253e+00 3.8615301921e+01 8.5473098541e-01 4.8431165724e-01 8.5473098541e-01 3.4741692298e+01" charge=0 multiplicity=1 method=wB97M-V basis=def2-svpd config_type=h2so4 sample_index=2 temperature=300.0 units=atomic
S         0.0025911349      -0.0148015983       0.1745247860  -1.473553652133e-02   1.056766910834e-01  -6.591169413258e-02
O        -0.0290314682       1.2913549640       0.8149433227  -2.749958256141e-03  -1.267361820840e-02  -6.865696700924e-04
O         0.0564563269      -1.2437669573       0.7764230126  -2.051635325849e-03  -1.086006497833e-01   6.631533141905e-02
O         1.2392646610       0.0190377906      -0.8384546343   2.681601038664e-02  -5.632672339179e-02  -6.378032325811e-03
O        -1.2801233481      -0.0349432395      -0.8783591678   2.016357327427e-02   2.974433804820e-02   2.345782484974e-02
H         1.5748425671      -0.9794269899      -0.8459900423  -1.581259252107e-02   5.889108247215e-02  -4.408280937036e-03
H        -1.4423021293       0.9425089873      -0.8468443762  -1.162653944755e-02  -1.674962242596e-02  -1.241250449632e-02
7
Properties=species:S:1:pos:R:3:forces:R:3 energy=-6.997872582160e+02 dipole="-3.6427139402e-01 4.6367044928e-02 -1.1727764709e+00" quadrupole="-2.4139318448e+01 -3.6359056779e+00 7.4670977689e-02 -3.6359056779e+00 -2.7902592452e+01 4.4213898228e-01 7.4670977689e-02 4.4213898228e-01 -2.6430795027e+01" polarizability="3.6394372741e+01 -2.8711154958e+00 1.1871014950e+00 -2.8711154958e+00 3.8922699505e+01 4.6577664326e-01 1.1871014950e+00 4.6577664326e-01 3.6725070614e+01" charge=0 multiplicity=1 method=wB97M-V basis=def2-svpd config_type=h2so4 sample_index=3 temperature=300.0 units=atomic
S        -0.0005614366       0.0063569610       0.1787922961  -1.495249990342e-02   2.948248294845e-02  -2.088555644087e-02
O        -0.0643967517       1.2799872758       0.8670792066   6.699216117003e-03  -8.256361714103e-03  -6.383091671619e-03
O         0.1084423867      -1.2502040274       0.8347602401  -1.897200024014e-02  -2.779144946585e-02   2.119696641761e-02
O         1.2027686154      -0.0448089043      -0.8513803465   1.867480837685e-02   3.380165473466e-02  -6.093179845216e-03
O        -1.2092016036      -0.0000044143      -0.9411296396  -2.785802826764e-02   3.522048644872e-02   7.132757267032e-03
H         1.1654799845      -0.8715527187      -1.3267815758   8.111686290553e-04  -1.436739744440e-02  -6.046815309681e-03
H        -1.7414032040       0.8979940207      -1.0097224396   3.567139200247e-02  -4.810483935143e-02   1.102697342322e-02
7
Properties=species:S:1:pos:R:3:forces:R:3 energy=-6.997600926170e+02 dipole="3.1184592481e-01 -8.3742400439e-02 -1.3304475948e+00" quadrupole="-2.1656748140e+01 -4.9049530570e+00 7.0137635009e-01 -4.9049530570e+00 -2.8004561078e+01 -8.9204633707e-01 7.0137635009e-01 -8.9204633707e-01 -2.6888477149e+01" polarizability="3.8130640653e+01 -3.8656517087e+00 1.8473562864e-01 -3.8656517087e+00 3.9521555094e+01 -2.8673957613e-01 1.8473562864e-01 -2.8673957613e-01 3.7350442459e+01" charge=0 multiplicity=1 method=wB97M-V basis=def2-svpd config_type=h2so4 sample_index=4 temperature=300.0 units=atomic
S         0.0317421944      -0.0026424447       0.1536289282  -3.103972682588e-02   6.888575210117e-02  -8.226673748589e-03
O        -0.0648692216       1.2428599182       0.8865958836   1.626054021946e-02   3.866136686245e-03  -6.616422988818e-03
O        -0.0039105895      -1.2191629479       0.8393071242   7.252890167942e-03  -6.768147054455e-02   3.012721421301e-02
O         1.1813491503       0.0149226623      -0.9227803308   7.736203196350e-02  -6.418769943077e-02  -1.122397233313e-02
O        -1.1889471189      -0.0322217568      -0.8507594976  -5.891282798701e-02   5.534661584375e-02  -5.388068015591e-02
H         1.8065763117      -0.9107747114      -0.9230874807  -5.395094297586e-02   7.269187627587e-02   4.909942177085e-03
H        -1.5990945652       0.8945232739      -1.3062475577   4.301876781663e-02  -6.892450637681e-02   4.483430402321e-02
7
Properties=species:S:1:pos:R:3:forces:R:3 energy=-6.997606153391e+02 dipole="-3.8725560355e-01 -1.2097452331e-03 -9.1965631983e-01" quadrupole="-2.1743742603e+01 -5.0824409452e+00 1.4587491969e+00 -5.0824409452e+00 -2.7720502114e+01 -7.6619101018e-01 1.4587491969e+00 -7.6619101018e-01 -2.8018561821e+01" polarizability="4.0003085774e+01 -4.3098272537e+00 8.7267150684e-01 -4.3098272537e+00 4.0954894738e+01 3.0861632392e-01 8.7267150684e-01 3.0861632392e-01 3.7058823758e+01" charge=0 multiplicity=1 method=wB97M-V basis=def2-svpd config_type=h2so4 sample_index=5 temperature=300.0 units=atomic
S        -0.0264080996       0.0178560548       0.1694086636   2.908100203696e-02   5.887374266486e-02  -3.137682416028e-02
O        -0.0325511110       1.2909613647       0.8864087567  -2.033013567707e-03  -1.895918960971e-02  -1.368510936447e-02
O         0.0715213387      -1.2467162580       0.7815534210  -1.042808079405e-02  -5.024941886415e-02   3.652353083648e-02
O         1.2428372173      -0.0289823043      -0.8927132222   2.100130429620e-02  -6.071210574203e-02   1.854410609203e-02
O        -1.2177568356      -0.0422315796      -0.8801904872  -6.698216698865e-02   6.878138307229e-02  -2.551413189171e-02
H         1.6628595684      -1.0360927460      -0.7526603262  -3.237259411167e-02   7.686767530536e-02  -1.066902747331e-02
H        -1.8434977470       0.8915541602      -1.0908502720   6.173137566461e-02  -7.462568534672e-02   2.607152988991e-02
7
Properties=species:S:1:pos:R:3:forces:R:3 energy=-6.997685353328e+02 dipole="-5.1998147902e-01 8.8231794161e-02 -9.8391928570e-01" quadrupole="-2.2531875981e+01 -4.6646711140e+00 -9.3655884241e-02 -4.6646711140e+00 -2.8283658578e+01 6.3774578360e-01 -9.3655884241e-02 6.3774578360e-01 -2.6742526117e+01" polarizability="3.9536302182e+01 -2.9268020811e+00 -2.6819844682e-01 -2.9268020811e+00 4.0449027561e+01 -1.9434948960e-01 -2.6819844682e-01 -1.9434948960e-01 3.6422842130e+01" charge=0 multiplicity=1 method=wB97M-V basis=def2-svpd config_type=h2so4 sample_index=6 temperature=300.0 units=atomic
S        -0.0160053620       0.0005583046       0.1901029896   2.798910994649e-02  -1.411030113231e-02  -5.248285860581e-02
O        -0.0009813218       1.2881134193       0.7872501689  -7.212285778513e-04   2.408428390894e-02   2.560895881238e-02
O        -0.0087268877      -1.2906351148       0.8100717174   2.505434776743e-03  -8.123124766374e-03   1.664541859533e-02
O         1.2756710744       0.0550965659      -0.8629017941  -1.230550282398e-02  -5.612249931772e-03   9.369769555954e-03
O        -1.2057877900      -0.0590519061      -0.8626403162  -7.925161483343e-02   7.737194692834e-02  -1.138599796531e-02
H         1.4584579380      -0.8072233017      -1.2946927063  -6.943858913510e-03   7.886459018968e-03   9.945119200204e-03
H        -1.9055090345       0.8880244838      -0.8478588732   6.874455668807e-02  -8.144084206831e-02   2.281843718410e-03
7
Properties=species:S:1:pos:R:3:forces:R:3 energy=-6.997489400223e+02 dipole="1.9453665147e-01 -1.1957332633e-01 -6.9784801860e-01" quadrupole="-2.1455919045e+01 -5.2476513328e+00 1.9026388154e-01 -5.2476513328e+00 -2.7770539200e+01 -3.5130950134e-01 1.9026388154e-01 -3.5130950134e-01 -2.9011339036e+01" polarizability="4.0511927243e+01 -3.6376638086e+00 4.7868685693e-02 -3.6376638086e+00 3.9926102488e+01 5.1968836330e-01 4.7868685693e-02 5.1968836330e-01 3.6250318709e+01" charge=0 multiplicity=1 method=wB97M-V basis=def2-svpd config_type=h2so4 sample_index=7 temperature=300.0 units=atomic
S         0.0028772078      -0.0012294858       0.1561622775   4.634466677556e-05   5.444862105376e-02  -5.262885252510e-02
O         0.0106980479       1.2465232191       0.8676628633  -7.936436756462e-03   1.642474634577e-02   8.904504251586e-04
O        -0.0122697642      -1.2181640058       0.8232107890   7.307063358693e-03  -8.237675590956e-02   4.315729946929e-02
O         1.2316489379       0.0566032486      -0.9026153779   5.652856769996e-02  -9.686164690820e-02   2.747684598518e-02
O        -1.2489572943      -0.0769272318      -0.8910220127  -1.670397779365e-02   7.085009463813e-02   1.527064022750e-02
H         1.8864950135      -0.9713038875      -0.6513017274  -5.963931326484e-02   9.286776516508e-02  -2.423581074113e-02
H        -1.6773798235       0.8816069121      -0.8115334898   2.039139574474e-02  -5.537229917058e-02  -1.005954778054e-02
7
Properties=species:S:1:pos:R:3:forces:R:3 energy=-6.997819679305e+02 dipole="-1.6441489913e-01 -1.0760010604e-01 -1.4366766030e+00" quadrupole="-2.3681170342e+01 -4.0910956818e+00 -7.3862504098e-01 -4.0910956818e+00 -2.8567175863e+01 5.0189997764e-01 -7.3862504098e-01 5.0189997764e-01 -2.5695905419e+01" polarizability="3.6955007330e+01 -1.1003181984e+00 -6.3655998383e-01 -1.1003181984e+00 3.8584847212e+01 1.3961402999e+00 -6.3655998383e-01 1.3961402999e+00 3.7646736074e+01" charge=0 multiplicity=1 method=wB97M-V basis=def2-svpd config_type=h2so4 sample_index=8 temperature=300.0 units=atomic
S        -0.0296775061      -0.0117388229       0.1519759100   3.220566692154e-02   3.486300656586e-02  -3.897924600547e-03
O         0.0672398043       1.2602141938       0.8487998943  -1.845682662421e-02  -6.183941108564e-03  -1.037608435729e-02
O        -0.0040633880      -1.2392322131       0.8572701749  -6.172701496307e-03  -3.504980067514e-02   1.186989949411e-02
O         1.2436137888       0.0904653647      -0.8355634397   2.318674617256e-02  -5.724381010826e-02  -4.833483379207e-02
O        -1.2437250635      -0.0859275855      -0.8996016647   2.083741837688e-02  -5.806399289319e-02   1.674524379595e-02
H         1.5168241156      -0.7843086185      -1.4193619814  -2.795724247595e-02   5.847874293429e-02   4.718620792772e-02
H        -1.5773590495       0.7475949570      -1.0677186283  -2.370686349502e-02   6.329419464700e-02  -1.323752342708e-02
7
Properties=species:S:1:pos:R:3:forces:R:3 energy=-6.997739669927e+02 dipole="-1.8422414404e-01 1.0007475716e-01 -1.5183542928e+00" quadrupole="-2.3759186942e+01 -4.2475100154e+00 -3.4346165869e-01 -4.2475100154e+00 -2.8782139645e+01 7.0394171547e-01 -3.4346165869e-01 7.0394171547e-01 -2.6483243563e+01" polarizability="3.7166633943e+01 -1.3039025717e+00 1.7243492977e-01 -1.3039025717e+00 4.1510851121e+01 7.2857509841e-01 1.7243492977e-01 7.2857509841e-01 3.8909467434e+01" charge=0 multiplicity=1 method=wB97M-V basis=def2-svpd config_type=h2so4 sample_index=9 temperature=300.0 units=atomic
S         0.0166238954       0.0157818897       0.1462363645  -1.810777888526e-02  -1.679851380840e-02   6.730159776014e-02
O         0.0418228519       1.2947333494       0.9050771606  -6.074051800048e-03  -3.745666393737e-02  -3.537642631645e-02
O        -0.0704317410      -1.2756238521       0.8744288362   1.700608999330e-02   3.584475872092e-02  -2.169114836662e-02
O         1.1976879722       0.0879257744      -0.8879491341   3.006029596681e-02  -4.406148011402e-02  -3.331668832404e-02
O        -1.1764203616      -0.1413430973      -0.9147459412  -5.512433391884e-02   9.256554290912e-02  -5.151193368876e-03
H         1.2748591191      -0.8079397137      -1.4090548114  -4.592131891722e-03   4.429240549672e-02   2.746780447699e-02
H        -1.6795913733       0.8425331575      -0.9699761371   3.683672539384e-02  -7.440111780894e-02   7.226047512511e-04
7
Properties=species:S:1:pos:R:3:forces:R:3 energy=-6.997726937791e+02 dipole="-2.2914100636e-01 8.5837959620e-02 -1.4597867305e+00" quadrupole="-2.1913268006e+01 -5.0211372457e+00 4.3293643977e-01 -5.0211372457e+00 -2.8452254618e+01 6.9325546871e-02 4.3293643977e-01 6.9325546871e-02 -2.6287958999e+01" polarizability="4.0315219437e+01 -3.1506442678e+00 -2.6033079401e-01 -3.1506442678e+00 4.0579694354e+01 -5.1774562198e-01 -2.6033079401e-01 -5.1774562198e-01 3.7842304053e+01" charge=0 multiplicity=1 method=wB97M-V basis=def2-svpd config_type=h2so4 sample_index=10 temperature=300.0 units=atomic
S        -0.0154051902       0.0069279312       0.1321244382   3.021457083840e-02  -3.333025791931e-02   1.682769545082e-02
O        -0.0062624662       1.2563957713       0.8283249528   2.056501224074e-03   1.844506785989e-02   3.788732717753e-03
O        -0.0020950349      -1.2742199998       0.8401152636  -1.041728871956e-03   1.735329237932e-02  -1.615897077173e-02
O         1.3103930134       0.0524757165      -0.8517124737   9.261494981317e-03  -4.187828723493e-02  -1.740539802396e-02
O        -1.2679315373      -0.0481396187      -0.8170000888  -5.443402952697e-02   5.023322305199e-02  -4.825072710780e-02
H         1.7324815418      -0.8635025774      -1.1794944008  -3.721178422965e-02   5.176874655402e-02   2.748518997043e-02
H        -1.7871220992       0.8593797230      -1.1653612383   5.113424822650e-02  -6.262785559476e-02   3.358094931532e-02
7
Properties=species:S:1:pos:R:3:forces:R:3 energy=-6.997782650138e+02 dipole="-9.4786761647e-02 3.1345552679e-02 -1.3735403411e+00" quadrupole="-2.5090791957e+01 -3.5696796399e+00 3.7339688964e-01 -3.5696796399e+00 -2.8572416678e+01 -4.2208870060e-01 3.7339688964e-01 -4.2208870060e-01 -2.6010191360e+01" polarizability="3.5639873960e+01 -1.7574914193e+00 6.9987933237e-01 -1.7574914193e+00 4.0714427695e+01 -6.6980672168e-02 6.9987933237e-01 -6.6980672168e-02 3.4831023025e+01" charge=0 multiplicity=1 method=wB97M-V basis=def2-svpd config_type=h2so4 sample_index=11 temperature=300.0 units=atomic
S         0.0083873003       0.0007617030       0.1459133410  -1.993711172586e-02   4.960606065692e-02   6.103968467877e-02
O        -0.0394926332       1.3520528158       0.8021254714   7.476585747957e-03  -5.829960815009e-02  -2.027748517252e-02
O         0.0352695381      -1.3157286367       0.7517209782  -3.565994095808e-03   7.039187831346e-03   1.135134497632e-02
O         1.2559507938       0.0105076184      -0.7915321169   1.248958833035e-02   9.210283604191e-02   5.596491719356e-03
O        -1.2576573882      -0.0548188414      -0.7985497866  -2.170040400335e-02   6.040053793974e-02  -3.940195670155e-02
H         1.2728205603      -0.8351406701      -1.0848195625   1.643989420758e-02  -9.193762008242e-02  -3.857292531327e-02
H        -1.4426421888       0.9334434484      -1.1318151250   8.840053633959e-03  -5.892229213761e-02   2.025270731849e-02
7
Properties=species:S:1:pos:R:3:forces:R:3 energy=-6.997880441090e+02 dipole="3.4317492445e-01 -1.4876213795e-01 -1.3671138313e+00" quadrupole="-2.2940334919e+01 -4.0551323183e+00 -3.3528570597e-01 -4.0551323183e+00 -2.8652705120e+01 -6.3448458678e-01 -3.3528570597e-01 -6.3448458678e-01 -2.6963021218e+01" polarizability="3.5740388127e+01 -1.9147833370e+00 3.9395374516e-02 -1.9147833370e+00 3.9476619299e+01 5.3070337150e-01 3.9395374516e-02 5.3070337150e-01 3.5767713012e+01" charge=0 multiplicity=1 method=wB97M-V basis=def2-svpd config_type=h2so4 sample_index=12 temperature=300.0 units=atomic
S        -0.0059327098      -0.0193888348       0.1388304789  -1.389024368859e-03   6.251898350926e-02   6.532274923954e-02
O        -0.0051885995       1.3074353810       0.8576113069  -3.830624275518e-03  -5.528236434163e-02  -3.361939349513e-02
O         0.0312327601      -1.2671674542       0.8280589681  -4.109070405585e-03  -2.216878594290e-02   1.234118270977e-02
O         1.1769716560       0.0356840825      -0.8532850411   6.420273028568e-02  -2.122486318020e-02  -3.884217158463e-02
O        -1.2198099341      -0.0427131988      -0.8589374581  -1.677202825152e-02   1.009796231300e-02  -1.275130422802e-02
H         1.7582186744      -0.7943365832      -0.9594146279  -3.052550840829e-02   3.031690843298e-02   9.948264605359e-03
H        -1.3044864223       0.8843572077      -1.1528484008  -7.609619472988e-03  -4.228429755610e-03  -2.549646574450e-03
7
Properties=species:S:1:pos:R:3:forces:R:3 energy=-6.997551063961e+02 dipole="2.1018588229e-01 1.5586117962e-01 -1.4467470235e+00" quadrupole="-2.6204236426e+01 -3.5493213008e+00 -1.3472864128e-01 -3.5493213008e+00 -2.8293914289e+01 -2.7544257494e-01 -1.3472864128e-01 -2.7544257494e-01 -2.4891623475e+01" polarizability="3.8898406104e+01 -8.8505732248e-01 1.1782111714e+00 -8.8505732248e-01 4.1817047553e+01 -1.5631770801e+00 1.1782111714e+00 -1.5631770801e+00 4.0737841056e+01" charge=0 multiplicity=1 method=wB97M-V basis=def2-svpd config_type=h2so4 sample_index=13 temperature=300.0 units=atomic
S        -0.0003205535       0.0306250157       0.1753099558  -1.390436592430e-02  -7.935601997621e-02  -2.561958846223e-02
O         0.0540635837       1.2689105629       0.8603040503  -7.012466110039e-03   2.987517662557e-02   1.176314679974e-02
O        -0.0217566317      -1.2901476744       0.8235856302   5.197964763700e-03   2.939419760683e-02  -7.199013849815e-03
O         1.2665500674       0.0895743610      -0.8648631292  -4.355578077998e-03  -3.809064348367e-02  -9.212133211941e-03
O        -1.3168960678      -0.1301152061      -0.8766449184   4.975036957154e-02   1.090201017943e-01  -4.378881902125e-02
H         1.4508553106      -0.8577073727      -1.2011044424  -9.020603214286e-03   3.801565234763e-02   1.459974092784e-02
H        -1.1549643666       0.8699645322      -1.5740295566  -2.066395474862e-02  -8.885473896173e-02   5.947479526980e-02
7
Properties=species:S:1:pos:R:3:forces:R:3 energy=-6.997537539666e+02 dipole="-3.3263713921e-01 3.8823017561e-02 -1.1779383143e+00" quadrupole="-2.5814653936e+01 -3.2336980393e+00 -5.5556337059e-01 -3.2336980393e+00 -2.8572615581e+01 1.3967737174e+00 -5.5556337059e-01 1.3967737174e+00 -2.6871659999e+01" polarizability="3.7558455534e+01 -1.2162385563e+00 -6.3500224436e-01 -1.2162385563e+00 4.2701868042e+01 9.2777076646e-01 -6.3500224436e-01 9.2777076646e-01 3.7720552961e+01" charge=0 multiplicity=1 method=wB97M-V basis=def2-svpd config_type=h2so4 sample_index=14 temperature=300.0 units=atomic
S        -0.0099338608      -0.0035179329       0.1471003138   4.154400428670e-02  -3.471197778079e-02   5.473908459681e-02
O        -0.0164060065       1.3285334398       0.7914841949  -8.863632749096e-03  -3.253100119687e-02  -7.375085686828e-03
O         0.0078216954      -1.3390257904       0.8464372023   6.032711104031e-04   6.028219520142e-02  -2.642281615553e-02
O         1.3000036849       0.0737972054      -0.8274202103  -4.890365714199e-02  -9.516750010364e-02  -4.360028238300e-02
O        -1.2429432477      -0.0578245291      -0.8629030638  -1.178379543344e-02   6.536160430876e-02   1.775419317558e-02
H         1.0312060417      -0.9085818705      -1.3787323720   3.860222406388e-02   7.839593800695e-02   3.599023630553e-02
H        -1.4831318855       0.9270848642      -0.6046207052  -1.122708452501e-02  -4.158634026650e-02  -3.107177274782e-02
7
Properties=species:S:1:pos:R:3:forces:R:3 energy=-6.997769782816e+02 dipole="9.7249974503e-02 2.5172285437e-01 -1.9460433637e+00" quadrupole="-2.4637529104e+01 -3.3953695771e+00 -1.0356122287e+00 -3.3953695771e+00 -2.9315487028e+01 -3.2013441732e-01 -1.0356122287e+00 -3.2013441732e-01 -2.4313128414e+01" polarizability="3.6202114590e+01 -1.1100427145e+00 1.0855529904e+00 -1.1100427145e+00 4.0086175109e+01 -9.3330785819e-01 1.0855529904e+00 -9.3330785819e-01 3.8305381774e+01" charge=0 multiplicity=1 method=wB97M-V basis=def2-svpd config_type=h2so4 sample_index=15 temperature=300.0 units=atomic
S         0.0057403711      -0.0090254176       0.1249976298  -4.795111222586e-02  -3.114696979390e-02   8.889663898169e-02
O         0.0520526005       1.2696860771       0.8284274651  -1.166921033161e-02  -1.265954694790e-02  -8.699003538013e-03
O         0.0011661702      -1.2879881045       0.8910751768  -3.626220671426e-03   4.175668222709e-02  -3.511849071490e-02
O         1.2038155118       0.0835746010      -0.7850559643   6.456707407643e-02   7.987691778155e-03  -5.545319548377e-02
O        -1.2635873407      -0.0750224766      -0.8906584512  -3.683353127776e-03   6.648816916907e-02  -1.987356688557e-02
H         1.3612295733      -0.4856163290      -1.5544325650  -8.282408245622e-03  -6.801965605761e-03   6.626421703523e-03
H        -1.4382897067       0.9291984122      -1.2328149636   1.061418551027e-02  -6.565853587163e-02   2.355498082669e-02
7
Properties=species:S:1:pos:R:3:forces:R:3 energy=-6.997708835114e+02 dipole="-2.2831920834e-01 -8.4907463739e-03 -1.8071935649e+00" quadrupole="-2.4289577015e+01 -3.7935530481e+00 9.4021878641e-01 -3.7935530481e+00 -2.8605454093e+01 -3.7165416863e-01 9.4021878641e-01 -3.7165416863e-01 -2.4460450143e+01" polarizability="3.4690171617e+01 -1.7628228798e+00 1.3302505632e+00 -1.7628228798e+00 3.8626042851e+01 -9.4193174899e-02 1.3302505632e+00 -9.4193174899e-02 3.7509985351e+01" charge=0 multiplicity=1 method=wB97M-V basis=def2-svpd config_type=h2so4 sample_index=16 temperature=300.0 units=atomic
S        -0.0097051941       0.0155707716       0.1458624082   1.358348912909e-02   5.741614626246e-02   4.172912459411e-02
O         0.0265197472       1.2656794150       0.8954232338  -4.641936296927e-03  -1.160946769843e-02  -1.974269558796e-02
O        -0.0046993491      -1.2239149097       0.8047613197  -1.635803479628e-03  -5.681050287422e-02   3.361843728894e-02
O         1.1772230424       0.0399669460      -0.8484794285   4.755391325623e-02  -4.811334905428e-03  -3.764124942040e-02
O        -1.1685155308      -0.1083282185      -0.8499873225  -8.432615017638e-02   6.548272663672e-02  -8.598295111896e-02
H         1.3086177075      -0.8409731654      -1.2798118757  -3.413196887797e-03   1.591813868464e-02   1.044473428606e-02
H        -1.4846147901       0.7626412182      -1.4824410464   3.283907408606e-02  -6.550436638745e-02   5.744385221170e-02
7
Properties=species:S:1:pos:R:3:forces:R:3 energy=-6.997805437919e+02 dipole="-2.5606761270e-01 1.8651202445e-01 -1.3547983743e+00" quadrupole="-2.4858053836e+01 -3.6681436354e+00 1.2111497934e+00 -3.6681436354e+00 -2.8496978716e+01 -3.7391418125e-01 1.2111497934e+00 -3.7391418125e-01 -2.5862414671e+01" polarizability="3.7599077639e+01 -7.8590303864e-01 1.1745551838e+00 -7.8590303864e-01 3.9358539185e+01 -9.2005726474e-02 1.1745551838e+00 -9.2005726474e-02 3.8315858933e+01" charge=0 multiplicity=1 method=wB97M-V basis=def2-svpd config_type=h2so4 sample_index=17 temperature=300.0 units=atomic
S        -0.0112603767       0.0431477970       0.1582569707   8.087983721156e-03  -2.622771947206e-02   1.120327080894e-02
O         0.0357830153       1.2838294214       0.9136883747  -7.408831560586e-03  -1.127012413945e-02  -2.150373707748e-02
O        -0.0084306106      -1.2718853918       0.8117208028   1.163209297703e-03   2.500556344832e-02  -9.662669955553e-03
O         1.2700726678       0.0350476862      -0.8860421436  -3.182205883002e-02   1.203608718493e-01   3.878768582074e-02
O        -1.2621865987      -0.1275010853      -0.8823306210  -7.730788852221e-03   5.229290027923e-02  -1.848828912175e-02
H         1.3360528756      -0.8254540614      -1.0600009348   1.824770164123e-02  -1.198348701633e-01  -3.081102669946e-02
H        -1.5378362021       0.7290920570      -1.4037238993   1.944030610813e-02  -4.026333812375e-02   3.046532415850e-02
7
Properties=species:S:1:pos:R:3:forces:R:3 energy=-6.997739360201e+02 dipole="-2.6901790449e-01 4.1565962937e-02 -1.5972143602e+00" quadrupole="-2.6998533357e+01 -2.5630038729e+00 2.8898895989e-01 -2.5630038729e+00 -2.9395978438e+01 8.2744682531e-02 2.8898895989e-01 8.2744682531e-02 -2.3941563241e+01" polarizability="3.6678997847e+01 1.0397055029e+00 -9.4514939412e-01 1.0397055029e+00 3.9617600999e+01 1.0070591372e-01 -9.4514939412e-01 1.0070591372e-01 3.9286960586e+01" charge=0 multiplicity=1 method=wB97M-V basis=def2-svpd config_type=h2so4 sample_index=18 temperature=300.0 units=atomic
S        -0.0192987197      -0.0164910460       0.1739346725   3.753494660886e-02  -5.629446662675e-03   1.915290463954e-02
O         0.0850118956       1.2783011939       0.8108197453  -1.872460073661e-02  -4.938870971614e-03   9.028504365807e-03
O        -0.0867904660      -1.2968982276       0.8770013810   9.993649265633e-03   2.491217416956e-02  -1.428125317217e-02
O         1.2906682864       0.1693799187      -0.8699110255  -5.495390614596e-02  -8.027428515519e-02  -4.908857364450e-02
O        -1.2385299825      -0.1247752943      -0.8612876935   2.767922161826e-03  -3.015973124940e-02   1.703910588924e-02
H         1.0153777537      -0.5689476680      -1.6306254140   3.269633333572e-02   5.065288043960e-02   4.918749589017e-02
H        -1.2049873529       0.6812073096      -1.3175557685  -9.312302540345e-03   4.543337737558e-02  -3.099653091503e-02
7
Properties=species:S:1:pos:R:3:forces:R:3 energy=-6.997818268291e+02 dipole="7.8326400308e-03 5.6874584390e-02 -1.4729721332e+00" quadrupole="-2.3207566491e+01 -4.4321786691e+00 9.0276154251e-01 -4.4321786691e+00 -2.8550424123e+01 -8.1944910815e-01 9.0276154251e-01 -8.1944910815e-01 -2.6010796840e+01" polarizability="3.7928164978e+01 -1.9070515098e+00 2.0390141975e+00 -1.9070515098e+00 3.9545937055e+01 -8.3462836204e-01 2.0390141975e+00 -8.3462836204e-01 3.7100230815e+01" charge=0 multiplicity=1 method=wB97M-V basis=def2-svpd config_type=h2so4 sample_index=19 temperature=300.0 units=atomic
S        -0.0088215223       0.0117897777       0.1286204369  -1.240403212149e-02   9.387717544793e-03   2.974775228608e-02
O         0.0473835366       1.2665807856       0.8502644463  -1.258587168268e-02  -1.636170740426e-03  -8.912798447252e-03
O         0.0207088691      -1.2608503621       0.8048067692  -6.394551818558e-03  -8.260546489861e-03   1.443063039002e-03
O         1.2503510358       0.0545869534      -0.8042643814   1.719486792459e-02   6.526824714435e-03  -2.787270869175e-02
O        -1.3031844928      -0.0844903081      -0.8459404801  -1.456030758985e-02   6.693718456645e-02  -4.165572745889e-02
H         1.6253283202      -0.8278157546      -0.9179058139  -1.006380390891e-03  -5.140378164558e-03  -1.002084410220e-03
H        -1.5901994225       0.8384219069      -1.3944744069   2.974201710003e-02  -6.777480781058e-02   4.818705398907e-02
7
Properties=species:S:1:pos:R:3:forces:R:3 energy=-6.997791457554e+02 dipole="-1.4902985032e-01 -7.4884612632e-02 -1.2749203690e+00" quadrupole="-2.3452120372e+01 -4.5358285783e+00 -5.0086521881e-02 -4.5358285783e+00 -2.8579750628e+01 -9.6724856419e-02 -5.0086521881e-02 -9.6724856419e-02 -2.6864893987e+01" polarizability="3.8139568658e+01 -4.1348343709e-01 4.8374938143e-01 -4.1348343709e-01 4.0342111612e+01 2.5046327706e-01 4.8374938143e-01 2.5046327706e-01 3.8693506039e+01" charge=0 multiplicity=1 method=wB97M-V basis=def2-svpd config_type=h2so4 sample_index=20 temperature=300.0 units=atomic
S         0.0009022162      -0.0147372020       0.1640782085   1.435859945625e-03   6.758646440315e-02   5.394385194885e-03
O         0.1018939117       1.2843151204       0.8896312534  -1.887921031060e-02  -4.187170666140e-02  -2.897325523899e-02
O        -0.0991251003      -1.2481231902       0.8738390708   1.557489195618e-02  -2.297445241819e-02   6.439571207725e-03
O         1.2210634802       0.1467084828      -0.9034514144   3.471880988180e-04  -1.998398797272e-02   1.014127122145e-02
O        -1.2126627433      -0.1593348576      -0.9232171634  -3.406097721302e-02   8.600136829784e-02  -8.792902834944e-04
H         1.4629626423      -0.7348005806      -1.2381692094   2.663499026605e-04   2.167881039540e-03  -2.221902033961e-03
H        -1.6674666034       0.8240258791      -1.0798527409   3.529851319353e-02  -7.086970133092e-02   1.011388738827e-02
7
Properties=species:S:1:pos:R:3:forces:R:3 energy=-6.997971635374e+02 dipole="8.2461534098e-02 6.9744427334e-02 -9.6564809931e-01" quadrupole="-2.4544179507e+01 -4.0091006792e+00 2.7934899757e-01 -4.0091006792e+00 -2.8066304964e+01 -2.8522681749e-01 2.7934899757e-01 -2.8522681749e-01 -2.7008812022e+01" polarizability="3.7196215069e+01 -8.7077410060e-01 5.2331532922e-01 -8.7077410060e-01 3.9195468568e+01 1.0294893705e-01 5.2331532922e-01 1.0294893705e-01 3.6347458075e+01" charge=0 multiplicity=1 method=wB97M-V basis=def2-svpd config_type=h2so4 sample_index=21 temperature=300.0 units=atomic
S        -0.0046563147       0.0185319015       0.1788485106  -2.410064472796e-03  -2.941607360216e-02  -3.042189695996e-02
O         0.0327639456       1.2857725597       0.8429979909  -9.912725905613e-03   1.020546765108e-02   5.894747552738e-03
O        -0.0037603823      -1.2876211191       0.8040358735   3.302616666457e-03   7.869259134299e-03   5.135914845622e-03
O         1.2479415873       0.0647017143      -0.8726798446  -5.439101218720e-03  -1.661236641332e-02   1.025478105375e-02
O        -1.2757658034      -0.0961507448      -0.8836308458   2.187768226148e-02   9.178661263778e-03   2.223053883723e-02
H         1.5461489068      -0.8712583441      -0.9097942394   2.656702599175e-04   1.100813145778e-02  -5.162180261531e-03
H        -1.4177434136       0.8120514193      -1.1682235669  -7.724434105868e-03   7.728971234699e-03  -7.947028918842e-03
7
Properties=species:S:1:pos:R:3:forces:R:3 energy=-6.997869936630e+02 dipole="4.4320839359e-01 -1.7755886233e-01 -1.2600396242e+00" quadrupole="-2.3618606109e+01 -4.0655940113e+00 7.1149158607e-02 -4.0655940113e+00 -2.8416351321e+01 -8.1719388845e-01 7.1149158607e-02 -8.1719388845e-01 -2.5962790554e+01" polarizability="3.8193208265e+01 -1.9345927567e+00 4.5736818471e-01 -1.9345927567e+00 3.9546817563e+01 5.5277484218e-01 4.5736818471e-01 5.5277484218e-01 3.8172416792e+01" charge=0 multiplicity=1 method=wB97M-V basis=def2-svpd config_type=h2so4 sample_index=22 temperature=300.0 units=atomic
S         0.0209178224      -0.0084154989       0.1745715694  -2.758611298834e-02   9.269898662754e-02  -3.382673812372e-02
O        -0.0167454056       1.2935402576       0.8869294001   6.471571016880e-03  -4.206234189583e-02  -2.736726117764e-02
O         0.0050975414      -1.2473028033       0.8189518701   4.032573118809e-04  -5.915390322863e-02   3.298700125415e-02
O         1.2232698856       0.0304596910      -0.8993794750   2.696044979131e-02  -2.010249632773e-02  -6.327193414583e-03
O        -1.2776869912      -0.0567686783      -0.8817304344   1.508880273854e-02   2.329628530611e-02  -2.699562603617e-03
H         1.7659174739      -0.8260400181      -1.0210883081  -3.046116866077e-02   3.169230182845e-02   1.181683041996e-02
H        -1.3792834334       0.7769563284      -1.4453440249   9.125793419274e-03  -2.636205212163e-02   2.534746491812e-02
7
Properties=species:S:1:pos:R:3:forces:R:3 energy=-6.997783800671e+02 dipole="3.5415906496e-02 -5.9818085445e-02 -1.0104618564e+00" quadrupole="-2.4350346756e+01 -4.3069636424e+00 2.0986380569e-01 -4.3069636424e+00 -2.7273217785e+01 2.8869384713e-02 2.0986380569e-01 2.8869384713e-02 -2.8141533333e+01" polarizability="3.8613279475e+01 -3.2374255794e+00 -1.4572976222e+00 -3.2374255794e+00 4.0493304577e+01 6.1851161365e-01 -1.4572976222e+00 6.1851161365e-01 3.6300857550e+01" charge=0 multiplicity=1 method=wB97M-V basis=def2-svpd config_type=h2so4 sample_index=23 temperature=300.0 units=atomic
S         0.0141774947       0.0086773554       0.1274197982   6.636368674063e-03   9.312034261113e-03   2.359732111122e-02
O        -0.1276124153       1.2756017063       0.8519650955   2.149977019965e-02  -1.198409207064e-02  -1.448872183908e-02
O         0.0408794178      -1.2627006791       0.8156560340   4.455109913343e-03  -4.608458602490e-03  -9.653764094608e-04
O         1.3310142233      -0.0179757520      -0.8955462891  -1.479447187736e-02  -7.581720146074e-02   2.044591239654e-02
O        -1.2752712554      -0.0038483437      -0.8024438026  -4.464788303871e-03   2.660734544737e-02  -1.870445936890e-02
H         1.5340946370      -1.1087894943      -0.8626118219  -1.018123626608e-02   8.200575022466e-02  -5.599694380218e-03
H        -1.4892502367       0.9729895552      -0.8497101614  -3.179749213898e-03  -2.543425187499e-02  -4.354629959649e-03
7
Properties=species:S:1:pos:R:3:forces:R:3 energy=-6.997763474114e+02 dipole="-3.2675548503e-01 -1.9362734137e-01 -8.6675487469e-01" quadrupole="-2.2747007767e+01 -4.2816423393e+00 -1.0279362504e+00 -4.2816423393e+00 -2.8217611665e+01 1.0409848185e+00 -1.0279362504e+00 1.0409848185e+00 -2.8515898954e+01" polarizability="3.9315951277e+01 -2.8042118229e+00 -8.8364695542e-01 -2.8042118229e+00 3.9870940618e+01 3.2316257224e-01 -8.8364695542e-01 3.2316257224e-01 3.7174009467e+01" charge=0 multiplicity=1 method=wB97M-V basis=def2-svpd config_type=h2so4 sample_index=24 temperature=300.0 units=atomic
S        -0.0062514658      -0.0300302903       0.1398539615   1.489812036148e-02   4.579423082449e-02   1.186889599304e-02
O        -0.0484447728       1.2673918689       0.8313141085   1.481589490191e-03  -2.018969318629e-02  -1.082068762756e-02
O         0.0346034622      -1.2588155607       0.8963276742  -8.755827954487e-05  -6.718030263329e-03  -1.059250315562e-02
O         1.2860828128       0.0449529501      -0.8844853904  -2.175334492958e-02  -3.130524370756e-02   1.073091107225e-02
O        -1.2349675704       0.0087472542      -0.9072907147  -4.579811501427e-02   6.324621664891e-02   3.995421099370e-02
H         1.4420732625      -0.9128065422      -1.0930874485   5.162748293237e-03   1.842076806888e-02  -9.221694195292e-04
H        -1.8344982932       0.8723790865      -0.4612675194   4.614946211593e-02  -6.924765263297e-02  -4.029272621102e-02
7
Properties=species:S:1:pos:R:3:forces:R:3 energy=-6.997831648629e+02 dipole="-3.0128671921e-01 1.7298087853e-01 -1.2319685229e+00" quadrupole="-2.3173413617e+01 -4.4370605577e+00 -2.8504086781e-01 -4.4370605577e+00 -2.8150975256e+01 5.4988655773e-01 -2.8504086781e-01 5.4988655773e-01 -2.7303035113e+01" polarizability="3.8880566591e+01 -2.7480325245e+00 1.0708759834e+00 -2.7480325245e+00 4.0496500395e+01 1.4784387634e-01 1.0708759834e+00 1.4784387634e-01 3.7758516622e+01" charge=0 multiplicity=1 method=wB97M-V basis=def2-svpd config_type=h2so4 sample_index=25 temperature=300.0 units=atomic
S        -0.0169635208       0.0221371591       0.1414896146   1.267731958477e-02  -4.044329961260e-02   2.640012246803e-02
O        -0.0099735430       1.2793335077       0.8813269603  -4.400525827161e-03  -1.269344029285e-02  -2.248190578069e-02
O         0.0722902498      -1.2727232440       0.8526108278  -1.613250144569e-02   3.059781399356e-02  -1.881479782917e-02
O         1.2618783030      -0.0080370635      -0.8426663199  -7.991619305045e-03   4.373866460322e-02   2.312687533077e-03
O        -1.2709713776      -0.0472097081      -0.9237198285  -2.131633645402e-02   7.377729092489e-02   1.530757942228e-02
H         1.4640666188      -0.8656168484      -1.1893629750  -1.048000413137e-03  -2.473731670066e-02  -3.079746903524e-03
H        -1.7692036345       0.9286361745      -0.9165515462   3.818139557374e-02  -7.028142928355e-02   2.801629691657e-04
7
Properties=species:S:1:pos:R:3:forces:R:3 energy=-6.997686777273e+02 dipole="3.1175956274e-01 7.6947615889e-02 -1.1394272165e+00" quadrupole="-2.5217479640e+01 -3.5912031085e+00 -3.6999866452e-01 -3.5912031085e+00 -2.8227193584e+01 5.4918029865e-01 -3.6999866452e-01 5.4918029865e-01 -2.5968939542e+01" polarizability="3.6786840717e+01 -4.9432427905e-01 -1.0072543513e+00 -4.9432427905e-01 3.8426186472e+01 4.8537629495e-01 -1.0072543513e+00 4.8537629495e-01 3.6481011820e+01" charge=0 multiplicity=1 method=wB97M-V basis=def2-svpd config_type=h2so4 sample_index=26 temperature=300.0 units=atomic
S         0.0271971817       0.0298149228       0.1819977567  -2.039620895959e-02  -1.046936085346e-01  -3.622350980884e-02
O        -0.0153142877       1.2669628705       0.8401189560   5.479596130857e-03   4.866325273906e-02   2.184422932311e-02
O        -0.0559071724      -1.2911839231       0.8190473963   1.811089472424e-02   2.976479729643e-02  -4.684005844290e-03
O         1.2662572179       0.0691730730      -0.9049971276  -3.567086493108e-03  -2.463589637388e-02   7.771543876670e-03
O        -1.2629177191      -0.0920112064      -0.8500696470   3.142530007070e-02  -1.682281508362e-01   9.541586296865e-02
H         1.5053873679      -0.8705349939      -1.1861929863  -1.137611645923e-02   2.948545838427e-02   1.165892166543e-02
H        -1.2865042709       0.6712667431      -1.1953237476  -1.962560264367e-02   1.895562747281e-01  -9.580022813543e-02
7
Properties=species:S:1:pos:R:3:forces:R:3 energy=-6.997861701007e+02 dipole="-2.3397590322e-01 -1.2435142519e-01 -1.4536980053e+00" quadrupole="-2.4709396405e+01 -3.7474456105e+00 1.0299852598e+00 -3.7474456105e+00 -2.8442492047e+01 -3.9425415514e-01 1.0299852598e+00 -3.9425415514e-01 -2.5521939032e+01" polarizability="3.6642424479e+01 -1.4385723137e+00 -1.5618611250e+00 -1.4385723137e+00 3.9671252134e+01 1.1145147745e-01 -1.5618611250e+00 1.1145147745e-01 3.8461457412e+01" charge=0 multiplicity=1 method=wB97M-V basis=def2-svpd config_type=h2so4 sample_index=27 temperature=300.0 units=atomic
S        -0.0371960440      -0.0029820079       0.1691482584   7.798504246532e-02   4.276720350115e-02   2.214585354774e-02
O        -0.0124515927       1.2810600656       0.8864491223  -1.252966897379e-04  -2.904639812109e-02  -2.113369063683e-02
O        -0.0165465950      -1.2651578781       0.8503402009   8.303787194714e-04  -9.529939154639e-03   2.766826647745e-03
O         1.2604858317       0.0624099424      -0.9581889270  -1.309198530743e-02  -3.374095925980e-02   2.191531729861e-02
O        -1.1734518043      -0.0614922027      -0.8339449944  -6.105100514410e-02   1.205502118799e-02  -5.543284653944e-02
H         1.5507367512      -0.8906176715      -1.1516395140  -1.268228073324e-02   3.480290433649e-02   9.336853004618e-03
H        -1.2971578608       0.7212279880      -1.4425408645   8.082228117847e-03  -1.725473058678e-02   2.027000120759e-02
7
Properties=species:S:1:pos:R:3:forces:R:3 energy=-6.997561547690e+02 dipole="-4.5855007423e-01 -7.0061613184e-02 -1.0047738157e+00" quadrupole="-2.0916073670e+01 -4.5517999134e+00 4.2112281058e-02 -4.5517999134e+00 -2.8470707356e+01 5.4989352364e-01 4.2112281058e-02 5.4989352364e-01 -2.8642806050e+01" polarizability="4.1478173028e+01 -4.0084900107e+00 1.4327326825e+00 -4.0084900107e+00 4.0926715084e+01 7.0002022844e-01 1.4327326825e+00 7.0002022844e-01 3.7198923020e+01" charge=0 multiplicity=1 method=wB97M-V basis=def2-svpd config_type=h2so4 sample_index=28 temperature=300.0 units=atomic
S         0.0104148095       0.0176405911       0.1408589361  -3.993382131991e-02   2.773724560111e-02   4.066610552040e-02
O        -0.0289368753       1.2901492600       0.8870802034   1.633582616671e-03  -2.938965824498e-02  -2.468429644272e-02
O         0.0682289463      -1.2638202065       0.8318594475  -8.067336299601e-03   4.518627151558e-03  -2.698037229765e-03
O         1.2271490345      -0.0182910798      -0.8416722605   1.803715476143e-02  -3.082514245617e-02  -2.184281123047e-02
O        -1.2379169183      -0.0284272062      -0.9349531166  -6.666783721492e-02   6.445649722202e-02   1.880003347065e-02
H         1.3643523777      -1.0174654156      -0.9322521958   4.807810533684e-03   3.289452102509e-02  -2.717091285560e-03
H        -2.1432625368       0.7672973229      -0.7566398348   9.020449945524e-02  -6.936703750317e-02  -7.643271941927e-03
7
Properties=species:S:1:pos:R:3:forces:R:3 energy=-6.997769513442e+02 dipole="4.9856626483e-01 -8.3354999216e-02 -1.4166373994e+00" quadrupole="-2.5616786395e+01 -3.3177116171e+00 9.5673653159e-02 -3.3177116171e+00 -2.8302578753e+01 -7.0392612268e-01 9.5673653159e-02 -7.0392612268e-01 -2.5719595829e+01" polarizability="3.5088824025e+01 -1.2146898629e+00 4.5595787869e-01 -1.2146898629e+00 3.9994981236e+01 -1.1879991820e+00 4.5595787869e-01 -1.1879991820e+00 3.7836986354e+01" charge=0 multiplicity=1 method=wB97M-V basis=def2-svpd config_type=h2so4 sample_index=29 temperature=300.0 units=atomic
S         0.0474088827      -0.0024824486       0.1664149142  -8.150788920053e-02   7.929764684112e-03   3.364932390602e-02
O        -0.0266513373       1.2635047431       0.8561413093   1.048130524513e-02  -8.022278391024e-04   3.014650067792e-03
O        -0.0237032803      -1.2863753871       0.8634960059   1.599683462207e-02   1.691146349946e-02  -1.501462879163e-02
O         1.1563649458       0.0857517471      -0.9064241163   5.281626179216e-02  -5.581998450591e-02  -1.460472838191e-02
O        -1.2174302812      -0.0514597740      -0.8697295897   6.235459809847e-03   5.634466344272e-02  -4.234594526818e-02
H         1.3847348257      -0.9076342044      -0.9582751924   5.075572617007e-03   3.622775679721e-02  -1.294242359258e-02
H        -1.1192546978       0.8114609932      -1.5237336056  -8.997166085929e-03  -6.086980837141e-02   4.817483998775e-02
7
Properties=species:S:1:pos:R:3:forces:R:3 energy=-6.997779096536e+02 dipole="5.7716421938e-02 3.6464569241e-02 -1.6034576517e+00" quadrupole="-2.4404445982e+01 -4.0027402515e+00 -8.8622146429e-01 -4.0027402515e+00 -2.8274268333e+01 7.4200863671e-01 -8.8622146429e-01 7.4200863671e-01 -2.6577673550e+01" polarizability="3.6126272578e+01 -1.9350352085e+00 -3.7168336205e-01 -1.9350352085e+00 4.0501914875e+01 6.3455670179e-01 -3.7168336205e-01 6.3455670179e-01 3.7596357948e+01" charge=0 multiplicity=1 method=wB97M-V basis=def2-svpd config_type=h2so4 sample_index=30 temperature=300.0 units=atomic
S        -0.0159435099       0.0049503596       0.1159461107   1.984881500117e-02  -5.261541641740e-02   1.002853890117e-01
O         0.0062108467       1.2650961325       0.8658583824  -8.580744720283e-03  -1.321150666780e-02  -2.505330996979e-02
O         0.0327775436      -1.2774069922       0.8885977385  -7.512608650292e-03   4.152243274960e-02  -3.649817266198e-02
O         1.2152571306       0.0569179739      -0.8393746105   4.542752142113e-02  -6.089577421054e-02  -5.606327844917e-02
O        -1.2304094323      -0.0553517847      -0.8854738365  -1.190547125791e-02   3.195500841409e-02  -6.666765970518e-03
H         1.4689084350      -0.9113343293      -1.2754288529  -2.239604878741e-02   6.811002781432e-02   3.520123344192e-02
H        -1.3415320366       0.9246861536      -0.9932769135  -1.489610004223e-02  -1.486148999526e-02  -1.129844514114e-02
7
Properties=species:S:1:pos:R:3:forces:R:3 energy=-6.997243043262e+02 dipole="3.9801518028e-02 2.1358432360e-01 -1.4855070937e+00" quadrupole="-2.4432691328e+01 -4.0347829877e+00 8.8510361354e-01 -4.0347829877e+00 -2.8074663772e+01 -1.1976654836e+00 8.8510361354e-01 -1.1976654836e+00 -2.6125174101e+01" polarizability="3.8414139034e+01 -1.9180750410e+00 2.7208460897e+00 -1.9180750410e+00 3.9836851764e+01 -2.7733637196e+00 2.7208460897e+00 -2.7733637196e+00 3.8856590023e+01" charge=0 multiplicity=1 method=wB97M-V basis=def2-svpd config_type=h2so4 sample_index=31 temperature=300.0 units=atomic
S         0.0134095401       0.0017526018       0.1193239038  -4.499399771199e-02  -1.122166749352e-02   3.921647951852e-02
O         0.0170627043       1.2259308843       0.8608507586  -3.560504278752e-03   2.220467881552e-02  -1.981225653431e-03
O         0.0184773813      -1.2546409945       0.8798183121   1.019894340844e-03   1.320875103229e-02  -3.156973205352e-02
O         1.2706613080       0.0674513711      -0.8401103547  -6.400786346909e-02   2.438533825174e-01   2.063857005471e-02
O        -1.3296164338      -0.0600256394      -0.8730854677   1.162368537820e-02   8.747001064959e-02  -3.768346740953e-02
H         1.4596158677      -0.7195837807      -0.9315580187   7.786015831890e-02  -2.612856621624e-01  -4.268823569541e-02
H        -1.5160215399       1.0088368012      -1.4266224779   2.204634341273e-02  -9.427865239283e-02   5.396741721795e-02
7
Properties=species:S:1:pos:R:3:forces:R:3 energy=-6.997720192224e+02 dipole="1.0848186490e-02 -1.7096701935e-02 -1.4446088998e+00" quadrupole="-2.4899811436e+01 -4.0145060436e+00 -1.1090521547e+00 -4.0145060436e+00 -2.8172056184e+01 6.2074179936e-01 -1.1090521547e+00 6.2074179936e-01 -2.5572754261e+01" polarizability="3.8452779397e+01 -2.0991463463e+00 2.2766167883e-01 -2.0991463463e+00 4.0530376824e+01 8.8758682945e-01 2.2766167883e-01 8.8758682945e-01 3.8660487665e+01" charge=0 multiplicity=1 method=wB97M-V basis=def2-svpd config_type=h2so4 sample_index=32 temperature=300.0 units=atomic
S         0.0158543282      -0.0218232569       0.1484904932  -3.115580983156e-02   2.583034270702e-02  -2.663613314426e-04
O         0.0068108279       1.2675044807       0.8104538550  -3.738667028923e-03  -2.089027761645e-03   1.144100714399e-04
O         0.0085655716      -1.2574758482       0.8632041290  -1.170444718763e-03  -1.977026271045e-02   3.339108528305e-03
O         1.2713483365       0.0767072354      -0.8025917658   1.344147211465e-02  -7.043483511490e-02  -7.708917459683e-02
O        -1.3004656291      -0.0558248895      -0.8949079313   7.283285268239e-03   7.097572589823e-02   1.193792384180e-02
H         1.3081212966      -0.7870987027      -1.5208694316  -3.582982608183e-03   6.696686128429e-02   5.983629881652e-02
H        -1.5891652401       0.9847268901      -0.9505615089   1.890807057337e-02  -7.147709127612e-02   2.041632111000e-03
7
Properties=species:S:1:pos:R:3:forces:R:3 energy=-6.997597838950e+02 dipole="-7.7884907651e-02 -6.5203026176e-02 -4.0609180358e-01" quadrupole="-2.2085626479e+01 -4.7087063070e+00 3.2418815306e-01 -4.7087063070e+00 -2.8223033914e+01 -1.5156571024e-01 3.2418815306e-01 -1.5156571024e-01 -2.9464085673e+01" polarizability="4.0531663430e+01 -3.3564567535e+00 -5.3479500238e-01 -3.3564567535e+00 4.1895479106e+01 1.6814683967e-01 -5.3479500238e-01 1.6814683967e-01 3.6993506491e+01" charge=0 multiplicity=1 method=wB97M-V basis=def2-svpd config_type=h2so4 sample_index=33 temperature=300.0 units=atomic
S        -0.0056040598       0.0012544122       0.1843323396   1.390747335620e-02   1.906323869599e-02  -4.161987643822e-02
O        -0.0291836719       1.3126924834       0.8379122122  -3.125863348137e-03  -2.513202148442e-02  -1.689356919364e-03
O         0.0134499548      -1.3020284756       0.8157459378   5.640161443711e-03   5.725530759886e-03   9.732685361932e-03
O         1.2492325027       0.0320773706      -0.9329350417   2.232273232984e-02  -9.621680715711e-02   6.523202260778e-02
O        -1.2220760704      -0.0378600265      -0.8976387553  -3.139900816796e-02   6.669184528155e-02   3.281939368229e-02
H         1.7446058963      -0.9715169549      -0.5576704255  -3.504889019620e-02   8.625696948739e-02  -4.021878066792e-02
H        -1.7486741983       0.8530824203      -0.6273630203   2.770593681847e-02  -5.637661800938e-02  -2.426107361091e-02
7
Properties=species:S:1:pos:R:3:forces:R:3 energy=-6.997833047257e+02 dipole="-2.6902450990e-01 1.5919522774e-01 -1.4748015768e+00" quadrupole="-2.3151209146e+01 -4.3563687145e+00 5.9075695371e-01 -4.3563687145e+00 -2.8379502160e+01 3.0965633876e-01 5.9075695371e-01 3.0965633876e-01 -2.6780831939e+01" polarizability="3.6428664524e+01 -2.0630329104e+00 -9.6492844203e-01 -2.0630329104e+00 3.8976985407e+01 -1.3857826542e-02 -9.6492844203e-01 -1.3857826542e-02 3.5531497841e+01" charge=0 multiplicity=1 method=wB97M-V basis=def2-svpd config_type=h2so4 sample_index=34 temperature=300.0 units=atomic
S        -0.0001561911       0.0310832298       0.1115163745   5.412509897316e-02  -4.983818867205e-02   8.117674315780e-02
O        -0.0506520562       1.2578882325       0.8524100183   1.004914774404e-02   1.993899365354e-02  -4.012749967259e-03
O        -0.0289108096      -1.2630829963       0.8072456695   1.474806403879e-02   1.633202478247e-02  -9.791800416025e-03
O         1.2931019747       0.0244460177      -0.8663946550  -4.900162849065e-03  -1.397514700317e-02  -4.852315446200e-03
O        -1.2044555035      -0.0755613514      -0.7671355862  -9.047936374877e-02   4.567219845012e-02  -8.008974012287e-02
H         1.4882670784      -0.9278146858      -1.0923092399  -4.748997798723e-03   2.238039315297e-02   6.918737328286e-03
H        -1.6252957094       0.8321725511      -1.0110712648   2.129199248294e-02  -4.052566813868e-02   1.056853281721e-02
7
Properties=species:S:1:pos:R:3:forces:R:3 energy=-6.997693483821e+02 dipole="-1.0379407298e-01 6.0613670360e-02 -1.0597937111e+00" quadrupole="-2.3759172386e+01 -3.7524686748e+00 -7.4185784582e-01 -3.7524686748e+00 -2.8705256009e+01 7.7765252585e-01 -7.4185784582e-01 7.7765252585e-01 -2.7537276447e+01" polarizability="3.7334267526e+01 -1.8736687979e+00 8.2691137167e-01 -1.8736687979e+00 4.0555053045e+01 5.9253138924e-01 8.2691137167e-01 5.9253138924e-01 3.6268359184e+01" charge=0 multiplicity=1 method=wB97M-V basis=def2-svpd config_type=h2so4 sample_index=35 temperature=300.0 units=atomic
S         0.0421634960       0.0116829251       0.1518455421  -6.603185530666e-02   1.155908413286e-02   5.295642296305e-02
O        -0.0398695932       1.3293497414       0.8566701193   9.309606753148e-03  -5.059082679007e-02  -2.894711658240e-02
O         0.0041671367      -1.2977466148       0.8209477447   8.549820581350e-03   2.855237119557e-02  -7.409385790433e-03
O         1.2301221231       0.0084869782      -0.8401761039   2.477987787311e-02   1.139957856061e-01   2.843286218791e-02
O        -1.2422039517      -0.0677666720      -0.9065150784  -2.129480131313e-02   7.790697271599e-02   3.229557309354e-02
H         1.2061534339      -0.8002524112      -1.1853191449   9.392547404736e-03  -1.150917987179e-01  -5.607849520041e-02
H        -1.7757776885       0.8563281860      -0.6732059324   3.538463698579e-02  -6.627734500206e-02  -2.128891211298e-02
7
Properties=species:S:1:pos:R:3:forces:R:3 energy=-6.997904520165e+02 dipole="-1.5263334180e-02 -3.0801400907e-02 -1.2363615785e+00" quadrupole="-2.4054615928e+01 -3.7559852226e+00 1.0799189246e-01 -3.7559852226e+00 -2.8060134247e+01 1.0528374046e-01 1.0799189246e-01 1.0528374046e-01 -2.7183701364e+01" polarizability="3.5821256859e+01 -1.4333835227e+00 3.6815496642e-01 -1.4333835227e+00 3.7751348317e+01 3.8122331699e-01 3.6815496642e-01 3.8122331699e-01 3.6384366850e+01" charge=0 multiplicity=1 method=wB97M-V basis=def2-svpd config_type=h2so4 sample_index=36 temperature=300.0 units=atomic
S         0.0171418380       0.0080832969       0.1362555081  -3.169205408066e-02   1.570919718470e-02   3.726220044191e-02
O        -0.0430766497       1.2545489290       0.8896037095   5.638048420664e-03  -8.535048763012e-03  -2.140957720260e-02
O         0.0384370894      -1.2460080912       0.8643481874  -1.691019196297e-03  -6.704042316485e-05  -1.501745936641e-02
O         1.2367808065       0.0122735756      -0.8753662302   4.062319099063e-05   2.855078508982e-02   9.446858874398e-04
O        -1.2512444636      -0.0297028871      -0.8996516967   4.454556227553e-02  -8.786496799477e-02   2.208731328646e-02
H         1.3584638106      -0.9060264438      -1.0493269067   1.345751764196e-02  -3.077000544366e-02  -1.212865163199e-02
H        -1.5963247690       0.7857569165      -1.0562668036  -3.029713911735e-02   8.299834063729e-02  -1.186905228070e-02
7
Properties=species:S:1:pos:R:3:forces:R:3 energy=-6.997903284478e+02 dipole="2.6666413602e-01 -1.3816651962e-01 -1.2480474128e+00" quadrupole="-2.5099887400e+01 -3.7183560862e+00 -1.9358461944e-01 -3.7183560862e+00 -2.8108942081e+01 -1.3958026691e-01 -1.9358461944e-01 -1.3958026691e-01 -2.5501698973e+01" polarizability="3.7034980723e+01 -1.3519446784e+00 5.7776482447e-01 -1.3519446784e+00 3.7768938083e+01 2.1677915959e-01 5.7776482447e-01 2.1677915959e-01 3.4889428882e+01" charge=0 multiplicity=1 method=wB97M-V basis=def2-svpd config_type=h2so4 sample_index=37 temperature=300.0 units=atomic
S         0.0203132238      -0.0111193465       0.1558935577  -3.956968744939e-02   3.641689672599e-02  -3.626641383481e-02
O        -0.0090862918       1.2654071485       0.7728192761   8.054760993437e-04   2.923690777392e-02   2.367902244460e-02
O         0.0203255474      -1.2640013533       0.7825895628  -2.578308517251e-03  -5.365099156623e-02   2.988201099411e-02
O         1.2870055155       0.0620773572      -0.7835546453   1.316955110038e-02  -3.291549474669e-02  -3.170478497405e-02
O        -1.3419412059      -0.0356503842      -0.8192760368   3.306705622209e-02  -4.406524100313e-02   2.363329367077e-02
H         1.4738744477      -0.8725920062      -1.1013922877  -1.748701309763e-03   2.757113757335e-02   7.105880985280e-03
H        -1.4239767405       0.7841141441      -1.2575049306  -3.148328093607e-03   3.743081141113e-02  -1.635905915283e-02
7
Properties=species:S:1:pos:R:3:forces:R:3 energy=-6.997934723448e+02 dipole="-2.3458753967e-02 -3.0245374020e-02 -1.3303516601e+00" quadrupole="-2.4139108242e+01 -3.9458408968e+00 2.8566890867e-01 -3.9458408968e+00 -2.8607176914e+01 -1.1458529939e-01 2.8566890867e-01 -1.1458529939e-01 -2.6112117112e+01" polarizability="3.5977029212e+01 -1.0369322034e+00 9.4895508241e-02 -1.0369322034e+00 4.0358944726e+01 -6.1216747112e-01 9.4895508241e-02 -6.1216747112e-01 3.7585494694e+01" charge=0 multiplicity=1 method=wB97M-V basis=def2-svpd config_type=h2so4 sample_index=38 temperature=300.0 units=atomic
S        -0.0004851283      -0.0091617496       0.1773044639  -4.863086757992e-03  -1.800135031123e-03   1.658437465152e-02
O         0.0212280859       1.2920349754       0.8359064285  -4.661122100670e-03  -2.094072033421e-02  -2.014226377719e-03
O        -0.0129963299      -1.3202281337       0.8830968843   2.397741163371e-03   4.809954358500e-02  -3.052038078200e-02
O         1.1887002142       0.0981300228      -0.8992937950   1.708143479629e-02  -2.322766428546e-02   2.678158070143e-03
O        -1.1927892713      -0.0492676786      -0.9009282952  -1.489536997880e-02  -2.404625299433e-02   7.292797935078e-03
H         1.4457428263      -0.8130003910      -1.1644530489  -1.283328630317e-03   1.087460706420e-02   1.017823502791e-03
H        -1.4987793782       0.7795284974      -1.2816088933   6.269171753769e-03   1.103126546822e-02   4.920074150771e-03
7
Properties=species:S:1:pos:R:3:forces:R:3 energy=-6.997860700147e+02 dipole="-1.8396592418e-01 3.0355464245e-01 -1.1492881162e+00" quadrupole="-2.2745571405e+01 -4.5503698554e+00 8.7635379864e-01 -4.5503698554e+00 -2.8242898315e+01 -3.8712887727e-01 8.7635379864e-01 -3.8712887727e-01 -2.8195344653e+01" polarizability="3.8139649135e+01 -2.0512971939e+00 2.3038794989e-01 -2.0512971939e+00 3.9736160722e+01 -6.8398549771e-01 2.3038794989e-01 -6.8398549771e-01 3.7001417629e+01" charge=0 multiplicity=1 method=wB97M-V basis=def2-svpd config_type=h2so4 sample_index=39 temperature=300.0 units=atomic
S        -0.0319397784       0.0331574082       0.1178275970   4.806460747806e-02  -8.206314942708e-02   5.212845436539e-02
O         0.0095486800       1.2436987821       0.8846582596  -1.019542146838e-02   2.168513702670e-02  -8.163235339094e-03
O         0.0275106963      -1.2732014135       0.8586285312  -4.441907211204e-03   4.357215741544e-02  -3.392379602639e-02
O         1.2734482010       0.0297724827      -0.8869991793  -1.162576088422e-02  -9.936070960027e-03   7.770220541852e-03
O        -1.2554737987      -0.0712016643      -0.8631481665  -2.786811519139e-02   7.163701458478e-02  -1.942325996379e-02
H         1.7015632540      -0.8493529414      -0.7482266051  -7.072844199403e-03   1.303172323597e-02  -3.079672731547e-03
H        -1.5658313042       0.9273693087      -1.0210498471   1.312186743097e-02  -5.796337881514e-02   4.650279922015e-03
7
Properties=species:S:1:pos:R:3:forces:R:3 energy=-6.997906654033e+02 dipole="-7.2218815739e-02 9.3438686457e-02 -1.0756082096e+00" quadrupole="-2.3916769309e+01 -3.9925877821e+00 1.0421229125e+00 -3.9925877821e+00 -2.7969246249e+01 -8.5448385230e-01 1.0421229125e+00 -8.5448385230e-01 -2.6919887044e+01" polarizability="3.6083859052e+01 -2.8940212528e+00 -2.6910370521e-01 -2.8940212528e+00 3.9489000755e+01 -4.4590082716e-01 -2.6910370521e-01 -4.4590082716e-01 3.4713919789e+01" charge=0 multiplicity=1 method=wB97M-V basis=def2-svpd config_type=h2so4 sample_index=40 temperature=300.0 units=atomic
S        -0.0229055865       0.0123006701       0.1581816484   4.791133625950e-02  -1.910331009094e-02   1.110472275157e-02
O        -0.0879515475       1.2952264141       0.8022675624   1.270238909119e-02   6.859141407968e-03   1.430374108872e-02
O         0.0928751773      -1.3024498422       0.7701751643  -1.684523484838e-02   1.099391719777e-02   1.010715635332e-02
O         1.2561358330      -0.0316783880      -0.8577596461   2.361573562247e-03  -3.683114178601e-03   1.661528998531e-03
O        -1.2313101088       0.0157233727      -0.7915038683  -4.290945250377e-02   1.296374289726e-02  -5.053102117019e-02
H         1.6372863575      -0.9426262727      -0.7565078834  -8.428823160818e-03   1.964658049557e-02  -2.802895399287e-03
H        -1.3872801095       0.9252987141      -1.1940183986   5.199842354740e-03  -2.774263000369e-02   1.605109010330e-02
7
Properties=species:S:1:pos:R:3:forces:R:3 energy=-6.997540037631e+02 dipole="5.4325626929e-01 2.6291208185e-01 -1.0519707613e+00" quadrupole="-2.2501120218e+01 -4.4489958375e+00 4.5961782139e-01 -4.4489958375e+00 -2.8606178402e+01 -6.2046669581e-01 4.5961782139e-01 -6.2046669581e-01 -2.6887255950e+01" polarizability="3.8552925267e+01 -3.1806519054e+00 6.3370337512e-01 -3.1806519054e+00 4.1485112106e+01 -3.4069600187e-01 6.3370337512e-01 -3.4069600187e-01 3.5391871422e+01" charge=0 multiplicity=1 method=wB97M-V basis=def2-svpd config_type=h2so4 sample_index=41 temperature=300.0 units=atomic
S         0.0090117683       0.0559424363       0.1705455268  -1.609302334056e-02  -1.188997322164e-01   1.169385361870e-03
O        -0.0229258100       1.3134209628       0.8150704399   1.371827522270e-03   3.331889893332e-02   2.178344546031e-02
O         0.0293013413      -1.3229236580       0.7091862714  -2.996611768186e-03   3.339716261639e-02   2.466031147058e-02
O         1.1977475000      -0.0173273752      -0.8277391839   9.939429354779e-02  -4.520636070130e-02  -2.575144479339e-02
O        -1.2614421648      -0.0824270120      -0.7988905354  -1.102531493675e-03   8.183202835838e-02  -4.016421537037e-02
H         1.9252663652      -0.9058675443      -0.6723270366  -7.292527212256e-02   7.471855877702e-02  -7.066173825987e-03
H        -1.2997746844       0.8683613245      -1.2786275715  -7.559369798949e-03  -5.931026004154e-02   2.536771118105e-02
7
Properties=species:S:1:pos:R:3:forces:R:3 energy=-6.997919579698e+02 dipole="2.9494016694e-01 9.3751458338e-02 -7.6862300657e-01" quadrupole="-2.2671271505e+01 -4.3224357549e+00 -3.3825182343e-01 -4.3224357549e+00 -2.7900799788e+01 1.8685643737e-01 -3.3825182343e-01 1.8685643737e-01 -2.8404309070e+01" polarizability="3.6652125862e+01 -2.7125701850e+00 -2.2254553128e-01 -2.7125701850e+00 3.9137048604e+01 9.4997515920e-02 -2.2254553128e-01 9.4997515920e-02 3.5409593069e+01" charge=0 multiplicity=1 method=wB97M-V basis=def2-svpd config_type=h2so4 sample_index=42 temperature=300.0 units=atomic
S         0.0456349176       0.0166690611       0.1708723276  -4.956244938533e-02  -3.161958814512e-02  -1.559935987404e-02
O        -0.1050332610       1.2777744702       0.8401989877   1.884903898890e-02   1.252404965769e-02   8.765348097885e-03
O         0.0199638843      -1.2795131890       0.8177076366   1.099157848924e-02   5.587644627120e-03   7.410184437283e-03
O         1.2034364352      -0.0204928372      -0.9066165744   2.239051727515e-02   6.416257917559e-03  -1.466537312185e-03
O        -1.2113015899      -0.0141444039      -0.8716243024  -1.608942808511e-02   5.117057978354e-02   8.918882333159e-03
H         1.6454193541      -0.8878544992      -0.8576445614  -1.960727964949e-03   3.412828253724e-03   2.379177473728e-04
H        -1.6115180103       0.9346578977      -0.7823706093   1.534402482753e-02  -4.741110113275e-02  -8.310767574528e-03
7
Properties=species:S:1:pos:R:3:forces:R:3 energy=-6.997580745210e+02 dipole="-7.3749424023e-02 1.6968522007e-01 -7.1333596797e-01" quadrupole="-2.1527432323e+01 -5.1640783507e+00 -5.9565774666e-02 -5.1640783507e+00 -2.7878465525e+01 1.9176368153e-01 -5.9565774666e-02 1.9176368153e-01 -2.8872687477e+01" polarizability="3.9202244344e+01 -3.8824714431e+00 5.6868789086e-01 -3.8824714431e+00 3.9714104771e+01 3.0310394572e-01 5.6868789086e-01 3.0310394572e-01 3.3917216174e+01" charge=0 multiplicity=1 method=wB97M-V basis=def2-svpd config_type=h2so4 sample_index=43 temperature=300.0 units=atomic
S         0.0021630997       0.0314236268       0.1238119159  -1.212456947060e-02  -5.338298162764e-02  -2.397777340239e-03
O        -0.0310364267       1.2638368174       0.8080594230  -3.371025610224e-03   4.864509626423e-02   2.327263379949e-02
O         0.0533848918      -1.2590457357       0.7531072532  -4.751683950832e-03  -2.060725025667e-02   2.496000975850e-02
O         1.2686387163      -0.0154134595      -0.7906173060   4.903502258150e-02  -4.820196583877e-02  -1.949255406380e-02
O        -1.2866666851      -0.0517557866      -0.8281872244  -4.568773752397e-02   1.000903977571e-01   1.318951904671e-02
H         1.7012692989      -0.9776965758      -0.6092854077  -2.912439665176e-02   6.209419867564e-02  -1.403019723379e-02
H        -1.8356951950       0.9657342997      -0.5874392532   4.607631423502e-02  -8.873754044459e-02  -2.555535794155e-02
7
Properties=species:S:1:pos:R:3:forces:R:3 energy=-6.997726155746e+02 dipole="-2.5259519929e-01 -3.7168690187e-03 -8.9053509453e-01" quadrupole="-2.2406044592e+01 -4.2495424732e+00 -1.5184452831e-01 -4.2495424732e+00 -2.8181525556e+01 1.3809346432e-01 -1.5184452831e-01 1.3809346432e-01 -2.8395929845e+01" polarizability="3.5384800601e+01 -1.8120301626e+00 -1.7517958005e-01 -1.8120301626e+00 3.8071080437e+01 -3.5192590253e-01 -1.7517958005e-01 -3.5192590253e-01 3.5690010932e+01" charge=0 multiplicity=1 method=wB97M-V basis=def2-svpd config_type=h2so4 sample_index=44 temperature=300.0 units=atomic
S        -0.0181798326      -0.0197554824       0.1665235566   3.291974252635e-02   2.647322350018e-02   5.745844216784e-03
O        -0.0022635526       1.2544793833       0.8508756987  -7.857977572775e-03   1.714306436728e-03   5.620997073539e-04
O         0.0090362247      -1.2514276303       0.8911778601   2.981323888078e-03  -1.988991948155e-02   2.958159073080e-03
O         1.1643678062       0.0596647635      -0.9242306586  -2.817700163801e-02   8.758813426574e-02   1.702625046995e-02
O        -1.1274266807      -0.0339824176      -0.9228028712  -8.520077255682e-02   7.505824997626e-02   3.533527894053e-03
H         1.5337658974      -0.7426138447      -0.9782268902   5.248568327990e-02  -1.008342189738e-01  -1.087594039859e-02
H        -1.6529905780       0.9145591171      -0.7391535259   3.285182268693e-02  -7.014693931952e-02  -1.902403381507e-02
7
Properties=species:S:1:pos:R:3:forces:R:3 energy=-6.997788340388e+02 dipole="-5.0687418377e-02 -4.9789747090e-02 -1.5669723446e+00" quadrupole="-2.5874841816e+01 -3.3777511684e+00 -2.2681972915e-01 -3.3777511684e+00 -2.8025269215e+01 1.6108009825e-01 -2.2681972915e-01 1.6108009825e-01 -2.4886908114e+01" polarizability="3.5358917348e+01 -1.0256980801e+00 1.8495282660e-01 -1.0256980801e+00 3.7889662374e+01 9.9350794249e-01 1.8495282660e-01 9.9350794249e-01 3.6957749070e+01" charge=0 multiplicity=1 method=wB97M-V basis=def2-svpd config_type=h2so4 sample_index=45 temperature=300.0 units=atomic
S        -0.0115077914      -0.0009007466       0.1500365929   3.876747029674e-03   3.065443586203e-02  -2.077881781512e-02
O         0.0367518150       1.2293812631       0.8501809638  -1.003204054861e-02   4.059176415859e-02   1.192554774785e-02
O         0.0067661417      -1.2096961738       0.8320150345  -3.962988466599e-03  -8.041370561277e-02   3.765535463009e-02
O         1.2377560572       0.0772826569      -0.8227208407   8.855479520189e-03  -7.281058626181e-02  -6.438573711754e-02
O        -1.2551073499      -0.0935052020      -0.8721436160   3.829578080797e-03   4.485259628732e-02  -1.615015041436e-02
H         1.2356484696      -0.8645993819      -1.3953637701   4.294848686404e-03   7.018695325784e-02   4.200644618321e-02
H        -1.2855706878       0.8344754047      -1.2804291303  -6.904873935658e-03  -3.306057526599e-02   9.656975437035e-03
7
Properties=species:S:1:pos:R:3:forces:R:3 energy=-6.997689806928e+02 dipole="3.3121422684e-02 3.7370077035e-01 -1.2689021607e+00" quadrupole="-2.3479697855e+01 -4.2069841914e+00 1.3435467646e+00 -4.2069841914e+00 -2.8232363389e+01 -4.8831108455e-01 1.3435467646e+00 -4.8831108455e-01 -2.6068747090e+01" polarizability="3.7403851140e+01 -2.9735288842e+00 9.4294495078e-01 -2.9735288842e+00 3.9268636337e+01 -1.4298664387e+00 9.4294495078e-01 -1.4298664387e+00 3.5630078236e+01" charge=0 multiplicity=1 method=wB97M-V basis=def2-svpd config_type=h2so4 sample_index=46 temperature=300.0 units=atomic
S        -0.0103291073       0.0620998898       0.1432387065   2.094209256444e-02  -1.989941656951e-01  -3.140450252739e-02
O        -0.0474894828       1.2435906297       0.8080107380   3.920325123409e-03   1.293192560104e-01   7.044323915813e-02
O         0.0735782532      -1.3065789136       0.7599906169  -1.642097965042e-02   4.978371033340e-02  -5.763820465138e-03
O         1.2649791146      -0.0256692701      -0.8183850007   2.545503824348e-02  -1.468534987307e-02  -1.670716876319e-02
O        -1.2838289358      -0.0263504474      -0.7848955424  -2.532846319992e-02   4.415594986901e-02  -6.060928665520e-02
H         1.6893912429      -0.9559777083      -0.7424405472  -2.569692520248e-02   4.024075780955e-02  -1.221994370783e-04
H        -1.4797429986       0.8167615660      -1.4052417550   1.716965020322e-02  -4.994239489818e-02   4.416266282568e-02
7
Properties=species:S:1:pos:R:3:forces:R:3 energy=-6.997836126649e+02 dipole="-5.5435874327e-02 -1.1404129619e-01 -1.4370461760e+00" quadrupole="-2.4262037666e+01 -4.0593672151e+00 -5.4254090460e-01 -4.0593672151e+00 -2.8218800053e+01 1.6279574331e-01 -5.4254090460e-01 1.6279574331e-01 -2.5621765911e+01" polarizability="3.6094969786e+01 -1.7253331360e+00 -8.1688806058e-01 -1.7253331360e+00 3.8737338151e+01 1.3334253326e+00 -8.1688806058e-01 1.3334253326e+00 3.5940397975e+01" charge=0 multiplicity=1 method=wB97M-V basis=def2-svpd config_type=h2so4 sample_index=47 temperature=300.0 units=atomic
S        -0.0234931136      -0.0089028395       0.1484409491   3.984261229690e-02   7.021610910972e-02  -2.002816426158e-03
O         0.0164879350       1.2821539458       0.8318025024  -7.867189008918e-03  -1.651481816514e-02  -1.351595650662e-02
O         0.0048867156      -1.2351760418       0.7932467885  -2.045574374808e-03  -7.959361692814e-02   4.810266495828e-02
O         1.2532999412       0.0529202767      -0.8235467955   2.716001843423e-02  -4.303559779469e-02  -4.385983229793e-02
O        -1.2374134081      -0.0832249731      -0.8290956125  -2.485511108933e-02   3.432132141038e-02  -2.659544033094e-02
H         1.5474825481      -0.8480745636      -1.3157142190  -2.772574791122e-02   5.516217932661e-02   3.816700983786e-02
H        -1.3933401193       0.8619854845      -1.0974797781  -4.578877947197e-03  -2.053818701544e-02  -3.444645207142e-04
7
Properties=species:S:1:pos:R:3:forces:R:3 energy=-6.997873931840e+02 dipole="7.3718837395e-02 9.0543778813e-02 -1.4823137625e+00" quadrupole="-2.3899289539e+01 -3.7436200143e+00 -3.4374234159e-01 -3.7436200143e+00 -2.8672088602e+01 2.6626921093e-01 -3.4374234159e-01 2.6626921093e-01 -2.5903958017e+01" polarizability="3.5307490395e+01 -9.7627256449e-01 1.3310910216e+00 -9.7627256449e-01 3.8017507366e+01 5.0177501912e-01 1.3310910216e+00 5.0177501912e-01 3.6134270291e+01" charge=0 multiplicity=1 method=wB97M-V basis=def2-svpd config_type=h2so4 sample_index=48 temperature=300.0 units=atomic
S         0.0121792705       0.0223076890       0.1423280294  -5.290813533828e-02  -2.918875997229e-02   5.088425489904e-02
O         0.0242045756       1.2704954323       0.8722887411  -5.481663128033e-03  -1.390015021677e-03  -1.304646290478e-02
O         0.0321220748      -1.2645483020       0.8337439734  -8.430569849031e-03   1.556160253205e-02  -9.883508037399e-03
O         1.1912605867       0.0265033956      -0.8092613289   4.638014514292e-02   4.918485393333e-02  -2.998408688077e-02
O        -1.2587322478      -0.0742456316      -0.9113272641   3.482006648867e-02  -5.821184993991e-02   3.218353276871e-02
H         1.3788519664      -0.7868745326      -1.2264272309   4.868629928140e-03  -3.734444570480e-02  -1.471628640585e-02
H        -1.5847484541       0.7360546623      -1.1820982689  -1.924787822391e-02   6.140979269691e-02  -1.556355996437e-02
7
Properties=species:S:1:pos:R:3:forces:R:3 energy=-6.997745989799e+02 dipole="1.8441403329e-01 1.0050626265e-01 -1.3648626019e+00" quadrupole="-2.2259607412e+01 -4.3972335752e+00 3.8840981822e-01 -4.3972335752e+00 -2.8786679586e+01 -2.4842286131e-01 3.8840981822e-01 -2.4842286131e-01 -2.7127524832e+01" polarizability="3.8901102407e+01 -1.8419105116e+00 -1.7688596029e+00 -1.8419105116e+00 3.9108190984e+01 -5.5708790371e-01 -1.7688596029e+00 -5.5708790371e-01 3.6660608408e+01" charge=0 multiplicity=1 method=wB97M-V basis=def2-svpd config_type=h2so4 sample_index=49 temperature=300.0 units=atomic
S        -0.0215448051       0.0072326650       0.1147783461   6.433324481840e-02  -7.495774656616e-02   6.371872870564e-02
O        -0.0047318783       1.2345225613       0.8378559541  -2.439614478963e-04   3.181054815072e-02   3.795273231944e-03
O        -0.0332047181      -1.2752301066       0.8641267445   7.354163585677e-03   3.253865050588e-02  -3.021086694731e-02
O         1.3003740604       0.0793968221      -0.8995631524   2.374947540111e-02  -5.717611348890e-02   4.030690408284e-03
O        -1.2575937069      -0.0526961188      -0.7852731820  -2.445938632566e-02  -2.332000642139e-02  -2.881623627018e-02
H         1.9582194336      -0.7956221337      -0.8969576161  -5.829149002083e-02   5.993557768206e-02   6.034818148496e-03
H        -1.3566014347       0.7997422390      -1.1686975211  -1.245418711917e-02   3.113481900410e-02  -1.867364605488e-02
7
Properties=species:S:1:pos:R:3:forces:R:3 energy=-6.997638954785e+02 dipole="-7.2046008540e-02 5.7148043968e-02 -1.1804553659e+00" quadrupole="-2.3616193446e+01 -4.4573032289e+00 -1.3691823826e-01 -4.4573032289e+00 -2.7697045158e+01 4.1655315317e-01 -1.3691823826e-01 4.1655315317e-01 -2.6995341158e+01" polarizability="3.4845389998e+01 -2.0269786386e+00 1.5846695857e-01 -2.0269786386e+00 3.8752113783e+01 7.8937441801e-01 1.5846695857e-01 7.8937441801e-01 3.5446791340e+01" charge=0 multiplicity=1 method=wB97M-V basis=def2-svpd config_type=h2so4 sample_index=50 temperature=300.0 units=atomic
S         0.0135568421       0.0233692683       0.1687187004  -1.001791706143e-02   6.127880813011e-03  -1.068302855850e-02
O         0.0163061999       1.2539523984       0.8775650590  -3.605972570976e-03   3.172639166391e-02   7.385089230935e-03
O        -0.0454640759      -1.2202126464       0.8027216416   1.359178450835e-02  -6.840107667199e-02   4.729272553844e-02
O         1.1506616543       0.0549247661      -0.8816201176   6.665528946821e-02  -5.186455772909e-02  -3.476952756512e-02
O        -1.1349822196      -0.1333611811      -0.8827538944  -8.509207519980e-02   1.076814041952e-01  -2.353576919871e-02
H         1.3677097135      -0.9351008078      -1.1616581695  -1.188646407409e-02   5.775087743991e-02   1.521541344727e-02
H        -1.5781267233       0.8940472086      -0.9620979925   3.030908495149e-02  -8.306696317569e-02  -1.028500291503e-03
7
Properties=species:S:1:pos:R:3:forces:R:3 energy=-6.997663026264e+02 dipole="1.8271026606e-01 -7.4607521321e-03 -8.6068036703e-01" quadrupole="-2.3502400375e+01 -4.9206126196e+00 -3.6887381509e-01 -4.9206126196e+00 -2.7663899327e+01 -8.7670718701e-02 -3.6887381509e-01 -8.7670718701e-02 -2.7357166996e+01" polarizability="4.0575058229e+01 -2.9114198616e+00 5.1975490286e-01 -2.9114198616e+00 4.2502568934e+01 3.4827962707e-01 5.1975490286e-01 3.4827962707e-01 3.8160821769e+01" charge=0 multiplicity=1 method=wB97M-V basis=def2-svpd config_type=h2so4 sample_index=51 temperature=300.0 units=atomic
S         0.0215270179       0.0002209502       0.2002738561  -2.353938869470e-02   3.738096007499e-02  -6.317533423254e-02
O        -0.0083473570       1.3202090475       0.8377621619   2.785206607180e-03  -3.001729228095e-02  -8.220168628952e-03
O        -0.0125120470      -1.2870440127       0.7971315894   6.781255805707e-03  -2.445365761801e-02   2.666190745952e-02
O         1.2569730766       0.0454298946      -0.8874930689   1.738002254065e-02  -4.456514851152e-02   3.163869244240e-03
O        -1.2816376001      -0.0859259922      -0.8985495224  -3.138207232421e-03   1.029732678731e-01   1.618495827548e-02
H         1.6783367897      -0.9003992284      -1.0772248171  -3.123881623433e-02   5.263708484096e-02   1.578604315199e-02
H        -1.6344793724       1.0064086607      -1.0203487133   3.096258420149e-02  -9.395553485564e-02   9.602620583054e-03
7
Properties=species:S:1:pos:R:3:forces:R:3 energy=-6.997721493733e+02 dipole="1.1222762792e-01 1.1871764217e-01 -9.4796301945e-01" quadrupole="-2.3444593007e+01 -4.5525765665e+00 1.0478697451e+00 -4.5525765665e+00 -2.7782424372e+01 -7.8672992275e-01 1.0478697451e+00 -7.8672992275e-01 -2.6998755812e+01" polarizability="3.9508413964e+01 -3.4925325883e+00 7.3182051361e-03 -3.4925325883e+00 4.0287440997e+01 -9.4795455371e-01 7.3182051361e-03 -9.4795455371e-01 3.5729506721e+01" charge=0 multiplicity=1 method=wB97M-V basis=def2-svpd config_type=h2so4 sample_index=52 temperature=300.0 units=atomic
S        -0.0167546012       0.0181560575       0.1627455134   2.630361684082e-02  -8.438853016746e-02  -4.833960423927e-02
O        -0.0541492711       1.2626850657       0.7834994931   5.054626351005e-03   6.898998692067e-02   4.459745097661e-02
O         0.0702922897      -1.3015450696       0.7788473403  -1.332107077603e-02   1.669180069956e-02   3.976346355651e-03
O         1.3013856912       0.0062219805      -0.8511964354   2.281491171465e-02  -6.882053032188e-02   1.741071475967e-02
O        -1.3073830975       0.0016189803      -0.7991971958  -2.265426464806e-03   2.330337881725e-02  -2.795325553204e-02
H         1.8216882701      -0.9842356740      -0.6873114951  -4.772446254535e-02   8.086494454643e-02  -1.260269096544e-02
H        -1.4565212842       0.9091113583      -1.2469320764   9.148103093151e-03  -3.671025376564e-02   2.285387583567e-02
7
Properties=species:S:1:pos:R:3:forces:R:3 energy=-6.997882259275e+02 dipole="2.0601459084e-01 3.9484599415e-02 -9.8912940313e-01" quadrupole="-2.1614947312e+01 -4.9501661085e+00 9.0492514210e-02 -4.9501661085e+00 -2.8418563940e+01 -2.7880325268e-01 9.0492514210e-02 -2.7880325268e-01 -2.8111251344e+01" polarizability="3.9305662313e+01 -2.3984441841e+00 3.7748907713e-02 -2.3984441841e+00 3.9854832517e+01 -1.6834140204e-02 3.7748907713e-02 -1.6834140204e-02 3.5727454027e+01" charge=0 multiplicity=1 method=wB97M-V basis=def2-svpd config_type=h2so4 sample_index=53 temperature=300.0 units=atomic
S         0.0141884708       0.0033217142       0.1352321637  -1.483321787412e-02   8.332192775349e-04   1.221465327194e-02
O        -0.0066087351       1.2779827031       0.8270077197  -4.318961275403e-04  -3.516373460617e-03  -5.624921925490e-03
O        -0.0212567117      -1.2707525388       0.8069500178   1.061789291263e-02  -6.482359938488e-03   4.780855947631e-03
O         1.2766786371       0.0506608957      -0.8529383642   3.233709770671e-02  -4.623633973827e-02  -4.654391973400e-03
O        -1.2876425601      -0.0688540489      -0.8283449025  -1.217692207520e-02   6.050214392213e-02  -9.340642108572e-03
H         1.8531100434      -0.8280686223      -0.7988976156  -3.916975591953e-02   4.815494474504e-02  -9.895190069237e-04
H        -1.6853934538       0.8980023245      -0.9085848863   2.372589867726e-02  -5.325871492919e-02   3.537086490057e-03
7
Properties=species:S:1:pos:R:3:forces:R:3 energy=-6.997897090076e+02 dipole="9.5901400162e-03 1.2348267507e-01 -1.3645777644e+00" quadrupole="-2.4814498766e+01 -3.6777341120e+00 3.2456914066e-01 -3.6777341120e+00 -2.8307577441e+01 -4.4015542732e-02 3.2456914066e-01 -4.4015542732e-02 -2.6415299331e+01" polarizability="3.6473915329e+01 -1.0497426650e+00 7.5531752121e-01 -1.0497426650e+00 3.9607359166e+01 -5.4136056310e-01 7.5531752121e-01 -5.4136056310e-01 3.8473151694e+01" charge=0 multiplicity=1 method=wB97M-V basis=def2-svpd config_type=h2so4 sample_index=54 temperature=300.0 units=atomic
S         0.0248331945       0.0156086428       0.1577285645  -3.825124528038e-02  -2.755064889596e-02   3.484691980358e-02
O        -0.0093237923       1.2654094245       0.8992952315   3.840649960239e-03  -9.579423133726e-03  -1.787247322915e-02
O        -0.0078340818      -1.2847812849       0.8969214897   6.698556624407e-03   4.615689334982e-02  -3.853390892558e-02
O         1.2124731449       0.0559875751      -0.9124259650  -3.771596814772e-05   5.095693014242e-02   2.473998734965e-02
O        -1.2303132943      -0.0679752067      -0.9263416071   3.812253233065e-03   1.405588357582e-02   1.038033995064e-02
H         1.2855030127      -0.8231155573      -1.1727416629   1.335678027307e-02  -5.806200486740e-02  -2.439831945399e-02
H        -1.5154064292       0.8244422170      -1.2549934373   1.059560556839e-02  -1.599039323193e-02   1.075127748849e-02
7
Properties=species:S:1:pos:R:3:forces:R:3 energy=-6.997965895931e+02 dipole="4.9839358389e-02 3.0838377205e-02 -9.4892589344e-01" quadrupole="-2.3429209407e+01 -4.3759265501e+00 2.2529094161e-01 -4.3759265501e+00 -2.8013183143e+01 -2.7603016295e-01 2.2529094161e-01 -2.7603016295e-01 -2.7566652200e+01" polarizability="3.7654182508e+01 -1.9979844760e+00 -1.8074440664e-01 -1.9979844760e+00 3.9763211534e+01 -6.1245259503e-01 -1.8074440664e-01 -6.1245259503e-01 3.6195555103e+01" charge=0 multiplicity=1 method=wB97M-V basis=def2-svpd config_type=h2so4 sample_index=55 temperature=300.0 units=atomic
S         0.0126051256      -0.0074787982       0.1670689261  -1.274555885810e-02   4.665594290286e-03  -1.373650007569e-02
O        -0.0456094284       1.2858785222       0.8115971249   8.061199886356e-03  -4.326572696073e-03   5.109022880129e-03
O         0.0058252962      -1.2982059602       0.8365975435   6.153134092603e-03   1.414008493700e-02  -7.395369579788e-03
O         1.2674846719       0.0455276680      -0.8913381089  -2.059505877675e-02   1.446372654774e-02   1.685875886226e-02
O        -1.2542305893      -0.0240509277      -0.8522986280  -9.506325719567e-03   3.363823626513e-02  -5.877960184288e-03
H         1.6118996590      -0.8389488680      -0.9292015329   1.014976908904e-02  -2.043685651939e-02  -3.843669678803e-03
H        -1.5909370928       0.9346602178      -1.0004092780   1.851323456813e-02  -4.212335606819e-02   8.824367569090e-03
7
Properties=species:S:1:pos:R:3:forces:R:3 energy=-6.997881488364e+02 dipole="3.0566994814e-01 -1.2500881560e-01 -1.0082417792e+00" quadrupole="-2.2838264523e+01 -4.4685047777e+00 -4.9280747094e-01 -4.4685047777e+00 -2.8138528158e+01 1.0643096247e-01 -4.9280747094e-01 1.0643096247e-01 -2.7678685509e+01" polarizability="3.6433956607e+01 -2.3362607358e+00 4.2045580965e-01 -2.3362607358e+00 3.9481816490e+01 -3.1459125502e-01 4.2045580965e-01 -3.1459125502e-01 3.4894234813e+01" charge=0 multiplicity=1 method=wB97M-V basis=def2-svpd config_type=h2so4 sample_index=56 temperature=300.0 units=atomic
S         0.0507687770      -0.0197256786       0.1547634259  -9.365228056964e-02   3.029011304706e-02   2.717619341812e-02
O        -0.0534755508       1.2819116185       0.7789861267   1.237464608269e-02  -1.950026798379e-03   1.462471584114e-02
O         0.0069684460      -1.2963386646       0.8333547397   1.034193902889e-02   3.039950775797e-03  -3.737996044071e-03
O         1.2021252584       0.0564796781      -0.8327220888   6.224343710630e-02  -4.781420618009e-02  -3.725590578486e-02
O        -1.2464162231      -0.0024902283      -0.8578574461  -7.761650323202e-03   9.813132627709e-03  -3.018399392563e-03
H         1.5253910743      -0.9002270794      -0.9336698259  -4.363159844966e-03   3.416960903808e-02  -3.651630728715e-03
H        -1.6910843747       0.8987720000      -0.8825874904   2.087124019669e-02  -2.749114404981e-02   5.772401267118e-03
7
Properties=species:S:1:pos:R:3:forces:R:3 energy=-6.997922808409e+02 dipole="-2.1159722937e-01 -2.8307524247e-02 -1.2623760358e+00" quadrupole="-2.5549002003e+01 -3.4834776186e+00 5.8424404463e-01 -3.4834776186e+00 -2.7921965445e+01 -2.8462537631e-01 5.8424404463e-01 -2.8462537631e-01 -2.5585199903e+01" polarizability="3.6705587442e+01 -1.1537921318e+00 1.1790186112e+00 -1.1537921318e+00 3.7989834540e+01 8.1927945420e-01 1.1790186112e+00 8.1927945420e-01 3.6673602408e+01" charge=0 multiplicity=1 method=wB97M-V basis=def2-svpd config_type=h2so4 sample_index=57 temperature=300.0 units=atomic
S        -0.0232817006       0.0157229105       0.1694341580   1.135433021889e-02   5.772550670239e-02  -4.290991656251e-02
O         0.0277338890       1.2699990229       0.8767224420  -1.124886777132e-02   1.867261673489e-03  -7.004029266129e-03
O         0.0569210814      -1.2294715199       0.7896204203  -1.355758325434e-02  -6.961070670284e-02   3.934649149766e-02
O         1.2613509162       0.0199700536      -0.8327852165  -1.286540707924e-02  -7.297938041222e-04  -6.916997968151e-03
O        -1.2883872216      -0.0838578001      -0.8972108969   1.488328672755e-02   8.855254059983e-03   1.326190801176e-02
H         1.2773896041      -0.9054894395      -1.1461763822   7.592696822107e-03   6.382937445967e-03  -2.285307899797e-03
H        -1.4540597354       0.7700636396      -1.3450428225   3.780728344988e-03  -4.512409169469e-03   6.448775905156e-03
7
Properties=species:S:1:pos:R:3:forces:R:3 energy=-6.997914333050e+02 dipole="2.2476422488e-01 -5.0847806596e-03 -1.0518330291e+00" quadrupole="-2.2376300902e+01 -4.7464782395e+00 -2.5170672232e-01 -4.7464782395e+00 -2.8216487050e+01 -1.0358303241e-01 -2.5170672232e-01 -1.0358303241e-01 -2.7472030555e+01" polarizability="3.8390009379e+01 -1.9246381997e+00 9.5999877376e-02 -1.9246381997e+00 3.9161532512e+01 -2.4001001827e-02 9.5999877376e-02 -2.4001001827e-02 3.6306531719e+01" charge=0 multiplicity=1 method=wB97M-V basis=def2-svpd config_type=h2so4 sample_index=58 temperature=300.0 units=atomic
S         0.0068483940      -0.0033877900       0.1568142931  -1.326550866758e-02  -1.008985715110e-02  -1.807496087245e-02
O         0.0243239267       1.2577090021       0.8271385991  -7.029972568997e-03   2.005758635170e-02   9.155902934891e-03
O        -0.0171310097      -1.2644378609       0.8395082260   5.323535275909e-03  -1.167177200552e-02   3.279603605705e-03
O         1.2401866556       0.0795863391      -0.8622111303   3.998886336916e-02  -5.638180963607e-02  -1.321043670376e-02
O        -1.2724094905      -0.0680778523      -0.8754314437   5.189669173598e-03   2.749715691374e-02   5.784412556515e-03
H         1.7839571759      -0.8272603109      -0.9614685669  -4.023550153362e-02   5.391388927661e-02   8.975152652505e-03
H        -1.6039747389       0.8615172517      -1.0317032403   1.003198528167e-02  -2.334398350418e-02   3.999402539349e-03
7
Properties=species:S:1:pos:R:3:forces:R:3 energy=-6.997864774752e+02 dipole="-1.1623817390e-01 3.7886457221e-02 -1.2452810058e+00" quadrupole="-2.4623045457e+01 -3.9184307563e+00 -2.6893748981e-01 -3.9184307563e+00 -2.8064694738e+01 3.9448634593e-01 -2.6893748981e-01 3.9448634593e-01 -2.5131237758e+01" polarizability="3.7950003672e+01 -1.8794911422e+00 -9.1600349117e-01 -1.8794911422e+00 3.8762513036e+01 6.5213966729e-01 -9.1600349117e-01 6.5213966729e-01 3.7400278881e+01" charge=0 multiplicity=1 method=wB97M-V basis=def2-svpd config_type=h2so4 sample_index=59 temperature=300.0 units=atomic
S        -0.0192262061       0.0083959696       0.1852546018   2.446041552265e-02  -3.433038135672e-02  -7.089915874486e-02
O        -0.0175156324       1.2636795327       0.8224813922   2.587108623673e-03   3.980975278753e-02   2.133347017756e-02
O         0.0281295069      -1.2657833425       0.8187269541  -8.860027072151e-03  -1.766163289406e-02   1.546541034877e-02
O         1.2944133229       0.0294357806      -0.8664833744  -3.127905657085e-03  -2.566506224050e-02  -1.533072467252e-02
O        -1.2692129333      -0.0415691897      -0.8624052297   1.351793742367e-02  -3.634770824450e-02   1.793793675226e-02
H         1.5471386795      -0.8369699212      -1.3982331956  -2.614636914797e-02   4.366578947665e-02   3.882140677604e-02
H        -1.5061764030       0.7953345956      -1.2211161324  -2.442923416581e-03   3.050644207531e-02  -7.397852289770e-03
7
Properties=species:S:1:pos:R:3:forces:R:3 energy=-6.997782508134e+02 dipole="-3.7695117526e-01 7.7715490649e-02 -1.1696456006e+00" quadrupole="-2.2332741282e+01 -4.3787509803e+00 -3.0934618366e-01 -4.3787509803e+00 -2.8648209205e+01 7.8758114907e-01 -3.0934618366e-01 7.8758114907e-01 -2.8429477042e+01" polarizability="3.8064704067e+01 -1.9020224931e+00 -1.1091560757e-03 -1.9020224931e+00 3.9823361696e+01 2.3287902729e-01 -1.1091560757e-03 2.3287902729e-01 3.6717363154e+01" charge=0 multiplicity=1 method=wB97M-V basis=def2-svpd config_type=h2so4 sample_index=60 temperature=300.0 units=atomic
S        -0.0027747893       0.0185269104       0.1112853922   5.782344177767e-03  -2.552365666819e-02   8.222043057200e-02
O         0.0120663621       1.2614868534       0.8816052981  -8.536461284160e-03  -9.097549177916e-03  -2.306875930867e-02
O        -0.0096389366      -1.2661291554       0.8733061371   7.091187663957e-03   3.453586719000e-02  -3.275676245295e-02
O         1.2544009858       0.0538572919      -0.8617854175  -2.724234259723e-03  -1.116670034261e-02  -4.778014710476e-03
O        -1.2215165488      -0.0807098807      -0.8930150584  -6.005568800392e-02   7.916764411615e-02   7.738437100631e-03
H         1.3840593967      -0.8976846337      -1.0112838944   1.228017138349e-02  -1.130541521003e-03  -8.173118625936e-03
H        -1.8539333604       0.8022678288      -0.6577541388   4.616548135244e-02  -6.676660217948e-02  -2.126343700076e-02
7
Properties=species:S:1:pos:R:3:forces:R:3 energy=-6.997846226177e+02 dipole="-2.0552965984e-01 7.6960710142e-02 -1.1375547658e+00" quadrupole="-2.3426841502e+01 -4.1744364247e+00 -2.3388771166e-01 -4.1744364247e+00 -2.8476778630e+01 2.5834346906e-01 -2.3388771166e-01 2.5834346906e-01 -2.7413838980e+01" polarizability="3.7874106864e+01 -1.2694717061e+00 9.8661781476e-01 -1.2694717061e+00 3.9723951977e+01 -2.6309637645e-01 9.8661781476e-01 -2.6309637645e-01 3.7249546637e+01" charge=0 multiplicity=1 method=wB97M-V basis=def2-svpd config_type=h2so4 sample_index=61 temperature=300.0 units=atomic
S        -0.0105486981       0.0016404625       0.1481283195   4.002955643715e-03  -8.452396176613e-03   2.816881958930e-02
O         0.0260838310       1.2879532452       0.8581325979  -1.037472820324e-02  -2.608021489145e-02  -2.108716511976e-02
O         0.0234647349      -1.2886067811       0.8687655780  -4.392716282030e-03   3.310115838408e-02  -2.519005679406e-02
O         1.2578150913       0.0525950171      -0.8549887380  -3.771152938159e-02   1.153960152561e-01   3.854144289325e-02
O        -1.2710518064      -0.0619702989      -0.9220057904  -2.736750588106e-04   4.124274476747e-02   1.814463394454e-02
H         1.4621498097      -0.7600249949      -1.1159319006   3.033707121281e-02  -1.181706327749e-01  -3.797118376161e-02
H        -1.7039322949       0.8645654381      -0.9233185808   1.835267089712e-02  -3.701797821632e-02  -6.877422008373e-04
7
Properties=species:S:1:pos:R:3:forces:R:3 energy=-6.997638991409e+02 dipole="5.6035037322e-02 -7.2601629922e-02 -1.3545135150e+00" quadrupole="-2.5854952779e+01 -3.7616808919e+00 5.9152855942e-01 -3.7616808919e+00 -2.7462030070e+01 -6.4316569383e-01 5.9152855942e-01 -6.4316569383e-01 -2.6285598366e+01" polarizability="3.9108347000e+01 -3.3777633122e+00 2.5420971064e-02 -3.3777633122e+00 4.2939974268e+01 -2.2419232836e-01 2.5420971064e-02 -2.2419232836e-01 3.9375039992e+01" charge=0 multiplicity=1 method=wB97M-V basis=def2-svpd config_type=h2so4 sample_index=62 temperature=300.0 units=atomic
S        -0.0125364400       0.0091198419       0.1535664081   1.347879244990e-02   7.129062436427e-03   1.584329095637e-02
O        -0.0758831262       1.2937538623       0.8760522021   9.445115743598e-03  -3.161933946680e-02  -2.122127848213e-02
O         0.0982749419      -1.2917821018       0.8348133168  -1.633618189450e-02   2.469964169981e-02  -1.328239000717e-02
O         1.2861175064      -0.0081475398      -0.8884664864  -9.248907539332e-03  -8.342033684848e-02   6.173445433813e-03
O        -1.2972450817       0.0005078178      -0.8606268866   1.863786831008e-02   5.752468368820e-02  -3.559134985595e-02
H         1.4620240135      -1.1336848180      -0.9601069894  -1.147932543940e-02   9.282742034740e-02   4.396776411195e-03
H        -1.2462590765       0.9363761603      -1.4310390403  -4.489923337367e-03  -6.718346129458e-02   4.360423462982e-02
7
Properties=species:S:1:pos:R:3:forces:R:3 energy=-6.997669021616e+02 dipole="3.7694330305e-02 4.3319838246e-02 -9.4833181683e-01" quadrupole="-2.0876761628e+01 -5.1395309351e+00 7.9054636010e-01 -5.1395309351e+00 -2.8794380986e+01 -5.3918275792e-01 7.9054636010e-01 -5.3918275792e-01 -2.8483258390e+01" polarizability="4.1917170681e+01 -2.5367307540e+00 3.3954172606e-01 -2.5367307540e+00 4.1873898751e+01 -7.1053752806e-01 3.3954172606e-01 -7.1053752806e-01 3.8385279050e+01" charge=0 multiplicity=1 method=wB97M-V basis=def2-svpd config_type=h2so4 sample_index=63 temperature=300.0 units=atomic
S        -0.0124958946      -0.0011075610       0.1549347991   9.666693794716e-03  -1.120505087997e-02   9.849059803331e-03
O         0.0576335245       1.2789619252       0.8524926507  -1.508461243353e-02  -1.488284289236e-02  -6.984114237495e-03
O        -0.0308882099      -1.3025639544       0.8710502739   5.886070799026e-03   3.940490329968e-02  -2.712153361818e-02
O         1.2516486417       0.1026381015      -0.9081809355   4.219343964669e-02  -9.049448870841e-02   2.664276723383e-02
O        -1.2634767729      -0.0767422471      -0.8967064878  -1.722418185190e-02   4.448729040816e-02   4.077713643724e-04
H         1.9274296777      -0.8170167012      -0.7186292506  -6.030728843012e-02   7.732491522758e-02  -1.637392955748e-02
H        -1.7721685263       0.8218809530      -1.0524313926   3.484984215004e-02  -4.461505053127e-02   1.353632586917e-02
7
Properties=species:S:1:pos:R:3:forces:R:3 energy=-6.997405326387e+02 dipole="6.6446834504e-02 2.2699805885e-01 -7.0079033784e-01" quadrupole="-1.9940723656e+01 -5.2265063946e+00 6.4002468130e-02 -5.2265063946e+00 -2.8481375431e+01 9.3788826891e-02 6.4002468130e-02 9.3788826891e-02 -2.9595168979e+01" polarizability="4.2191961060e+01 -5.0726245457e+00 -6.4566522241e-01 -5.0726245457e+00 4.2206987590e+01 -1.1616031465e+00 -6.4566522241e-01 -1.1616031465e+00 3.6663943600e+01" charge=0 multiplicity=1 method=wB97M-V basis=def2-svpd config_type=h2so4 sample_index=64 temperature=300.0 units=atomic
S        -0.0185349664       0.0016258416       0.1446009217   4.385645563184e-02  -8.726856781333e-02   1.822858339822e-02
O        -0.0677922629       1.2655703802       0.7972592192   3.900834003060e-03   3.206482152878e-02   2.701586732237e-02
O         0.0595635510      -1.3243984282       0.8736194373  -7.744232612915e-03   6.029343317676e-02  -3.172591516223e-02
O         1.2451984816       0.0098533156      -0.9058199752   5.817543370445e-02  -7.013856419695e-02   2.870383410868e-02
O        -1.2197412899       0.0342446063      -0.8598372359  -6.181224938771e-02   7.312327582752e-02   9.616319806867e-04
H         2.0446579101      -0.8382459604      -0.6170797285  -7.862304235486e-02   7.472979415082e-02  -2.118870453695e-02
H        -1.7346623853       1.0313793470      -0.6191160557   4.222611864668e-02  -8.287867556155e-02  -2.209804110825e-02
7
Properties=species:S:1:pos:R:3:forces:R:3 energy=-6.997862653772e+02 dipole="-1.6133920401e-01 1.6248051907e-01 -7.9152661486e-01" quadrupole="-2.4776643621e+01 -3.9913393866e+00 -1.7450902950e-02 -3.9913393866e+00 -2.7706296702e+01 3.9975883344e-01 -1.7450902950e-02 3.9975883344e-01 -2.7216258377e+01" polarizability="3.8702987053e+01 -1.9506578631e+00 6.9006825135e-01 -1.9506578631e+00 4.0611397569e+01 1.0059886528e+00 6.9006825135e-01 1.0059886528e+00 3.7346786444e+01" charge=0 multiplicity=1 method=wB97M-V basis=def2-svpd config_type=h2so4 sample_index=65 temperature=300.0 units=atomic
S        -0.0223754022       0.0441131453       0.2013632154   2.605776341855e-02  -6.756726192632e-02  -5.244703039051e-02
O        -0.0127220530       1.3258311913       0.8637943214  -5.360911465607e-03  -8.233268819652e-03  -6.060005210703e-03
O         0.0793813782      -1.3052703138       0.7675588956  -1.811426863016e-02   2.771017438763e-02   1.298012457705e-02
O         1.2722818650      -0.0305655319      -0.8640104356  -1.630168503672e-02   2.407976748599e-02   1.020146356693e-02
O        -1.2902947795      -0.0708417313      -0.9223294596   3.488641312330e-02  -2.660755806162e-03   3.854106802438e-02
H         1.4828788512      -0.9641533122      -1.0534570183  -7.216658800995e-03   4.654741471448e-03   6.522893473632e-03
H        -1.5431640152       0.8394290269      -1.0134916010  -1.396193172735e-02   2.191957535083e-02  -9.801981026315e-03
7
Properties=species:S:1:pos:R:3:forces:R:3 energy=-6.997899144400e+02 dipole="1.0630170083e-01 -8.9490572028e-02 -1.2266854396e+00" quadrupole="-2.4237800762e+01 -3.5612544409e+00 8.2909414849e-01 -3.5612544409e+00 -2.8781055943e+01 -9.6482790535e-01 8.2909414849e-01 -9.6482790535e-01 -2.5691138915e+01" polarizability="3.4652673198e+01 -1.1330805851e+00 1.5674775547e-01 -1.1330805851e+00 3.8726022926e+01 -1.1374135130e+00 1.5674775547e-01 -1.1374135130e+00 3.4870059175e+01" charge=0 multiplicity=1 method=wB97M-V basis=def2-svpd config_type=h2so4 sample_index=66 temperature=300.0 units=atomic
S        -0.0229451701      -0.0180789214       0.1774597363   2.532052614383e-02   1.859453615069e-02  -1.397067271792e-03
O         0.0244605569       1.2825636838       0.7671582682  -8.801768411783e-03   1.477404060758e-02   3.263269115687e-02
O         0.0125413227      -1.3123867235       0.8073378328  -2.294701338144e-03   1.139674067662e-03   7.368536406315e-03
O         1.1895982687       0.0959201015      -0.8547808989   2.236563737528e-02  -2.492771382043e-02  -7.400118426558e-03
O        -1.2058930443      -0.0276994041      -0.8149102456  -4.472617493201e-02   5.262679001855e-03  -4.503426373884e-02
H         1.6226024557      -0.7755209193      -0.8147988293   4.271943757374e-03   4.202663093194e-03  -8.814158706861e-03
H        -1.2319460302       0.7516182974      -1.4422253782   3.840197709352e-03  -1.902343153463e-02   2.259141696805e-02
7
Properties=species:S:1:pos:R:3:forces:R:3 energy=-6.997803200983e+02 dipole="9.8159154089e-02 -6.7164925773e-02 -1.0782832539e+00" quadrupole="-2.2703684382e+01 -4.7433543829e+00 3.0259596490e-01 -4.7433543829e+00 -2.7897063643e+01 -4.4875062235e-01 3.0259596490e-01 -4.4875062235e-01 -2.7014563549e+01" polarizability="3.8330059333e+01 -2.8628863952e+00 -4.5815814898e-01 -2.8628863952e+00 3.9463220458e+01 3.0603442897e-01 -4.5815814898e-01 3.0603442897e-01 3.6334144916e+01" charge=0 multiplicity=1 method=wB97M-V basis=def2-svpd config_type=h2so4 sample_index=67 temperature=300.0 units=atomic
S        -0.0149133243      -0.0027116856       0.1690421867   2.266797174537e-02   3.169727302267e-02  -4.191725428300e-02
O        -0.0053358043       1.2639753980       0.8381863155  -2.797066062307e-03   1.309282284030e-02   6.486156108602e-03
O         0.0158598508      -1.2501660546       0.8124959092  -2.472881301854e-03  -5.045199691954e-02   2.931841548454e-02
O         1.2418054235       0.0442932649      -0.8839427757   4.089292741714e-02  -6.817996063219e-02  -2.613418602422e-03
O        -1.2416045813      -0.0494362684      -0.8534531409  -1.765640975172e-02   2.845131740144e-02  -1.541152703242e-02
H         1.8116510218      -0.9193128133      -0.9487326361  -5.341512971154e-02   7.592358117877e-02   1.008310927371e-02
H        -1.5111128518       0.8702159675      -1.1747743467   1.274632236461e-02  -3.055521743982e-02   1.395166342363e-02
7
Properties=species:S:1:pos:R:3:forces:R:3 energy=-6.997800856842e+02 dipole="9.1454510179e-03 9.6456065279e-02 -9.3001254174e-01" quadrupole="-2.1421661128e+01 -4.9219255986e+00 -4.2846076294e-01 -4.9219255986e+00 -2.8630933315e+01 4.6763640919e-01 -4.2846076294e-01 4.6763640919e-01 -2.7665478384e+01" polarizability="3.8914772976e+01 -3.0544998710e+00 8.0777104835e-01 -3.0544998710e+00 4.1364705670e+01 -9.9486085480e-02 8.0777104835e-01 -9.9486085480e-02 3.5379034800e+01" charge=0 multiplicity=1 method=wB97M-V basis=def2-svpd config_type=h2so4 sample_index=68 temperature=300.0 units=atomic
S         0.0102994878       0.0175937233       0.1723870603  -3.089121421591e-02  -5.683010505065e-02  -3.187588913988e-03
O        -0.0029928698       1.3162437930       0.7750219276  -2.424071661071e-03   8.919497170243e-03   1.917506481677e-02
O         0.0303280826      -1.3346816366       0.7781791047  -3.794318694515e-03   4.086952592951e-02  -7.060655060975e-05
O         1.2224672105       0.0266026722      -0.8019897003   5.167331028505e-02  -2.830776289302e-02  -3.582114156895e-02
O        -1.2580198629      -0.0417278651      -0.8661130016  -3.679661163152e-02   5.753282862900e-02   4.208082356405e-03
H         1.6799144320      -0.8794496327      -0.9612566509  -2.874791558206e-02   3.871940501681e-02   1.206652730852e-02
H        -1.8740585811       0.8511208797      -0.8531839925   5.101024981772e-02  -6.096986660782e-02   3.600700171496e-03
7
Properties=species:S:1:pos:R:3:forces:R:3 energy=-6.997756205418e+02 dipole="9.8901976591e-02 -6.7171437601e-02 -7.3325424976e-01" quadrupole="-2.2089866463e+01 -4.7988084879e+00 -9.6577088662e-01 -4.7988084879e+00 -2.8062927169e+01 7.2983225721e-01 -9.6577088662e-01 7.2983225721e-01 -2.8023143219e+01" polarizability="3.8698021661e+01 -2.6192238346e+00 1.7428097608e-01 -2.6192238346e+00 4.0002232529e+01 1.6064012809e+00 1.7428097608e-01 1.6064012809e+00 3.6146647882e+01" charge=0 multiplicity=1 method=wB97M-V basis=def2-svpd config_type=h2so4 sample_index=69 temperature=300.0 units=atomic
S         0.0003813753       0.0215069710       0.1876688065  -7.026945662998e-04  -2.171123425939e-03  -5.607622521509e-02
O         0.0161959252       1.3016674469       0.8489058729  -9.017907619243e-03  -9.244356093276e-04  -4.700694124544e-04
O         0.0184200068      -1.2616740012       0.7729123374  -2.337492280332e-03  -4.134048289768e-02   4.265758082054e-02
O         1.2099956131       0.0150883528      -0.8505611948   5.627090135266e-02  -5.244149379816e-02  -2.448900943629e-02
O        -1.2449128864      -0.0880485748      -0.9188152138  -3.550118945499e-03   5.411329525295e-02   3.362175492631e-02
H         1.7263726997      -0.9525724956      -1.0106998716  -4.960151421890e-02   7.294983650774e-02   1.972058799561e-02
H        -1.7285423207       0.7833278487      -0.7437404904   8.881707960422e-03  -3.020936404181e-02  -1.501643468732e-02
7
Properties=species:S:1:pos:R:3:forces:R:3 energy=-6.996992830969e+02 dipole="-3.6348742564e-01 1.5342004978e-01 -1.2630117646e+00" quadrupole="-2.2075187442e+01 -4.8061155256e+00 -1.7078143022e+00 -4.8061155256e+00 -2.8756864328e+01 1.1327147841e+00 -1.7078143022e+00 1.1327147841e+00 -2.5144131343e+01" polarizability="4.3748487250e+01 -5.0930824444e+00 -5.7544987425e-01 -5.0930824444e+00 4.3418463177e+01 1.4706982407e+00 -5.7544987425e-01 1.4706982407e+00 4.1108018451e+01" charge=0 multiplicity=1 method=wB97M-V basis=def2-svpd config_type=h2so4 sample_index=70 temperature=300.0 units=atomic
S        -0.0035683048      -0.0010503991       0.1993292028  -9.976641557467e-03  -2.082962404932e-02  -6.518557979414e-02
O         0.0313518140       1.2975116550       0.7911917945  -5.696310290415e-03   1.388400259965e-02   2.235426807732e-02
O         0.0034492869      -1.2890148333       0.8297178614  -4.146558541290e-03  -4.654310720930e-03   1.917459480780e-02
O         1.2339315660       0.0503983075      -0.8129686494   4.126144859067e-02  -4.788703908728e-02  -8.449972669869e-02
O        -1.2240155474      -0.0736657082      -0.9308867698  -6.571177919437e-02   8.982509415715e-02   2.653708519292e-02
H         1.4560573998      -0.6974036783      -1.7198326268  -3.401193465139e-02   5.995350664128e-02   9.051138863102e-02
H        -2.0476767651       0.9556851331      -0.7905704027   7.830251239686e-02  -9.017949427146e-02  -8.915782821018e-03
7
Properties=species:S:1:pos:R:3:forces:R:3 energy=-6.997656049642e+02 dipole="2.0524439263e-01 1.5595465340e-01 -1.1205038170e+00" quadrupole="-2.0785577895e+01 -4.6151147791e+00 -7.7234124846e-02 -4.6151147791e+00 -2.8983131850e+01 3.0949458100e-01 -7.7234124846e-02 3.0949458100e-01 -2.7779642927e+01" polarizability="3.8551484258e+01 -2.6257547279e+00 -5.2802751823e-01 -2.6257547279e+00 4.0115052105e+01 -4.3905141500e-01 -5.2802751823e-01 -4.3905141500e-01 3.5872076729e+01" charge=0 multiplicity=1 method=wB97M-V basis=def2-svpd config_type=h2so4 sample_index=71 temperature=300.0 units=atomic
S         0.0003220991       0.0250279550       0.1368148879   3.364276530159e-03  -1.063289721728e-01   3.271994885832e-02
O        -0.0427404372       1.2762430591       0.8061498528   4.717174880903e-03   2.916794093878e-02   1.753706612545e-02
O         0.0426956774      -1.3373191488       0.8408211785  -7.562448643376e-03   7.537334069468e-02  -3.649704213642e-02
O         1.2519387742       0.0105756243      -0.8492253577   4.732339284435e-02  -3.728285237749e-02  -1.899344185115e-02
O        -1.2652870566       0.0069557274      -0.8384477201   6.685662249333e-02  -1.319638443439e-01   8.255101578962e-03
H         1.9125454825      -0.8414311500      -0.8717719520  -5.726908530327e-02   5.323094537983e-02   1.084156017057e-02
H        -1.7115427615       0.7440664536      -0.9840748413  -5.742772787410e-02   1.177121554072e-01  -1.395038134527e-02
7
Properties=species:S:1:pos:R:3:forces:R:3 energy=-6.997543632655e+02 dipole="1.7168837198e-02 -1.1383137744e-01 -1.1936904196e+00" quadrupole="-2.5025206890e+01 -4.2405053478e+00 7.1897546291e-01 -4.2405053478e+00 -2.7325560513e+01 -7.3029720131e-01 7.1897546291e-01 -7.3029720131e-01 -2.6148832360e+01" polarizability="3.6433023900e+01 -2.5616922900e+00 -6.9306542503e-02 -2.5616922900e+00 4.0293426012e+01 -1.0253842587e+00 -6.9306542503e-02 -1.0253842587e+00 3.5723934529e+01" charge=0 multiplicity=1 method=wB97M-V basis=def2-svpd config_type=h2so4 sample_index=72 temperature=300.0 units=atomic
S        -0.0003422688      -0.0198844000       0.1677180742   4.749901688054e-03   3.707959845122e-02  -4.740428801472e-02
O        -0.0183245579       1.2477373433       0.7664990865   1.276143623895e-03   5.679033199019e-02   4.684496321530e-02
O         0.0060629890      -1.2679512732       0.8072235841   3.145552348570e-03  -5.459673896134e-02   2.876981347728e-02
O         1.2470080083       0.0960204637      -0.8484959725   1.745662578622e-02  -1.184467832845e-01  -6.404179379059e-03
O        -1.2396250736      -0.0310355653      -0.8024646930  -3.368353739927e-02   6.326655747749e-02  -6.284177194050e-02
H         1.4497026764      -1.0367871212      -0.9368863408  -6.038919593925e-03   9.532790350975e-02  -2.832101716527e-03
H        -1.3659221520       0.9638009513      -1.3016629419   1.306133271569e-02  -7.937740210839e-02   4.384355046574e-02
7
Properties=species:S:1:pos:R:3:forces:R:3 energy=-6.997338839575e+02 dipole="6.9497772146e-02 -1.1606982770e-01 -1.8145477609e+00" quadrupole="-2.6802312581e+01 -3.0492952062e+00 4.7378169350e-01 -3.0492952062e+00 -2.8300792227e+01 -2.0153269632e-01 4.7378169350e-01 -2.0153269632e-01 -2.3348897668e+01" polarizability="3.5636370957e+01 -1.5423020648e+00 3.8307092497e-01 -1.5423020648e+00 4.1416755904e+01 -8.2485468769e-01 3.8307092497e-01 -8.2485468769e-01 4.1514291208e+01" charge=0 multiplicity=1 method=wB97M-V basis=def2-svpd config_type=h2so4 sample_index=73 temperature=300.0 units=atomic
S         0.0111622185      -0.0014935639       0.1726887827  -9.777856693169e-03   2.079309015356e-02  -7.286673353139e-03
O        -0.0017719828       1.2527619351       0.8579325127   3.616818211880e-03   1.619990065539e-02   1.104329696394e-02
O        -0.0174601150      -1.2574303187       0.8482189022   4.215464929840e-03  -2.264963955877e-02   1.053373560938e-02
O         1.2018607721       0.0939234104      -0.8845477798   8.894460586838e-03  -9.989505896231e-02  -4.848421287907e-02
O        -1.2065192371      -0.0748977664      -0.8507341345  -1.306101588012e-02   6.952895558830e-02  -9.075134546340e-02
H         1.1420514567      -0.9684547038      -1.3833506310   1.166725769467e-02   9.143994122528e-02   3.991309882743e-02
H        -1.1179459871       0.7893848791      -1.7264760915  -5.518594363563e-03  -7.544743563739e-02   8.491286147515e-02
7
Properties=species:S:1:pos:R:3:forces:R:3 energy=-6.997832530148e+02 dipole="-6.5915227963e-02 -6.3606148714e-02 -1.4373018829e+00" quadrupole="-2.5007742302e+01 -3.8432823518e+00 -3.5923949380e-01 -3.8432823518e+00 -2.8067686218e+01 3.6108104432e-01 -3.5923949380e-01 3.6108104432e-01 -2.5514086099e+01" polarizability="3.6096706403e+01 -8.6590943014e-01 -1.5346175646e-01 -8.6590943014e-01 3.7983157023e+01 1.2197915779e+00 -1.5346175646e-01 1.2197915779e+00 3.7158534564e+01" charge=0 multiplicity=1 method=wB97M-V basis=def2-svpd config_type=h2so4 sample_index=74 temperature=300.0 units=atomic
S        -0.0162022096       0.0003592644       0.1551624259   1.400668245504e-02   1.559682920949e-02  -2.619683424507e-02
O         0.0623955542       1.2323256217       0.8581186511  -1.422513833492e-02   3.463747992107e-02   7.718831461686e-03
O        -0.0169245937      -1.2175447045       0.8461246197  -1.385472232960e-03  -6.015218159814e-02   2.517933229762e-02
O         1.2385502694       0.0976897951      -0.8435716877   1.296779709094e-02  -7.541363061045e-02  -4.731321702677e-02
O        -1.2493552678      -0.1082783242      -0.8917758806   7.504735279884e-03  -2.567469397922e-03   1.224385646759e-02
H         1.3711196881      -0.8650664129      -1.3577046608  -1.056647895282e-02   7.138750271773e-02   3.913749515828e-02
H        -1.4073314977       0.7832890736      -1.1894424749  -8.348055353950e-03   1.655803399274e-02  -1.080989331356e-02
7
Properties=species:S:1:pos:R:3:forces:R:3 energy=-6.997953293538e+02 dipole="1.4165396192e-01 2.0304526919e-02 -1.4683675141e+00" quadrupole="-2.4585733098e+01 -3.7942059251e+00 4.0601579588e-01 -3.7942059251e+00 -2.8334488719e+01 -2.5315233088e-01 4.0601579588e-01 -2.5315233088e-01 -2.5881989421e+01" polarizability="3.7099442118e+01 -1.7547985972e+00 3.0570650476e-01 -1.7547985972e+00 3.9312056800e+01 -1.7858722486e-01 3.0570650476e-01 -1.7858722486e-01 3.7161358318e+01" charge=0 multiplicity=1 method=wB97M-V basis=def2-svpd config_type=h2so4 sample_index=75 temperature=300.0 units=atomic
S         0.0291851594       0.0125085491       0.1378831793  -3.637995097789e-02   9.855862546126e-05   3.343969582577e-02
O        -0.0574072268       1.2749113708       0.8672326040   1.526383628871e-02  -1.527111766955e-02  -1.836038351962e-02
O         0.0094365947      -1.2726430863       0.8325530746   4.287914503607e-03   1.605259216618e-02  -1.425718070478e-02
O         1.2720027033       0.0181736261      -0.8686999239  -5.680081266444e-03   3.189773678938e-02   3.824507764133e-03
O        -1.2803874886      -0.0414176016      -0.8362219391   4.672470858381e-03   1.495311210291e-02  -1.692263734823e-02
H         1.4519034332      -0.8794619419      -1.1077390158   6.450361513375e-03  -2.596394428727e-02  -6.778997596092e-03
H        -1.4803267205       0.8143909273      -1.3199922949   1.144015941560e-02  -2.173714420690e-02   1.897861666179e-02
7
Properties=species:S:1:pos:R:3:forces:R:3 energy=-6.997899864376e+02 dipole="3.6982675319e-03 1.8967199149e-01 -9.8866063360e-01" quadrupole="-2.4611516467e+01 -4.1661846576e+00 -4.6052735224e-02 -4.1661846576e+00 -2.7750344493e+01 8.4111066860e-02 -4.6052735224e-02 8.4111066860e-02 -2.6854472330e+01" polarizability="3.8132080546e+01 -1.8907046805e+00 1.2246595052e+00 -1.8907046805e+00 3.9283704472e+01 -1.2531869983e-01 1.2246595052e+00 -1.2531869983e-01 3.5199493270e+01" charge=0 multiplicity=1 method=wB97M-V basis=def2-svpd config_type=h2so4 sample_index=76 temperature=300.0 units=atomic
S        -0.0041661223       0.0289308613       0.1603601876  -8.230364369469e-03  -7.963801149346e-02  -3.553390709672e-02
O         0.0020134644       1.2803377430       0.7942401061  -6.526419357697e-03   4.939451853509e-02   2.700184553023e-02
O         0.0578603398      -1.2909288760       0.7615036481  -1.174516716416e-02   7.885279792642e-03   1.115426008364e-02
O         1.2930039188       0.0158775723      -0.7826345967  -2.715511365562e-03   1.372762752118e-02  -1.473857433573e-02
O        -1.3419333757      -0.0644545195      -0.8519801176   2.460633511137e-02   5.769393672669e-02   9.148465486208e-03
H         1.4981415668      -0.9102347187      -0.9669369222   1.402427635038e-03  -3.346355207081e-03  -1.313797184201e-03
H        -1.5388538722       0.9293439061      -1.0401489581   3.239564923562e-03  -4.582474451202e-02   4.262498224954e-03
7
Properties=species:S:1:pos:R:3:forces:R:3 energy=-6.997771680292e+02 dipole="2.0556513816e-01 -1.1972812960e-01 -1.2747400334e+00" quadrupole="-2.4933344413e+01 -4.2160352679e+00 -1.0674259161e-01 -4.2160352679e+00 -2.7811844404e+01 -1.7029759509e-01 -1.0674259161e-01 -1.7029759509e-01 -2.6262690628e+01" polarizability="3.9075580516e+01 -2.0085430198e+00 -2.5699475962e-01 -2.0085430198e+00 3.9928641803e+01 5.5560996203e-01 -2.5699475962e-01 5.5560996203e-01 3.5873295441e+01" charge=0 multiplicity=1 method=wB97M-V basis=def2-svpd config_type=h2so4 sample_index=77 temperature=300.0 units=atomic
S         0.0115553085      -0.0019019370       0.1308834465  -1.148853585755e-02   4.536752843604e-02  -9.552024034181e-03
O        -0.0189700988       1.2790851272       0.8028609604   3.373173324571e-03  -4.174730705166e-04  -3.471302092507e-03
O        -0.0061718711      -1.2522800946       0.7631929377   6.638092003973e-03  -5.900747899686e-02   3.444634257562e-02
O         1.3428386442       0.0566303215      -0.8001901439   2.291766800049e-04  -7.345855057478e-02  -2.318784122572e-02
O        -1.3528627189      -0.0748641539      -0.7746713139   2.635265541383e-02   6.743554735271e-02  -3.037495148133e-02
H         1.5768249052      -0.9805182221      -1.0405749507  -1.583104100477e-02   7.367515986281e-02   1.602784400324e-02
H        -1.3834182093       0.9035253842      -1.1528715398  -9.223831008027e-03  -5.357528166195e-02   1.606014051950e-02
7
Properties=species:S:1:pos:R:3:forces:R:3 energy=-6.997877089440e+02 dipole="3.8698231760e-01 -1.0262853047e-02 -1.4528467747e+00" quadrupole="-2.4201441038e+01 -3.7040589923e+00 -6.1594992111e-01 -3.7040589923e+00 -2.8328020772e+01 2.6610450209e-02 -6.1594992111e-01 2.6610450209e-02 -2.6617932210e+01" polarizability="3.4948435655e+01 -8.6846873417e-01 1.9600147290e-01 -8.6846873417e-01 3.7513406441e+01 6.0414798533e-02 1.9600147290e-01 6.0414798533e-02 3.6797621929e+01" charge=0 multiplicity=1 method=wB97M-V basis=def2-svpd config_type=h2so4 sample_index=78 temperature=300.0 units=atomic
S         0.0179029922       0.0021871510       0.1342812326  -3.868516206895e-02  -3.286975568343e-02   5.984175079418e-02
O         0.0093087083       1.2264308092       0.8929702733  -2.000390451361e-03   1.414573318074e-02  -1.347463276375e-02
O        -0.0078766679      -1.2404315016       0.9043425437   5.877816425450e-03   8.630360652486e-03  -2.616639772936e-02
O         1.1730496681       0.0736714700      -0.8902812992   4.311319338511e-02  -8.107770858562e-03  -2.532871270922e-02
O        -1.2273771579      -0.0628139842      -0.9102833882   1.187005403327e-02  -6.538390907116e-02   3.710868021929e-02
H         1.5432514251      -0.8089661700      -1.1029607534  -5.182352292092e-03   7.407575141179e-03   2.209652567383e-03
H        -1.2703779533       0.7923267387      -1.2038531800  -1.497954144309e-02   7.613649036526e-02  -3.429105214157e-02
7
Properties=species:S:1:pos:R:3:forces:R:3 energy=-6.997909708757e+02 dipole="-3.1990129050e-01 -5.3338770223e-02 -1.1998243348e+00" quadrupole="-2.6047408717e+01 -3.1342036882e+00 4.4210760353e-01 -3.1342036882e+00 -2.8255319929e+01 -1.6329205693e-01 4.4210760353e-01 -1.6329205693e-01 -2.4771470794e+01" polarizability="3.5766713041e+01 -1.3682679677e+00 -4.3673426666e-02 -1.3682679677e+00 3.9492226259e+01 -1.6560892210e-01 -4.3673426666e-02 -1.6560892210e-01 3.6503411523e+01" charge=0 multiplicity=1 method=wB97M-V basis=def2-svpd config_type=h2so4 sample_index=79 temperature=300.0 units=atomic
S        -0.0470198352      -0.0118536574       0.2116667385   5.236395513240e-02   2.189957308798e-02  -5.502401525031e-02
O         0.0017875186       1.3048100967       0.7876630148  -6.638502911968e-03  -3.365767440638e-03   1.997722831244e-02
O         0.0702865998      -1.3097495015       0.8111421157  -2.007358791437e-02  -1.665699890147e-03   1.374036790980e-02
O         1.2420496300       0.0459900286      -0.8596000453  -1.503256131589e-02   3.262829038309e-04   1.106743683469e-02
O        -1.2184492339      -0.0155636842      -0.8755118349  -1.640669969471e-02  -3.877756040293e-02   1.253814179722e-02
H         1.2857887252      -0.8155141406      -1.3031076953   1.984295480492e-03  -1.413219385071e-06   1.501340025163e-03
H        -1.3193474722       0.7894136336      -1.3689969296   3.865802865475e-03   2.158854463110e-02  -3.814575965720e-03
7
Properties=species:S:1:pos:R:3:forces:R:3 energy=-6.997900896397e+02 dipole="-1.5783337185e-03 -3.6557844295e-02 -1.2151033497e+00" quadrupole="-2.1254722398e+01 -4.5297390914e+00 -4.3049037951e-01 -4.5297390914e+00 -2.8374275747e+01 -3.4461705562e-03 -4.3049037951e-01 -3.4461705562e-03 -2.8279023445e+01" polarizability="3.6638949997e+01 -2.5575070109e+00 9.5845104038e-02 -2.5575070109e+00 3.7845544245e+01 -3.4845984601e-01 9.5845104038e-02 -3.4845984601e-01 3.5726497292e+01" charge=0 multiplicity=1 method=wB97M-V basis=def2-svpd config_type=h2so4 sample_index=80 temperature=300.0 units=atomic
S        -0.0143588663      -0.0260100398       0.1097433265   1.561139179523e-02   2.253342166729e-02   6.394811582632e-02
O        -0.0329515453       1.2295160928       0.8497491039  -2.194395891820e-03   7.087044926024e-04  -1.339800828979e-02
O         0.0626915367      -1.2300059911       0.9014257886  -8.195416062613e-03  -1.578878193711e-02  -1.462496570123e-02
O         1.2194899776       0.0237997188      -0.8586511325   1.061259282539e-02   1.618608371689e-02  -2.477881903080e-02
O        -1.2262954591       0.0176120747      -0.8836425721  -3.666687960470e-02   2.964256508965e-02  -1.516422678957e-02
H         1.7664944978      -0.7590515854      -0.9417088949  -1.248763931211e-03  -1.249428656048e-02   5.391112682510e-03
H        -1.6777139381       0.9386140814      -0.8102793144   2.210708069489e-02  -4.073320325086e-02  -1.492770048011e-03
7
Properties=species:S:1:pos:R:3:forces:R:3 energy=-6.997858107678e+02 dipole="-2.5224696541e-01 -1.3961482039e-01 -1.4122101675e+00" quadrupole="-2.4265195055e+01 -4.2235183449e+00 -6.3817793477e-02 -4.2235183449e+00 -2.7741644553e+01 4.1860162395e-02 -6.3817793477e-02 4.1860162395e-02 -2.6865919656e+01" polarizability="3.7389881385e+01 -2.4403103866e+00 -4.3734475866e-01 -2.4403103866e+00 3.9857458652e+01 5.7205893514e-01 -4.3734475866e-01 5.7205893514e-01 3.7405729026e+01" charge=0 multiplicity=1 method=wB97M-V basis=def2-svpd config_type=h2so4 sample_index=81 temperature=300.0 units=atomic
S        -0.0339552093      -0.0249420325       0.1253511953   4.760282465459e-02   6.518267939290e-02   4.077794904953e-02
O        -0.0200397081       1.2630433057       0.8642338314  -5.428462098877e-03  -2.970574717011e-02  -3.005699152559e-02
O         0.0602448290      -1.2339179328       0.8746238535  -1.123620064401e-02  -3.060913742132e-02  -1.672325459818e-04
O         1.2780466250       0.0394634569      -0.8592295016  -5.050643739619e-03  -5.637172857398e-02  -1.862058743309e-02
O        -1.2487265158      -0.0208435138      -0.8722246926  -2.538790025207e-02   4.090070490935e-02  -1.889350021651e-02
H         1.4677150564      -0.9398883171      -1.2020806448  -1.078309914201e-02   5.694550298640e-02   2.082353409754e-02
H        -1.4972671178       0.9722244916      -1.0190020330   1.024636250042e-02  -4.629560098238e-02   6.046557692844e-03
7
Properties=species:S:1:pos:R:3:forces:R:3 energy=-6.997533069084e+02 dipole="-1.1167330093e-01 3.1543964346e-02 -9.5054213481e-01" quadrupole="-1.9887851544e+01 -5.0172581169e+00 -8.8655715065e-01 -5.0172581169e+00 -2.9294291914e+01 9.3458515338e-01 -8.8655715065e-01 9.3458515338e-01 -2.8794945908e+01" polarizability="4.1388724061e+01 -3.1261165571e+00 -1.0572556817e+00 -3.1261165571e+00 4.2667141599e+01 3.6180977569e-02 -1.0572556817e+00 3.6180977569e-02 3.7913780179e+01" charge=0 multiplicity=1 method=wB97M-V basis=def2-svpd config_type=h2so4 sample_index=82 temperature=300.0 units=atomic
S         0.0096973295       0.0082222846       0.1628099938  -1.445832556545e-03  -4.668898853360e-02   3.432325053336e-02
O         0.0137154259       1.3050123184       0.8409548875  -3.778788242368e-03  -2.187769719173e-02  -6.659189321928e-03
O        -0.0545051639      -1.3290870855       0.8764686013   1.637830699727e-02   6.355721166311e-02  -2.828001411422e-02
O         1.1991658396       0.0798761793      -0.9136999421   5.026991555538e-02  -6.162667512532e-02  -6.030550306964e-03
O        -1.1652182973      -0.0684330312      -0.9072626821  -8.895831619190e-02   8.104413185874e-02   1.736409267087e-02
H         1.7732171768      -0.8244602054      -1.0326426401  -4.519640062952e-02   5.881635346517e-02   1.374831560331e-02
H        -1.9694624589       0.7616597598      -0.6239748469   7.276686404245e-02  -7.328337782450e-02  -2.450012922449e-02
7
Properties=species:S:1:pos:R:3:forces:R:3 energy=-6.997784460334e+02 dipole="-2.7169816172e-02 1.0012377254e-02 -1.1236075184e+00" quadrupole="-2.3855215461e+01 -3.6504082268e+00 6.2256636223e-02 -3.6504082268e+00 -2.8047786173e+01 1.2289917354e-01 6.2256636223e-02 1.2289917354e-01 -2.7066028738e+01" polarizability="3.4142446218e+01 -2.0645405498e+00 -3.9263018762e-01 -2.0645405498e+00 3.8654441507e+01 -4.2254851202e-01 -3.9263018762e-01 -4.2254851202e-01 3.5938309868e+01" charge=0 multiplicity=1 method=wB97M-V basis=def2-svpd config_type=h2so4 sample_index=83 temperature=300.0 units=atomic
S        -0.0115602229      -0.0011370486       0.1784056511   2.027000009020e-02  -3.918714009069e-02   1.656445203782e-02
O        -0.0705073781       1.2699865325       0.8400211220   7.339195183042e-03   8.609958235741e-03   1.134557303220e-02
O         0.0776551401      -1.3065016706       0.8875588756  -1.295610889022e-02   4.459269094756e-02  -2.706777687689e-02
O         1.1511633982       0.0076222489      -0.9205191891   2.451646408434e-02   8.165376278883e-03   4.651838480946e-03
O        -1.1388390526       0.0349243277      -0.9067738883   1.442839393452e-03  -1.449097051857e-01   1.895853221205e-02
H         1.4793564138      -0.8877402424      -1.0615998651   2.373231713384e-03  -5.018809422978e-03   1.373055494254e-03
H        -1.4248928271       0.8327017004      -1.1069643266  -4.300613165993e-02   1.276332220346e-01  -2.581270738196e-02
7
Properties=species:S:1:pos:R:3:forces:R:3 energy=-6.997546734398e+02 dipole="-1.1066494195e-01 1.3427875198e-01 -9.6734063431e-01" quadrupole="-2.1070070268e+01 -5.4985475484e+00 -3.7993355436e-01 -5.4985475484e+00 -2.7925735348e+01 4.7670689094e-01 -3.7993355436e-01 4.7670689094e-01 -2.7797725869e+01" polarizability="4.0930440245e+01 -3.9108015844e+00 4.1129163793e-01 -3.9108015844e+00 3.9708091507e+01 -4.5449357684e-01 4.1129163793e-01 -4.5449357684e-01 3.4959636991e+01" charge=0 multiplicity=1 method=wB97M-V basis=def2-svpd config_type=h2so4 sample_index=84 temperature=300.0 units=atomic
S        -0.0099600645       0.0089343115       0.1321568748  -1.212019656279e-03  -1.007881130483e-01  -4.059230803107e-02
O         0.0184412690       1.2257518511       0.7581804324  -8.359032809149e-03   1.148884612211e-01   6.278437921390e-02
O         0.0278578824      -1.2648752710       0.8044491368  -5.863470101766e-03  -9.589059402860e-03   4.049445260939e-03
O         1.3000814385       0.0589832144      -0.7734777054   4.145531653952e-02  -6.675735888625e-02  -3.623070092858e-02
O        -1.3183370046      -0.0396575498      -0.8305962119  -4.040895719564e-02   7.445772549630e-02  -3.640658545399e-03
H         1.7867649933      -0.9084950984      -0.9257836754  -4.429233818832e-02   6.895501999363e-02   1.385601941144e-02
H        -1.9174052252       0.9408064449      -0.7963039378   5.863457941750e-02  -8.114325371162e-02  -2.707561410090e-04
7
Properties=species:S:1:pos:R:3:forces:R:3 energy=-6.997863956525e+02 dipole="-3.7848757834e-01 -5.9300332218e-02 -1.2254272038e+00" quadrupole="-2.4486000890e+01 -4.0199926718e+00 5.8649149552e-02 -4.0199926718e+00 -2.8304790420e+01 5.4729750691e-01 5.8649149552e-02 5.4729750691e-01 -2.6204519171e+01" polarizability="3.7041000837e+01 -1.2550622948e+00 -9.4042801218e-01 -1.2550622948e+00 4.0460999751e+01 1.4918596615e+00 -9.4042801218e-01 1.4918596615e+00 3.7262910107e+01" charge=0 multiplicity=1 method=wB97M-V basis=def2-svpd config_type=h2so4 sample_index=85 temperature=300.0 units=atomic
S        -0.0285562026       0.0056482192       0.1749552622   5.300077815479e-02   3.416507371722e-02  -6.866115315922e-03
O         0.0260508543       1.3132539474       0.8508761106  -1.112103666614e-02  -3.345346992107e-02  -1.731217695059e-02
O        -0.0188825412      -1.2739796443       0.8015310957   1.999997029722e-03  -1.890853947157e-02   2.104103949106e-02
O         1.2707724072       0.0630177082      -0.8729240650  -1.134717671784e-02  -6.316521648443e-02  -1.671584944450e-02
O        -1.2077264187      -0.1065562530      -0.8636784321  -2.540722620313e-02   2.049108744661e-02  -1.042631871809e-02
H         1.3624571874      -0.9084531528      -1.3361377128  -7.467666185623e-03   6.630356317720e-02   3.402744893204e-02
H        -1.5702457732       0.7886702158      -1.0110219147   2.794622971516e-04  -5.335328144335e-03  -3.775249940817e-03
7
Properties=species:S:1:pos:R:3:forces:R:3 energy=-6.997410584751e+02 dipole="-3.4143491000e-02 2.1421347673e-01 -2.1171017120e+00" quadrupole="-2.5569874636e+01 -3.2304374681e+00 1.3027558644e-01 -3.2304374681e+00 -2.9522211335e+01 7.6312924799e-01 1.3027558644e-01 7.6312924799e-01 -2.3457888198e+01" polarizability="3.6384177598e+01 -6.0022489660e-01 8.0936826457e-01 -6.0022489660e-01 4.1069170774e+01 1.9040485865e+00 8.0936826457e-01 1.9040485865e+00 4.0706416431e+01" charge=0 multiplicity=1 method=wB97M-V basis=def2-svpd config_type=h2so4 sample_index=86 temperature=300.0 units=atomic
S         0.0335054227       0.0454298162       0.1225653553  -7.156534116275e-02  -6.811271605567e-02   1.039619792066e-01
O         0.0541291808       1.2776921873       0.8838090471  -6.199698434940e-03   8.211323955933e-04  -1.321810335675e-02
O        -0.0660507403      -1.2727065602       0.8179109588   1.406563923695e-02   4.176043779959e-02  -1.657383367754e-02
O         1.2237367925       0.0767646363      -0.7858899972   3.886584390409e-02  -6.900800540110e-02  -1.389550424950e-01
O        -1.2462137143      -0.1675080841      -0.8534108370  -1.079729790628e-02   5.587843827836e-02  -3.461961708385e-02
H         0.9939489853      -0.7799867741      -1.6499680075   2.502985352991e-02   7.244104767576e-02   7.705082730343e-02
H        -1.5021247539       0.6873930108      -1.3558399330   1.071730004093e-02  -3.373989734297e-02   2.231706192385e-02
7
Properties=species:S:1:pos:R:3:forces:R:3 energy=-6.997858297793e+02 dipole="-9.2744279649e-02 -5.0527523421e-02 -1.2503657620e+00" quadrupole="-2.3775495263e+01 -4.2255172488e+00 -2.6283768575e-01 -4.2255172488e+00 -2.7531591948e+01 3.4674749248e-01 -2.6283768575e-01 3.4674749248e-01 -2.7179189697e+01" polarizability="3.5409492498e+01 -2.7136388476e+00 -6.7134222274e-01 -2.7136388476e+00 3.8938530659e+01 8.4765247322e-01 -6.7134222274e-01 8.4765247322e-01 3.6401236728e+01" charge=0 multiplicity=1 method=wB97M-V basis=def2-svpd config_type=h2so4 sample_index=87 temperature=300.0 units=atomic
S        -0.0204235130       0.0016295543       0.1529546172   4.001873252375e-02   5.791270176045e-03   1.880890620591e-02
O        -0.0480155405       1.2536201439       0.8813529451   7.742432968749e-04   1.740090357472e-03  -1.282915353277e-02
O         0.0603929895      -1.2338707179       0.8587438502  -8.761023104381e-03  -2.765071148615e-02   1.047350334431e-02
O         1.1925780330       0.0033806700      -0.8979308085   3.882216398750e-02  -4.958467957631e-02  -2.024086955202e-02
O        -1.1692166541      -0.0231476515      -0.8932790113  -4.373892544809e-02   2.647691842507e-02  -1.603390380713e-02
H         1.5219620012      -0.9844104595      -1.1548680375  -2.674766468430e-02   6.518193538916e-02   2.284113002508e-02
H        -1.4414929282       0.9303272153      -0.9871905899  -3.882313292125e-04  -2.194632744610e-02  -3.146017715856e-03
7
Properties=species:S:1:pos:R:3:forces:R:3 energy=-6.997727276337e+02 dipole="-5.2133027046e-01 -1.3146330122e-01 -1.6613896187e+00" quadrupole="-2.4502404424e+01 -3.5203639087e+00 5.1660772027e-01 -3.5203639087e+00 -2.8512078635e+01 5.1769899848e-01 5.1660772027e-01 5.1769899848e-01 -2.5841200245e+01" polarizability="3.7184060683e+01 -1.6936781370e+00 -1.0588910173e+00 -1.6936781370e+00 3.9980388505e+01 1.4064212118e+00 -1.0588910173e+00 1.4064212118e+00 3.9727536662e+01" charge=0 multiplicity=1 method=wB97M-V basis=def2-svpd config_type=h2so4 sample_index=88 temperature=300.0 units=atomic
S        -0.0181424363      -0.0162662929       0.1265937371   4.209502851584e-02   6.011391799774e-02   6.582875690302e-02
O        -0.0354355139       1.2590801790       0.9044981811   1.375143557818e-03  -3.516930332577e-02  -3.878200669013e-02
O         0.0197998510      -1.2314070798       0.9108525559  -4.992326596612e-03  -7.087311278507e-03  -2.111516045172e-02
O         1.2887123345       0.0426793795      -0.8992228274  -3.977340849847e-02  -7.882679331482e-02  -3.475663916803e-02
O        -1.2039783937      -0.0320089703      -0.8872823701  -2.062383322209e-02  -2.476442057484e-02  -2.146061530876e-02
H         1.1353308697      -0.8954599121      -1.5034875298   1.858984881478e-02   7.382962902203e-02   4.545989498100e-02
H        -1.6563859701       0.7952885702      -1.0733679121   3.358933842017e-03   1.196863631347e-02   4.731141871787e-03
7
Properties=species:S:1:pos:R:3:forces:R:3 energy=-6.997846178017e+02 dipole="2.3233584712e-01 -9.0918598067e-03 -1.4657859064e+00" quadrupole="-2.5471116773e+01 -3.4840036881e+00 -6.0958211730e-01 -3.4840036881e+00 -2.8310835846e+01 5.0103661160e-01 -6.0958211730e-01 5.0103661160e-01 -2.6067573544e+01" polarizability="3.6692725726e+01 -1.9024049191e+00 -1.9855202073e-01 -1.9024049191e+00 4.0221383877e+01 -6.3122322581e-02 -1.9855202073e-01 -6.3122322581e-02 3.5701869389e+01" charge=0 multiplicity=1 method=wB97M-V basis=def2-svpd config_type=h2so4 sample_index=89 temperature=300.0 units=atomic
S         0.0421308402      -0.0089243699       0.1207066332  -5.947849958653e-02  -1.612024072933e-02   7.385535448314e-02
O        -0.0855017096       1.2888121993       0.7719092872   2.038730814050e-02  -8.108073725147e-03   2.272113433971e-03
O         0.0178629271      -1.3116923862       0.8288118124   5.923685536897e-03   3.686839105901e-02  -2.405384689621e-02
O         1.2933467969       0.0420629984      -0.7939624850   1.349402668761e-02  -5.055284529450e-02  -5.141517369031e-02
O        -1.3024091183      -0.0047510743      -0.7919139913   1.653924104592e-02  -9.519738030455e-04  -1.609424044534e-02
H         1.2779781445      -0.8946862175      -1.2458308586   1.178027608767e-02   4.442085183670e-02   1.792425721312e-02
H        -1.3927100739       0.9493422535      -0.9821409230  -8.613914077349e-03  -5.457338870164e-03  -2.542825449774e-03
7
Properties=species:S:1:pos:R:3:forces:R:3 energy=-6.997506241015e+02 dipole="-6.7275568064e-01 6.9200321121e-02 -7.3516752727e-01" quadrupole="-2.2525177411e+01 -4.4932368186e+00 1.8917372737e-01 -4.4932368186e+00 -2.7246343446e+01 9.8705088521e-02 1.8917372737e-01 9.8705088521e-02 -2.8700694384e+01" polarizability="3.7005307119e+01 -4.1577153121e+00 3.6032590049e-01 -4.1577153121e+00 3.8520405849e+01 -6.8739810077e-01 3.6032590049e-01 -6.8739810077e-01 3.4476450373e+01" charge=0 multiplicity=1 method=wB97M-V basis=def2-svpd config_type=h2so4 sample_index=90 temperature=300.0 units=atomic
S        -0.0604780817      -0.0250533478       0.1558658466   6.790206921943e-02   7.097130348711e-03  -1.555180530870e-02
O        -0.0578272827       1.2338375304       0.7862878067  -6.202508710407e-03   5.418145992675e-02   4.261035399631e-02
O         0.1577500085      -1.2482297784       0.8580030280  -2.520396961228e-02  -3.200614337365e-02   1.465370477065e-02
O         1.2139145443      -0.0141226957      -0.8466261140  -1.247836158835e-02   2.883984384289e-02  -4.024729543243e-03
O        -1.1719060606       0.0689305559      -0.8996262136  -1.018953354778e-01   6.916166930635e-02  -7.071711778071e-03
H         1.4286976157      -0.9217564928      -0.8137658570   2.431144690626e-02  -3.757222572981e-02  -8.225812655109e-03
H        -1.7713173762       1.0777364393      -0.6384702465   5.358820757660e-02  -8.979597176236e-02  -2.249763218109e-02
7
Properties=species:S:1:pos:R:3:forces:R:3 energy=-6.997865340706e+02 dipole="-2.9634646060e-01 5.3182416443e-02 -1.4343394532e+00" quadrupole="-2.3866815377e+01 -3.7940901211e+00 4.1948392478e-01 -3.7940901211e+00 -2.8478416430e+01 3.1561404233e-01 4.1948392478e-01 3.1561404233e-01 -2.7027589635e+01" polarizability="3.4803449157e+01 -1.9217188737e+00 2.2875426345e-01 -1.9217188737e+00 4.0113226801e+01 9.8485144552e-01 2.2875426345e-01 9.8485144552e-01 3.5803793452e+01" charge=0 multiplicity=1 method=wB97M-V basis=def2-svpd config_type=h2so4 sample_index=91 temperature=300.0 units=atomic
S        -0.0080496809       0.0290914285       0.1287505861   1.477492193382e-02  -3.055118951781e-03   1.075865712223e-01
O        -0.0348230418       1.3167826063       0.8941722454   5.801789576805e-04  -4.759269539900e-02  -4.019665945296e-02
O         0.0531720242      -1.2872754711       0.8091180183  -9.805052897764e-03   3.274845167798e-02  -1.088993213512e-02
O         1.1978630114      -0.0171579684      -0.8446964023   3.386438826923e-02  -7.655574713893e-03  -3.076151302878e-02
O        -1.1799805795      -0.0598872174      -0.8659002140  -4.180350756357e-02   8.002908879563e-04  -2.618192351085e-02
H         1.2693323212      -0.9799743702      -1.0775992261   5.934487854725e-03   1.854096304169e-02   2.050276268283e-03
H        -1.5862780545       0.8015508776      -1.0145321096  -3.568176323539e-03   6.221372730329e-03  -1.698612386024e-03
7
Properties=species:S:1:pos:R:3:forces:R:3 energy=-6.997788231673e+02 dipole="-1.1147922255e-01 -1.4553784532e-01 -1.1786684455e+00" quadrupole="-2.5157868609e+01 -3.2503839095e+00 7.7499071337e-01 -3.2503839095e+00 -2.7728850445e+01 -9.5926245200e-01 7.7499071337e-01 -9.5926245200e-01 -2.6133967605e+01" polarizability="3.3947652435e+01 -1.4546236262e+00 -8.6633660039e-02 -1.4546236262e+00 3.5620531799e+01 -9.8394278237e-02 -8.6633660039e-02 -9.8394278237e-02 3.3616309333e+01" charge=0 multiplicity=1 method=wB97M-V basis=def2-svpd config_type=h2so4 sample_index=92 temperature=300.0 units=atomic
S        -0.0345973126      -0.0155861101       0.1502792821   4.089000143529e-02   1.062524944141e-01  -3.227445000343e-02
O        -0.0327592404       1.2377136459       0.8173484093  -1.018447670632e-03   3.266961130607e-02   1.848617545729e-02
O         0.0743995635      -1.2133793423       0.7893582150  -5.511486985334e-03  -1.270135933145e-01   6.555479640943e-02
O         1.2470243109       0.0191331213      -0.8451491208  -2.075855132143e-02   5.155652739770e-02  -3.032315331376e-03
O        -1.2355549365      -0.0095276170      -0.8094911787  -3.295564356391e-02  -6.394858769155e-03  -3.647720245955e-02
H         1.4532595392      -0.8761855301      -0.8519075765   2.654880563780e-02  -5.699994672101e-02  -1.114225266778e-02
H        -1.2049319081       0.8359074170      -1.2873409236  -7.242644635639e-03  -2.047208296276e-04  -1.201474513863e-03
7
Properties=species:S:1:pos:R:3:forces:R:3 energy=-6.997520066553e+02 dipole="-2.6510238401e-01 -9.8470291041e-02 -1.5868531052e+00" quadrupole="-2.6106653780e+01 -2.9322996306e+00 2.0571760881e-01 -2.9322996306e+00 -2.8682025186e+01 2.8128347701e-01 2.0571760881e-01 2.8128347701e-01 -2.4363120595e+01" polarizability="3.5909577939e+01 -6.2380754230e-01 2.1978836092e-01 -6.2380754230e-01 3.8639967787e+01 1.3162256343e+00 2.1978836092e-01 1.3162256343e+00 3.7517319430e+01" charge=0 multiplicity=1 method=wB97M-V basis=def2-svpd config_type=h2so4 sample_index=93 temperature=300.0 units=atomic
S        -0.0133080186      -0.0253994170       0.1500436849   7.335260188878e-03   3.556084168742e-02   3.697614283139e-03
O         0.0399976818       1.2526131027       0.7744433580  -1.657908758984e-02   2.922081037804e-02   2.861844659848e-02
O         0.0230226822      -1.2619531136       0.8444762609  -1.130392488127e-02  -2.941823338105e-02   7.415069934320e-03
O         1.2725977931       0.1070098480      -0.7689388447  -2.641044165003e-02  -1.001005662674e-01  -9.890072431273e-02
O        -1.2811498680      -0.0447943165      -0.8594800816   2.232130767700e-02  -9.727183730181e-02   3.430294460512e-02
H         1.0037671505      -0.7932040465      -1.5232904003   3.833611946363e-02   7.587702928783e-02   5.825655580455e-02
H        -1.4482627003       0.7572846803      -1.2240613833  -1.382166841734e-02   8.613844564049e-02  -3.345613576002e-02
7
Properties=species:S:1:pos:R:3:forces:R:3 energy=-6.997846029097e+02 dipole="-1.4985584823e-02 1.4233744412e-01 -1.0027162891e+00" quadrupole="-2.4347842546e+01 -4.1884321344e+00 7.1445820894e-01 -4.1884321344e+00 -2.8133313679e+01 -3.6440510378e-01 7.1445820894e-01 -3.6440510378e-01 -2.6574435281e+01" polarizability="3.6410233780e+01 -1.7907885083e+00 6.8683211262e-01 -1.7907885083e+00 4.0655633048e+01 -2.6226626759e-01 6.8683211262e-01 -2.6226626759e-01 3.5309978254e+01" charge=0 multiplicity=1 method=wB97M-V basis=def2-svpd config_type=h2so4 sample_index=94 temperature=300.0 units=atomic
S        -0.0187255782       0.0344316990       0.1890914609   1.212221177162e-02  -7.658657478865e-02  -3.166158574854e-02
O         0.0304073363       1.3066741077       0.7979610432  -1.163881444685e-02   3.421898916050e-02   3.041143608680e-02
O         0.0270739435      -1.3269447909       0.7492990781  -6.147807287499e-03   3.165327703701e-02   1.162400018054e-02
O         1.2121372273       0.0469164249      -0.8322065180   3.493297926508e-02  -6.552883616890e-02  -6.322922781157e-03
O        -1.2398773990      -0.0859646835      -0.8455674494  -1.571875487038e-02   4.097553491527e-02  -1.287172141248e-02
H         1.5403781593      -0.9699722235      -0.8212492282  -1.863133776245e-02   6.603331420827e-02  -5.449330838655e-03
H        -1.4212103481       0.8202871295      -1.2569990511   5.066712475189e-03  -3.083915632334e-02   1.425833795325e-02
7
Properties=species:S:1:pos:R:3:forces:R:3 energy=-6.997522366134e+02 dipole="-9.5184567271e-02 -3.9888965189e-02 -9.2115102058e-01" quadrupole="-2.4186937027e+01 -4.3750983628e+00 -1.2664900181e+00 -4.3750983628e+00 -2.7662326824e+01 1.1489277763e+00 -1.2664900181e+00 1.1489277763e+00 -2.7633086533e+01" polarizability="3.8620693588e+01 -2.6302233084e+00 8.7917937592e-01 -2.6302233084e+00 4.0565976740e+01 1.1432193353e+00 8.7917937592e-01 1.1432193353e+00 3.6456544889e+01" charge=0 multiplicity=1 method=wB97M-V basis=def2-svpd config_type=h2so4 sample_index=95 temperature=300.0 units=atomic
S         0.0121035289      -0.0054029783       0.1576786291  -3.249494511639e-02   1.378418347088e-02  -2.525027883969e-02
O         0.0190672170       1.2682988937       0.8104918066  -1.173977294546e-02   1.984842624722e-02   1.291610769094e-02
O         0.0243380969      -1.2510803510       0.8283823663  -1.353849309689e-03  -3.858899077138e-02   2.317745014502e-02
O         1.2425223348       0.0628404431      -0.7981791232   2.153984651148e-02  -7.716855486447e-02  -5.203181106164e-02
O        -1.2820846853      -0.0727164286      -0.9273152853  -1.266364981050e-02   1.063419909344e-01   5.893925857609e-02
H         1.2852463622      -0.9430374697      -1.1897611498   5.972841839077e-03   6.808241876632e-02   2.083717855515e-02
H        -1.7251013526       0.9885859485      -0.5824024752   3.073374998997e-02  -9.226885795026e-02  -3.868007929792e-02
7
Properties=species:S:1:pos:R:3:forces:R:3 energy=-6.997791116475e+02 dipole="8.6018595228e-02 -1.5381487309e-01 -1.6936710200e+00" quadrupole="-2.2936807849e+01 -4.2784858236e+00 2.0015921636e-01 -4.2784858236e+00 -2.9227169538e+01 -1.0630868670e-01 2.0015921636e-01 -1.0630868670e-01 -2.4877675519e+01" polarizability="3.7578888803e+01 -1.7035595009e+00 4.0683023916e-01 -1.7035595009e+00 4.0590812929e+01 1.4918350263e-01 4.0683023916e-01 1.4918350263e-01 3.7778536442e+01" charge=0 multiplicity=1 method=wB97M-V basis=def2-svpd config_type=h2so4 sample_index=96 temperature=300.0 units=atomic
S         0.0262726226      -0.0150365263       0.1481613203  -4.214448884069e-02   5.188706521004e-02   3.790782006920e-02
O         0.0251474559       1.3044872200       0.8211715410   1.074864751566e-03  -3.968709241702e-02  -1.263611203718e-02
O        -0.0542609753      -1.2897374582       0.8227628693   1.116237444381e-02   3.128683383277e-03  -1.742814522970e-03
O         1.2259014604       0.0973755210      -0.8273312281   5.122038646958e-02  -4.690943957753e-02  -5.109611028327e-02
O        -1.2397047920      -0.0777788075      -0.8287404778  -3.884889254226e-02   2.251916325703e-02  -4.088340158070e-02
H         1.5362350038      -0.7800870794      -1.3013697516  -2.226221660152e-02   4.401876496806e-02   2.958441149678e-02
H        -1.6864332852       0.7099864343      -1.3526384278   3.984733928050e-02  -3.500776467697e-02   3.886859695575e-02
7
Properties=species:S:1:pos:R:3:forces:R:3 energy=-6.997794720113e+02 dipole="1.1033085952e-02 5.2063862745e-03 -1.6132520581e+00" quadrupole="-2.4335648298e+01 -3.9400849000e+00 -3.5826593015e-01 -3.9400849000e+00 -2.8547142539e+01 3.8402658962e-01 -3.5826593015e-01 3.8402658962e-01 -2.6744965519e+01" polarizability="3.7450322416e+01 -1.8007132586e+00 -9.9377939741e-01 -1.8007132586e+00 3.9687553743e+01 1.4026829922e-01 -9.9377939741e-01 1.4026829922e-01 3.5703839443e+01" charge=0 multiplicity=1 method=wB97M-V basis=def2-svpd config_type=h2so4 sample_index=97 temperature=300.0 units=atomic
S        -0.0005467487      -0.0020061625       0.0661252628   3.072223642995e-02  -1.866639263584e-02   1.356133092180e-01
O        -0.0563163870       1.2747798349       0.8199548461   9.593613346579e-03  -2.269890990249e-02  -3.035975730954e-02
O         0.0106029964      -1.2769809440       0.8337421990   4.350685308040e-03   2.960446468249e-02  -3.295655056256e-02
O         1.3452036963       0.0392227523      -0.7959195595  -7.841025904266e-03  -2.394862054464e-02  -2.633492682176e-02
O        -1.3044126437      -0.0349002862      -0.7481519912  -1.948634561004e-02   1.699656920121e-02  -4.672279939541e-02
H         1.5025810859      -0.8988446287      -1.1148594324  -1.616350614859e-04   2.414901768124e-02   8.310251795236e-03
H        -1.4062098621       0.9295659004      -0.9009735732  -1.716754133123e-02  -5.426922546406e-03  -7.585262353003e-03
7
Properties=species:S:1:pos:R:3:forces:R:3 energy=-6.997981377404e+02 dipole="-2.0325989394e-01 2.3346989360e-03 -1.2165182275e+00" quadrupole="-2.3957044059e+01 -4.2271394460e+00 6.3404409914e-02 -4.2271394460e+00 -2.8034470464e+01 6.0320084443e-02 6.3404409914e-02 6.0320084443e-02 -2.6474589534e+01" polarizability="3.7008804995e+01 -1.7237851700e+00 -3.5657198274e-01 -1.7237851700e+00 3.9064548966e+01 -2.6348783843e-01 -3.5657198274e-01 -2.6348783843e-01 3.6613989473e+01" charge=0 multiplicity=1 method=wB97M-V basis=def2-svpd config_type=h2so4 sample_index=98 temperature=300.0 units=atomic
S        -0.0237158602      -0.0101955445       0.1637642807   3.364871881012e-02   1.540826559719e-03  -1.412447708559e-02
O         0.0009159671       1.2638212353       0.8212701298  -4.272962674326e-03   1.074943476080e-02   6.932987489296e-03
O         0.0186078449      -1.2721293126       0.8537402167  -4.989189798586e-03  -4.260906565367e-03  -2.586525080670e-03
O         1.2645411290       0.0645292831      -0.8726816844  -8.645639494882e-03  -1.684632293572e-02   3.681985319695e-03
O        -1.2355348229      -0.0392267261      -0.8678333413  -2.062195756549e-02   2.108122295840e-02  -1.190817441425e-02
H         1.5248212827      -0.8353731323      -1.1932836784  -8.183680197503e-03   1.556874914766e-02   8.737395990034e-03
H        -1.5459568112       0.8912857088      -1.0937736623   1.302232138639e-02  -2.783810681978e-02   9.175979339357e-03
7
Properties=species:S:1:pos:R:3:forces:R:3 energy=-6.997873131407e+02 dipole="-1.5831997350e-01 1.0185457105e-01 -1.1879911877e+00" quadrupole="-2.5474466838e+01 -3.5726524924e+00 -1.7984743377e-01 -3.5726524924e+00 -2.8333291523e+01 2.5972959757e-01 -1.7984743377e-01 2.5972959757e-01 -2.5682752770e+01" polarizability="3.6105396981e+01 -5.2591694593e-01 -3.9028203701e-01 -5.2591694593e-01 3.8626065978e+01 2.6869973027e-01 -3.9028203701e-01 2.6869973027e-01 3.4979381811e+01" charge=0 multiplicity=1 method=wB97M-V basis=def2-svpd config_type=h2so4 sample_index=99 temperature=300.0 units=atomic
S        -0.0044856476       0.0078633505       0.1713890651   2.337785691792e-02   3.593279988160e-03  -2.590524919392e-02
O         0.0206487398       1.2970353025       0.7947157259  -5.459479115380e-03   9.470524224785e-03   1.081259679334e-02
O        -0.0507560250      -1.2713800167       0.7621087352   1.410743400644e-02  -4.105622161878e-02   3.928856733805e-02
O         1.2947667100       0.0748972344      -0.8300737334  -1.723732512663e-02   2.273305363757e-02   1.789153541730e-02
O        -1.2500821609      -0.1256968816      -0.8073907601  -1.182434077617e-02   7.831724875239e-02  -2.317196350988e-02
H         1.3149076905      -0.7338449405      -1.3148249558   4.388947852008e-03  -2.591833835033e-02  -1.513366914724e-02
H        -1.4010969185       0.8791125620      -0.9984841823  -7.338331249316e-03  -4.715012828198e-02  -3.736938853792e-03
7
Properties=species:S:1:pos:R:3:forces:R:3 energy=-6.997835998833e+02 dipole="1.4364944960e-01 -1.3104471592e-01 -1.6517296601e+00" quadrupole="-2.5331167474e+01 -3.6227706640e+00 -2.8037666851e-01 -3.6227706640e+00 -2.8592324939e+01 8.5747406426e-03 -2.8037666851e-01 8.5747406426e-03 -2.5011747150e+01" polarizability="3.6977867699e+01 -1.0666139408e+00 -9.3672217016e-01 -1.0666139408e+00 3.9460613340e+01 1.2603070001e-01 -9.3672217016e-01 1.2603070001e-01 3.7273393160e+01" charge=0 multiplicity=1 method=wB97M-V basis=def2-svpd config_type=h2so4 sample_index=100 temperature=300.0 units=atomic
S        -0.0058084511      -0.0127383421       0.1324322334   1.588689767890e-02   1.253150583900e-02   3.462126338184e-02
O         0.0233043992       1.2574065085       0.8174224973  -3.808374294673e-03   4.341641004387e-03  -8.705457082261e-04
O        -0.0374581332      -1.2605873627       0.8360482306   8.042031890830e-03  -1.608649407483e-02   2.714493874613e-03
O         1.2862654467       0.1134685581      -0.8377072342   5.583863360933e-03  -7.664914410345e-02  -3.672637468288e-02
O        -1.2795147097      -0.0799771998      -0.7987341540   3.112118480349e-03   4.734233046010e-02  -4.996922488028e-02
H         1.4975660102      -0.8593593360      -1.2646458346  -1.426405311156e-02   6.635632376622e-02   2.970208693234e-02
H        -1.1977769102       0.7864627214      -1.3517185582  -1.459652464355e-02  -3.786660603050e-02   2.046441944254e-02
7
Properties=species:S:1:pos:R:3:forces:R:3 energy=-6.997732411207e+02 dipole="-3.0499448664e-01 -2.5583810951e-01 -1.0313333893e+00" quadrupole="-2.1490253937e+01 -5.0298438075e+00 1.7866145270e-01 -5.0298438075e+00 -2.8235401630e+01 -2.8476886796e-01 1.7866145270e-01 -2.8476886796e-01 -2.7618972570e+01" polarizability="3.9645199432e+01 -3.1872246528e+00 -5.2929485587e-01 -3.1872246528e+00 4.0386259286e+01 3.0187267777e-01 -5.2929485587e-01 3.0187267777e-01 3.6470622308e+01" charge=0 multiplicity=1 method=wB97M-V basis=def2-svpd config_type=h2so4 sample_index=101 temperature=300.0 units=atomic
S        -0.0229111150      -0.0442634647       0.1598612068   3.137781276884e-02   1.428624848215e-01  -2.333038475990e-02
O        -0.0182894988       1.3020718643       0.8084492289  -7.056332089774e-04  -4.818663748289e-02  -1.287692470312e-02
O         0.0242598919      -1.2607252240       0.8301012862  -1.938219059614e-03  -7.110715020549e-02   3.514114319336e-02
O         1.2795138117       0.0531087338      -0.8687216900   3.140385596449e-03  -4.403064315697e-02   8.986207134605e-04
O        -1.2329389184      -0.0088435061      -0.8499944613  -6.120871964863e-02   4.408668871558e-02  -2.447339029633e-02
H         1.7268885639      -0.8600051734      -1.0384262330  -2.668722236446e-02   4.093754529530e-02   1.152802699697e-02
H        -1.8374603536       0.9050137615      -0.9133291901   5.598265771609e-02  -6.452149381721e-02   1.308187538634e-02
7
Properties=species:S:1:pos:R:3:forces:R:3 energy=-6.997833022838e+02 dipole="-1.4561182312e-01 -1.5787086131e-02 -1.7253370339e+00" quadrupole="-2.4760548227e+01 -3.7729059020e+00 5.8212752048e-01 -3.7729059020e+00 -2.8364052482e+01 8.1235021174e-02 5.8212752048e-01 8.1235021174e-02 -2.4773282531e+01" polarizability="3.6152541021e+01 -1.4263384834e+00 4.5796107291e-01 -1.4263384834e+00 3.8370817891e+01 8.2488163273e-01 4.5796107291e-01 8.2488163273e-01 3.7619927980e+01" charge=0 multiplicity=1 method=wB97M-V basis=def2-svpd config_type=h2so4 sample_index=102 temperature=300.0 units=atomic
S        -0.0005621981       0.0215525254       0.1344188962   2.570793395464e-03   2.616152222397e-02   1.275121873136e-02
O         0.0203778936       1.2404435955       0.8945739101  -2.530430109946e-03   1.598059006319e-02  -1.116680012230e-02
O        -0.0167903755      -1.2098095261       0.8136535732   1.088966082805e-03  -5.550794525966e-02   2.486320624591e-02
O         1.2513355563       0.0488637685      -0.8428702424   1.119317176061e-02  -5.296192749108e-02  -4.510375205841e-02
O        -1.2413256087      -0.1123748252      -0.8446381195  -2.868276620413e-02   4.770940681624e-02  -4.542621142766e-02
H         1.3058573690      -0.9024357279      -1.3217170155  -2.310571708162e-03   5.968890478302e-02   3.115469479614e-02
H        -1.5014413310       0.7328015705      -1.3936987928   1.872059346488e-02  -4.099280631601e-02   3.285035677465e-02
7
Properties=species:S:1:pos:R:3:forces:R:3 energy=-6.997750691143e+02 dipole="1.0602299100e-01 1.4164535973e-01 -1.4166190837e+00" quadrupole="-2.5148178600e+01 -3.4784854064e+00 -4.7501830613e-02 -3.4784854064e+00 -2.8246745595e+01 -1.1739263595e-01 -4.7501830613e-02 -1.1739263595e-01 -2.4362431395e+01" polarizability="3.5455055654e+01 -1.5429209563e+00 -3.2991114092e-01 -1.5429209563e+00 3.7885318314e+01 -7.6237200037e-01 -3.2991114092e-01 -7.6237200037e-01 3.6330840980e+01" charge=0 multiplicity=1 method=wB97M-V basis=def2-svpd config_type=h2so4 sample_index=103 temperature=300.0 units=atomic
S        -0.0095406377       0.0250178942       0.1804591523   2.453337429827e-02  -7.789933008856e-02  -6.552833005984e-02
O        -0.0224905805       1.2472527860       0.8171589608   7.442974797249e-03   8.644354558690e-02   4.557739887596e-02
O         0.0030439621      -1.2550169368       0.7758772469   6.433158925223e-04  -3.831058951873e-02   3.669281630350e-02
O         1.2467503496       0.0270473252      -0.8625456495   2.649691739901e-03   3.067677551638e-02  -1.900826835382e-04
O        -1.2318063478      -0.0700110786      -0.8014730144  -1.728038175404e-02   7.135651838716e-02  -7.514833895100e-02
H         1.5660151284      -0.7918338073      -1.2629871670  -1.105974629409e-02  -7.854839252997e-03   8.855314868080e-03
H        -1.1924183055       0.8064134827      -1.4651687561  -6.936842944472e-03  -6.442968548839e-02   4.970779712110e-02
7
Properties=species:S:1:pos:R:3:forces:R:3 energy=-6.997537924420e+02 dipole="-1.6596754810e-01 1.4857130543e-02 -1.5508199231e+00" quadrupole="-2.6114578526e+01 -3.2670926177e+00 1.0021556375e+00 -3.2670926177e+00 -2.8055855577e+01 -7.7909175562e-01 1.0021556375e+00 -7.7909175562e-01 -2.4725396905e+01" polarizability="3.4972622774e+01 -1.7865884209e+00 2.6246980816e-01 -1.7865884209e+00 3.9823510429e+01 -1.1912634631e+00 2.6246980816e-01 -1.1912634631e+00 3.7636063932e+01" charge=0 multiplicity=1 method=wB97M-V basis=def2-svpd config_type=h2so4 sample_index=104 temperature=300.0 units=atomic
S        -0.0351175663       0.0211862723       0.1596178318   6.003009968561e-02   9.886632253794e-03   1.363697525612e-02
O        -0.0047955944       1.2674266466       0.8477794977  -3.062887020542e-03   2.187199871981e-02   1.248512246053e-02
O         0.0355635619      -1.2582254316       0.7712739000  -4.944226043276e-03  -3.562681688102e-02   3.087641448671e-02
O         1.2320599976       0.0359607116      -0.8589017490   1.792911329925e-03  -5.736956340188e-02  -1.106585132922e-02
O        -1.2071406368      -0.0762169369      -0.7972833351  -4.520946311207e-02   8.097760568199e-02  -1.185556655884e-01
H         1.3215876141      -0.9989823488      -1.0060743466   4.728577533747e-03   5.785242495185e-02   1.543823242752e-03
H        -1.0965786560       0.8216473781      -1.5914524573  -1.340511314448e-02  -7.764375169008e-02   7.098016294595e-02
7
Properties=species:S:1:pos:R:3:forces:R:3 energy=-6.997628140657e+02 dipole="3.3427395306e-01 -2.5998069989e-02 -7.5830759536e-01" quadrupole="-2.3748162922e+01 -3.9864837302e+00 1.2759425709e-02 -3.9864837302e+00 -2.8069109311e+01 -2.1554735239e-01 1.2759425709e-02 -2.1554735239e-01 -2.8390623332e+01" polarizability="3.6379487709e+01 -2.3234929947e+00 3.4156315870e-01 -2.3234929947e+00 4.0035471005e+01 2.9216035279e-01 3.4156315870e-01 2.9216035279e-01 3.4637237825e+01" charge=0 multiplicity=1 method=wB97M-V basis=def2-svpd config_type=h2so4 sample_index=105 temperature=300.0 units=atomic
S        -0.0069449126       0.0118712439       0.1595966717   8.342556053909e-03  -3.891853533508e-02   2.722837650237e-02
O        -0.0177692046       1.3096262204       0.8220011992  -7.888120778317e-03  -1.342136733933e-02  -2.759119903121e-03
O         0.0499993567      -1.3052670105       0.7856122625  -2.466037713575e-03   1.428611512306e-02   1.099174482150e-02
O         1.1876200254       0.0224026335      -0.8549640787   7.051372302321e-02  -7.945813037485e-02   5.371684532408e-03
O        -1.2347303079      -0.0453427733      -0.8633380559   6.109183008448e-03  -1.519087380368e-02   1.285473422235e-02
H         1.6964937150      -0.9683366977      -0.6018190910  -3.833673194126e-02   8.105855384268e-02  -2.600694390709e-02
H        -1.2407228489       0.8888982444      -0.8492159906  -3.628727499506e-02   5.158469334933e-02  -2.772286885073e-02
7
Properties=species:S:1:pos:R:3:forces:R:3 energy=-6.997769685332e+02 dipole="-2.1673298971e-01 1.9225703454e-01 -1.5505674173e+00" quadrupole="-2.6196264466e+01 -2.9993867220e+00 -2.2344769167e-01 -2.9993867220e+00 -2.8673885651e+01 3.4543970021e-01 -2.2344769167e-01 3.4543970021e-01 -2.4267542552e+01" polarizability="3.5989336529e+01 -9.5779581284e-01 3.1562240772e-01 -9.5779581284e-01 3.9636484393e+01 -5.3829132025e-01 3.1562240772e-01 -5.3829132025e-01 3.9398465870e+01" charge=0 multiplicity=1 method=wB97M-V basis=def2-svpd config_type=h2so4 sample_index=106 temperature=300.0 units=atomic
S        -0.0138709074      -0.0105267794       0.1793376444   8.005252783095e-03  -8.304419647129e-02  -1.385413115805e-02
O         0.0270929755       1.2454234031       0.7950410979  -8.983761677866e-03   5.706070709216e-02   4.102092436980e-02
O         0.0271365399      -1.3066968623       0.9181388901  -1.107880339013e-02   4.970749752068e-02  -3.593373585930e-02
O         1.2233101022       0.0987607856      -0.8431032070  -6.659545930177e-03  -6.729139982791e-02  -7.068842561913e-02
O        -1.2295720221      -0.0302189196      -0.9274114334   2.770360801961e-03  -1.627945941772e-02   1.408128461369e-02
H         1.0721417700      -0.6487975060      -1.6468657200   1.457382617614e-02   5.509202650641e-02   6.332226684109e-02
H        -1.3962372574       0.8713652687      -1.2341067373   1.367831064632e-03   4.737457387295e-03   2.034635391770e-03
7
Properties=species:S:1:pos:R:3:forces:R:3 energy=-6.997736383913e+02 dipole="-4.6152727476e-01 -7.1807839690e-02 -1.2763222059e+00" quadrupole="-2.2907814391e+01 -3.8793867325e+00 4.8499843278e-01 -3.8793867325e+00 -2.8771367511e+01 1.4214022054e-01 4.8499843278e-01 1.4214022054e-01 -2.6799629102e+01" polarizability="3.4278233755e+01 -1.8831435096e+00 2.7276807834e-02 -1.8831435096e+00 3.9291471687e+01 -9.3446687058e-01 2.7276807834e-02 -9.3446687058e-01 3.4256428426e+01" charge=0 multiplicity=1 method=wB97M-V basis=def2-svpd config_type=h2so4 sample_index=107 temperature=300.0 units=atomic
S        -0.0094112968      -0.0286044213       0.1584824984   2.336024380329e-02   2.951109533864e-02   7.984949971362e-02
O        -0.0317112800       1.2948924450       0.7550869067   2.881003713762e-03  -7.091656191459e-03   2.557431727839e-02
O         0.0288412831      -1.3269265447       0.8521677488  -2.827436522646e-03   3.150771569796e-02  -1.899630979537e-02
O         1.1778563151       0.0702886729      -0.8391042943   3.060470074872e-02   1.636435993738e-02  -5.924649608289e-03
O        -1.1270531391       0.0178117456      -0.8378036410  -1.069149604637e-01   8.846208399702e-04  -6.871549994596e-02
H         1.2547869048      -0.8155798898      -1.1144593438   2.091936920116e-02  -4.197081615265e-02  -2.506823368508e-02
H        -1.7210053697       0.8356872800      -0.9387051432   3.196716593336e-02  -2.918623254984e-02   1.322431020500e-02
7
Properties=species:S:1:pos:R:3:forces:R:3 energy=-6.997358807600e+02 dipole="9.2661563444e-02 -1.8676891339e-01 -1.8661959207e+00" quadrupole="-2.7143251464e+01 -2.7550206398e+00 -3.6558363056e-01 -2.7550206398e+00 -2.8522758294e+01 -5.8873509297e-01 -3.6558363056e-01 -5.8873509297e-01 -2.3419581506e+01" polarizability="3.8078656543e+01 -1.2726751872e+00 7.7947950913e-01 -1.2726751872e+00 4.1483762849e+01 -1.1406694872e+00 7.7947950913e-01 -1.1406694872e+00 4.3315747651e+01" charge=0 multiplicity=1 method=wB97M-V basis=def2-svpd config_type=h2so4 sample_index=108 temperature=300.0 units=atomic
S        -0.0249751858      -0.0262380721       0.1557560225   7.618110912936e-03   6.637269181667e-02   4.203123808477e-03
O         0.0335870912       1.2489387671       0.8797804422  -9.827040288493e-03  -1.946365307084e-02  -1.872651513267e-02
O         0.0518350275      -1.2384838082       0.8956553927  -1.081698167933e-02  -3.300733304731e-02   2.050492865143e-03
O         1.2488904095       0.0897334605      -0.8607115915  -9.478514573374e-03  -7.647824837621e-02  -4.611494004514e-02
O        -1.3037571742      -0.0466365715      -0.9062226887   5.199696720300e-02   7.164376630378e-02  -6.008243796477e-02
H         1.2746049475      -0.8560519921      -1.4187665243   1.777849517872e-03   6.847511924645e-02   4.082252354486e-02
H        -0.9729976211       0.8435491816      -1.7532740377  -3.133768397406e-02  -7.752442855584e-02   7.781424995713e-02
7
Properties=species:S:1:pos:R:3:forces:R:3 energy=-6.997790435802e+02 dipole="-9.5875104271e-02 -1.0587470889e-01 -7.6660573624e-01" quadrupole="-2.3472712533e+01 -4.3431711614e+00 -6.3555204030e-01 -4.3431711614e+00 -2.7939723194e+01 9.3155280903e-01 -6.3555204030e-01 9.3155280903e-01 -2.7717250999e+01" polarizability="3.7365100472e+01 -1.9915523766e+00 -2.4053378636e+00 -1.9915523766e+00 3.9811957035e+01 6.0016564557e-01 -2.4053378636e+00 6.0016564557e-01 3.6069576594e+01" charge=0 multiplicity=1 method=wB97M-V basis=def2-svpd config_type=h2so4 sample_index=109 temperature=300.0 units=atomic
S        -0.0091678910      -0.0074562356       0.1868970881   5.329113582113e-02  -1.961190146755e-02  -3.604988643761e-02
O        -0.0453062271       1.2885172957       0.7955574571   3.764320731759e-03   1.265876459052e-02   1.693470246772e-02
O        -0.0330453779      -1.2904737523       0.8255510103   1.211094408950e-02  -7.644362347456e-03   1.554423681961e-02
O         1.2732670529       0.0657674207      -0.9254393080   5.281693406404e-03  -7.240523844632e-02   1.421139007935e-02
O        -1.1824691353      -0.0422668801      -0.8385283798  -2.661584660635e-02   5.157363715226e-03  -1.482332219632e-02
H         1.6318437471      -0.9402110521      -1.1336758709  -2.914915583164e-02   7.145017448420e-02   1.816070613672e-02
H        -1.5375532749       0.8341900080      -0.6666863557  -1.865303864323e-02   1.042622210297e-02  -1.402331854368e-02
7
Properties=species:S:1:pos:R:3:forces:R:3 energy=-6.997655093572e+02 dipole="-2.1640944419e-01 9.3993489336e-02 -1.3044144512e+00" quadrupole="-2.5818697649e+01 -3.2726300895e+00 9.3640030999e-01 -3.2726300895e+00 -2.9119284675e+01 -4.7756572511e-01 9.3640030999e-01 -4.7756572511e-01 -2.5082321055e+01" polarizability="3.7935653092e+01 -1.5537046407e-01 1.1511989021e-01 -1.5537046407e-01 4.0940433363e+01 -1.0734643718e+00 1.1511989021e-01 -1.0734643718e+00 3.6701732833e+01" charge=0 multiplicity=1 method=wB97M-V basis=def2-svpd config_type=h2so4 sample_index=110 temperature=300.0 units=atomic
S        -0.0375891947       0.0159345433       0.1707793050   4.565506180942e-02  -2.763534770021e-02   1.154929501656e-02
O         0.0530479223       1.3356574318       0.7784466601  -1.523349319148e-02  -2.150873923405e-02   4.271648713223e-03
O        -0.0127401801      -1.3557962745       0.7587578752   1.245018728359e-03   5.381543420722e-02  -6.040467184453e-03
O         1.3302461721       0.0885677761      -0.8255340557  -6.307816291084e-02   1.529266939946e-01   4.846217389914e-02
O        -1.3060349509      -0.0985238533      -0.7840273506   3.571156696264e-03   5.297472368333e-02  -4.982047995581e-02
H         1.4398751866      -0.7390415041      -1.0035286019   3.414462637926e-02  -1.690571177673e-01  -4.384873019707e-02
H        -1.2778544469       0.7165563815      -1.4415388093  -6.286164545134e-03  -4.154056004169e-02   3.547410351146e-02
7
Properties=species:S:1:pos:R:3:forces:R:3 energy=-6.997849122447e+02 dipole="4.3706215344e-02 -4.6991823998e-02 -1.2206963773e+00" quadrupole="-2.2342892934e+01 -4.3400945303e+00 -9.3848428665e-01 -4.3400945303e+00 -2.8906072543e+01 5.2438717997e-01 -9.3848428665e-01 5.2438717997e-01 -2.6178920426e+01" polarizability="3.7062011588e+01 -1.5290932579e+00 -1.9512337703e+00 -1.5290932579e+00 3.9704474894e+01 7.3651714277e-01 -1.9512337703e+00 7.3651714277e-01 3.6517762168e+01" charge=0 multiplicity=1 method=wB97M-V basis=def2-svpd config_type=h2so4 sample_index=111 temperature=300.0 units=atomic
S         0.0170684461      -0.0099260059       0.1775625689   1.138083134224e-02   2.236374255511e-02  -8.891440511876e-03
O        -0.0204728963       1.3099407257       0.8127509651   8.979435642723e-03  -2.656411648103e-02  -5.332519082781e-03
O        -0.0775589125      -1.2862196345       0.8150435946   1.916007501015e-02  -1.253377177336e-02   1.978116554166e-02
O         1.2382091325       0.0694082474      -0.8956298373   2.563953002601e-02  -1.489051034176e-02  -1.049629286900e-02
O        -1.1770202891      -0.0776780668      -0.8256539177  -4.063970443504e-02   1.434603487074e-02  -2.832678662788e-02
H         1.6925180191      -0.7128692402      -1.3774238738  -3.305959243101e-02   2.515828647737e-02   3.270507452070e-02
H        -1.6444127760       0.7796843876      -0.9111165959   8.554784892921e-03  -7.916165863151e-03   5.402232227456e-04
7
Properties=species:S:1:pos:R:3:forces:R:3 energy=-6.997367677573e+02 dipole="4.0418836743e-01 1.2619004526e-02 -1.0196982238e+00" quadrupole="-2.1650224097e+01 -4.7111562436e+00 6.9810339830e-01 -4.7111562436e+00 -2.8679099167e+01 -4.3061595548e-01 6.9810339830e-01 -4.3061595548e-01 -2.8748861213e+01" polarizability="4.0470346087e+01 -2.8836134169e+00 -7.5777633724e-01 -2.8836134169e+00 4.1057032405e+01 6.6628850351e-01 -7.5777633724e-01 6.6628850351e-01 3.7369209112e+01" charge=0 multiplicity=1 method=wB97M-V basis=def2-svpd config_type=h2so4 sample_index=112 temperature=300.0 units=atomic
S         0.0245723383       0.0338626213       0.1111531512  -1.513440532168e-02  -3.463063263038e-02   6.972344899935e-02
O        -0.0608751206       1.2887048795       0.9107499686   9.831256886539e-03  -3.360551593089e-02  -4.038968018937e-02
O        -0.0073250050      -1.2846621139       0.8267981115   1.272251686194e-02   4.442688226954e-02  -2.652445682125e-02
O         1.2818297881      -0.0015563874      -0.9164892855   4.198938452338e-02  -7.482826787352e-02   3.616938718399e-02
O        -1.2844631257      -0.0547982961      -0.8313369162   8.036141090058e-02  -1.713351938264e-01   2.416551905272e-02
H         1.9128682564      -0.9744545171      -0.5608061861  -5.874116112313e-02   8.462552779893e-02  -3.026061334168e-02
H        -1.5648514587       0.7300132391      -0.9567596092  -7.097801468566e-02   1.853612578963e-01  -3.291199098520e-02
7
Properties=species:S:1:pos:R:3:forces:R:3 energy=-6.997621289180e+02 dipole="1.7983401045e-02 1.3807914145e-02 -5.8849955778e-01" quadrupole="-2.1294837383e+01 -4.9646879154e+00 4.7080409309e-01 -4.9646879154e+00 -2.7956961691e+01 -7.5453158746e-01 4.7080409309e-01 -7.5453158746e-01 -2.8902757562e+01" polarizability="3.9549610088e+01 -3.2701428261e+00 9.6639916313e-01 -3.2701428261e+00 3.8992373572e+01 -5.3489318572e-01 9.6639916313e-01 -5.3489318572e-01 3.4898408059e+01" charge=0 multiplicity=1 method=wB97M-V basis=def2-svpd config_type=h2so4 sample_index=113 temperature=300.0 units=atomic
S         0.0061873563      -0.0255909009       0.1526466812  -2.823548951422e-02   8.867384650681e-02  -5.990362482365e-02
O        -0.0052577488       1.2504274860       0.7960297260  -4.904235168145e-03   2.293443086008e-02   2.082282219810e-02
O         0.0210512497      -1.2383369408       0.8165380630   4.603405633513e-03  -8.787455253490e-02   4.482907924112e-02
O         1.2543699335       0.0498424900      -0.8514185028   1.825118115892e-02  -3.982940105732e-02   6.954005767920e-03
O        -1.2807395080      -0.0277330536      -0.8677662515  -3.368103227835e-02   8.512623446751e-02   1.355264138321e-02
H         1.7928315751      -0.7480939317      -0.5561994802  -9.287270742993e-03   2.393017318338e-02  -1.817368414531e-02
H        -1.8232466035       1.0212865495      -0.7574492135   5.323382924143e-02  -9.299951802423e-02  -8.164451984372e-03
7
Properties=species:S:1:pos:R:3:forces:R:3 energy=-6.997711853976e+02 dipole="2.0450067521e-01 -1.2509690075e-01 -7.2470547447e-01" quadrupole="-2.2000706199e+01 -4.7411414402e+00 -7.0004540651e-02 -4.7411414402e+00 -2.8037599675e+01 -4.1873990906e-01 -7.0004540651e-02 -4.1873990906e-01 -2.8692051202e+01" polarizability="3.8677929087e+01 -3.5628570895e+00 7.5063932252e-01 -3.5628570895e+00 4.0855172034e+01 3.1857154960e-01 7.5063932252e-01 3.1857154960e-01 3.5797562748e+01" charge=0 multiplicity=1 method=wB97M-V basis=def2-svpd config_type=h2so4 sample_index=114 temperature=300.0 units=atomic
S        -0.0155571878      -0.0166122232       0.1727107920   2.566274375646e-03   5.159273409358e-02  -1.460361595869e-02
O        -0.0110160531       1.3091115674       0.8241611472  -9.697123940445e-03  -3.327903783353e-02  -6.813721968125e-03
O         0.0808727455      -1.2837428619       0.8127426833  -1.184347847127e-02  -2.557209221115e-02   2.437599972356e-02
O         1.1815962847       0.0155299782      -0.8575598427   7.913708255404e-02  -7.569536684022e-02  -3.181101954244e-03
O        -1.2383213982      -0.0099038806      -0.9108080953  -7.447204829868e-03   4.009878918245e-02   2.162528964920e-02
H         1.8401587193      -0.9192783351      -0.6844893656  -5.946950085518e-02   8.040103633385e-02  -1.424540497587e-02
H        -1.5575075133       0.9560575469      -0.8480044663   6.753766371579e-03  -3.756889619686e-02  -7.209408448179e-03
7
Properties=species:S:1:pos:R:3:forces:R:3 energy=-6.997845244467e+02 dipole="-8.9986870777e-02 4.7970618939e-03 -1.5710937842e+00" quadrupole="-2.3964443854e+01 -4.1969738499e+00 -1.9841609067e-02 -4.1969738499e+00 -2.8307828118e+01 4.2005322798e-01 -1.9841609067e-02 4.2005322798e-01 -2.5697280149e+01" polarizability="3.8570256821e+01 -1.5065999040e+00 -1.2448052637e+00 -1.5065999040e+00 3.8132844669e+01 7.1109781323e-01 -1.2448052637e+00 7.1109781323e-01 3.7054849585e+01" charge=0 multiplicity=1 method=wB97M-V basis=def2-svpd config_type=h2so4 sample_index=115 temperature=300.0 units=atomic
S        -0.0075548130       0.0114115950       0.1101679487   2.499143043818e-02  -2.577199356769e-02   1.826178790059e-02
O        -0.0057925057       1.2241585688       0.8516886895   2.036523221705e-03   3.770050954866e-02  -2.971385805548e-04
O        -0.0237687953      -1.2247716748       0.8361703701   4.765857684641e-03  -2.189385896917e-02  -3.492797646846e-03
O         1.3510001718       0.0604803164      -0.8405395493  -1.313619502814e-02  -5.157972402426e-02  -2.505135586217e-02
O        -1.3069075740      -0.0750199601      -0.7978104226   6.237377665279e-03  -2.243875988327e-02  -1.106248435936e-02
H         1.5695350160      -0.8843130429      -1.2808942306  -1.905465110731e-02   5.724042369631e-02   3.152619411602e-02
H        -1.5598318705       0.7608030416      -1.1563717377  -5.794523740224e-03   2.676469840337e-02  -1.000861951095e-02
7
Properties=species:S:1:pos:R:3:forces:R:3 energy=-6.997926908031e+02 dipole="1.0738631931e-01 -4.1976251590e-02 -1.2874437950e+00" quadrupole="-2.3003796673e+01 -4.3503349261e+00 4.0013626618e-01 -4.3503349261e+00 -2.8453133478e+01 -3.0139070517e-01 4.0013626618e-01 -3.0139070517e-01 -2.7203292222e+01" polarizability="3.7217504573e+01 -2.4518007447e+00 4.1693247309e-01 -2.4518007447e+00 4.0643235872e+01 2.4764100290e-01 4.1693247309e-01 2.4764100290e-01 3.6514753180e+01" charge=0 multiplicity=1 method=wB97M-V basis=def2-svpd config_type=h2so4 sample_index=116 temperature=300.0 units=atomic
S         0.0167420857       0.0075556139       0.1361263221  -3.246332516026e-02   1.621383061236e-02   5.795270746696e-02
O        -0.0550266516       1.3120982995       0.8598726077   1.081717006919e-02  -4.646306939891e-02  -2.859871182214e-02
O         0.0470062909      -1.3022804794       0.8235327405  -4.563181817547e-03   3.408366140049e-02  -1.812785316318e-02
O         1.2357682857      -0.0005123616      -0.8542675203   2.677189127096e-02  -1.875917759279e-02  -1.729027148839e-02
O        -1.2587979766      -0.0176412221      -0.8547192888   3.069245735581e-03  -1.894273631089e-02  -3.121548987091e-03
H         1.5883021288      -0.9396013608      -0.9163061386  -1.103148257102e-02   2.684724125994e-02   2.421089972526e-03
H        -1.6250502148       0.8302352420      -1.1395374690   7.417697120731e-03   7.045596401090e-03   6.682035267699e-03
7
Properties=species:S:1:pos:R:3:forces:R:3 energy=-6.997436412345e+02 dipole="-3.3099918984e-01 1.1422614879e-01 -6.3989208934e-01" quadrupole="-2.3014954978e+01 -4.2672348328e+00 -9.0004030120e-01 -4.2672348328e+00 -2.7631555947e+01 1.1282764235e+00 -9.0004030120e-01 1.1282764235e+00 -2.9061141831e+01" polarizability="3.7708104762e+01 -3.2368516684e+00 -1.0134192624e+00 -3.2368516684e+00 3.8099872468e+01 6.3629039047e-01 -1.0134192624e+00 6.3629039047e-01 3.4928891708e+01" charge=0 multiplicity=1 method=wB97M-V basis=def2-svpd config_type=h2so4 sample_index=117 temperature=300.0 units=atomic
S        -0.0096749134       0.0120115383       0.1221605680   3.368596423382e-02  -5.204689170359e-02  -7.209356098080e-03
O        -0.0764716329       1.2248017279       0.8310881850  -4.070070976853e-04   6.649009142697e-02   2.904878815322e-02
O         0.0504171087      -1.2293711403       0.8425626151   1.963837963192e-03  -2.122507186324e-02   7.768372589688e-03
O         1.2708790667      -0.0065160690      -0.8682289710  -1.143935268763e-02  -7.357754212697e-03   6.500375871683e-03
O        -1.2065187304      -0.0128022370      -0.8644934968  -6.978753851680e-02   8.978506974287e-02   3.327876922017e-02
H         1.4281882677      -0.9681574458      -0.8296429387   1.440876388413e-02   2.374866684466e-03  -9.676758087440e-03
H        -1.7265967898       0.9605194937      -0.2505181160   3.157021463795e-02  -7.802199027827e-02  -5.984842451313e-02
7
Properties=species:S:1:pos:R:3:forces:R:3 energy=-6.997960166929e+02 dipole="-2.3707118361e-01 1.2434656785e-02 -1.2505111256e+00" quadrupole="-2.2564805524e+01 -4.4956216188e+00 5.5268552474e-01 -4.4956216188e+00 -2.8452246882e+01 -1.7592514154e-01 5.5268552474e-01 -1.7592514154e-01 -2.7135240438e+01" polarizability="3.7929159189e+01 -1.8688359427e+00 5.6541685759e-01 -1.8688359427e+00 3.8991356404e+01 3.2922061287e-01 5.6541685759e-01 3.2922061287e-01 3.6074152526e+01" charge=0 multiplicity=1 method=wB97M-V basis=def2-svpd config_type=h2so4 sample_index=118 temperature=300.0 units=atomic
S        -0.0264159516       0.0116588370       0.1274325428   2.765319995839e-02   1.047536319599e-02   3.170579996385e-02
O         0.0133549405       1.2793819155       0.8569340795  -9.454780660329e-03  -1.696454019707e-02  -2.046501524352e-02
O         0.0458850834      -1.2625316386       0.8103623754  -1.173586540013e-02  -1.119762175815e-03  -2.395588096373e-03
O         1.2853098795       0.0201811925      -0.8242770235  -9.161236129728e-03   1.257982505288e-02  -1.004553173682e-02
O        -1.2862565590      -0.0554392380      -0.8532458470  -4.806968677336e-03   2.445492683646e-03  -8.994950819135e-03
H         1.6312724569      -0.8753723199      -0.9553601808  -4.829227834712e-03  -2.412904660369e-03   2.657656147539e-03
H        -1.7205682041       0.7944294287      -1.0823063133   1.228586061911e-02  -5.014814057444e-03   7.464206655640e-03
7
Properties=species:S:1:pos:R:3:forces:R:3 energy=-6.997791536854e+02 dipole="-1.8855911013e-01 -2.2248249668e-01 -1.0329792212e+00" quadrupole="-2.4393834005e+01 -3.8921600876e+00 -1.0514633271e+00 -3.8921600876e+00 -2.7661033104e+01 5.4895468896e-01 -1.0514633271e+00 5.4895468896e-01 -2.6887363003e+01" polarizability="3.8010917672e+01 -1.7542336529e+00 2.3321120855e-02 -1.7542336529e+00 3.7927872169e+01 9.6290266087e-01 2.3321120855e-02 9.6290266087e-01 3.7916156986e+01" charge=0 multiplicity=1 method=wB97M-V basis=def2-svpd config_type=h2so4 sample_index=119 temperature=300.0 units=atomic
S        -0.0473542715      -0.0372961112       0.1683605111   4.540058615154e-02   8.846192703932e-02  -6.453059837368e-02
O         0.0236123709       1.2438429606       0.8550268122  -1.761904948672e-02  -4.909161319244e-03  -1.381373781780e-02
O         0.0765887827      -1.2065142712       0.8901364781  -1.179273010955e-02  -9.256636162810e-02   4.069570314368e-02
O         1.2634271914       0.0519242868      -0.8663578839  -4.943626805556e-03  -3.349093850387e-02  -1.213031739655e-02
O        -1.2720366169      -0.0191935870      -0.9580887926   2.765333504995e-02  -2.562591805219e-02   3.193380817110e-02
H         1.5359156367      -0.8259774428      -1.3273943919  -2.018087238246e-02   3.724086803676e-02   2.629792330086e-02
H        -1.4908246893       0.8948293881      -0.8679959580  -1.852408205017e-02   3.089611154472e-02  -8.424249025069e-03
7
Properties=species:S:1:pos:R:3:forces:R:3 energy=-6.997636134507e+02 dipole="1.9932850979e-01 1.4913452580e-01 -1.2042771535e+00" quadrupole="-2.2321468302e+01 -4.4657014029e+00 7.7696072184e-01 -4.4657014029e+00 -2.8499157302e+01 1.5521257055e-02 7.7696072184e-01 1.5521257055e-02 -2.6321096907e+01" polarizability="3.7950352270e+01 -2.4122077423e+00 -1.1698553673e+00 -2.4122077423e+00 4.0187723861e+01 -1.2578355441e+00 -1.1698553673e+00 -1.2578355441e+00 3.8065159516e+01" charge=0 multiplicity=1 method=wB97M-V basis=def2-svpd config_type=h2so4 sample_index=120 temperature=300.0 units=atomic
S         0.0274974112       0.0228281024       0.1942033483  -9.319674564845e-03  -1.287390981190e-01  -4.988686359841e-02
O        -0.0484842964       1.2424010454       0.8317335635   1.194041583815e-02   8.858815708991e-02   5.564915882482e-02
O        -0.0581290843      -1.3138722925       0.8703774695   1.847354383854e-02   5.578960248028e-02  -2.542844027323e-02
O         1.1903970088       0.0698791551      -0.9721624442   5.129414969575e-02  -6.767812147721e-02   1.512214681159e-02
O        -1.1510022705      -0.0353275988      -0.8474462544  -5.358604688058e-02   3.695181861076e-03  -3.581994002779e-02
H         1.7628733525      -0.8650554215      -1.0495512548  -4.745928276951e-02   6.890569740882e-02   1.122821283454e-02
H        -1.5685650215       0.7353219304      -1.3537328532   2.869909545456e-02  -2.061677328102e-02   2.916579617238e-02
7
Properties=species:S:1:pos:R:3:forces:R:3 energy=-6.997861812144e+02 dipole="3.1466274310e-01 -9.7303257557e-02 -1.0997716000e+00" quadrupole="-2.3034783120e+01 -4.4265103381e+00 -2.2455046713e-01 -4.4265103381e+00 -2.7945495496e+01 -1.6996915106e-01 -2.2455046713e-01 -1.6996915106e-01 -2.6730119021e+01" polarizability="3.6214297498e+01 -2.6357883779e+00 -5.6422416263e-01 -2.6357883779e+00 3.9076791367e+01 7.8558912405e-01 -5.6422416263e-01 7.8558912405e-01 3.5522663367e+01" charge=0 multiplicity=1 method=wB97M-V basis=def2-svpd config_type=h2so4 sample_index=121 temperature=300.0 units=atomic
S         0.0250633950       0.0010356258       0.1811937759  -2.391764646890e-02   4.994902302134e-02  -3.302424165940e-02
O        -0.0603301360       1.2904988555       0.8387247034   1.351625553814e-02  -8.670113110441e-03  -1.305020906752e-04
O         0.0065510838      -1.2582075355       0.7886298896   4.126086836198e-03  -5.722265469636e-02   4.201674935471e-02
O         1.1903242446       0.0092720646      -0.8866368589   5.984249814108e-02  -3.974869652002e-02  -2.146807741215e-02
O        -1.2001068480      -0.0406427007      -0.8476935937  -2.028267764662e-02   1.196261783225e-02  -1.186033450815e-02
H         1.6948977692      -0.9128950690      -1.0548742575  -3.946554961769e-02   5.669195847955e-02   1.796913087700e-02
H        -1.4771126990       0.8632696036      -1.1218511836   6.177468823803e-03  -1.293671609785e-02   6.475474661486e-03
7
Properties=species:S:1:pos:R:3:forces:R:3 energy=-6.997857624490e+02 dipole="3.0216899580e-01 -4.0026394835e-02 -1.3353684499e+00" quadrupole="-2.3097049212e+01 -4.4904118894e+00 -8.4976639815e-01 -4.4904118894e+00 -2.8362566192e+01 4.1061979367e-01 -8.4976639815e-01 4.1061979367e-01 -2.6908940412e+01" polarizability="3.7177629126e+01 -2.1814862358e+00 -3.6343662781e-01 -2.1814862358e+00 3.9656622804e+01 8.9312572492e-01 -3.6343662781e-01 8.9312572492e-01 3.5445270113e+01" charge=0 multiplicity=1 method=wB97M-V basis=def2-svpd config_type=h2so4 sample_index=122 temperature=300.0 units=atomic
S         0.0523041234       0.0053278630       0.1221607641  -6.579873735467e-02   2.836714329294e-02   5.189250356172e-02
O        -0.0655474142       1.2983928997       0.8395114357   1.982807533088e-02  -3.132518003104e-02  -2.575642963478e-02
O        -0.0330652546      -1.2574242467       0.7878052137   1.775501673510e-02  -2.201749700202e-02   1.628838233207e-02
O         1.2660978205       0.0174828060      -0.8265186736   3.913010662232e-02  -4.861984831560e-03  -3.582130579363e-02
O        -1.2680829607      -0.0715127769      -0.8017043203  -1.450237268902e-02   6.197703723332e-02  -1.951300981885e-02
H         1.5688397839      -0.8736261377      -1.1567751194  -1.276266198209e-02   1.859349751298e-02   1.251818338692e-02
H        -1.6218380294       0.9044436216      -0.8657272547   1.646539210074e-02  -5.069980835921e-02   3.502172462908e-04
7
Properties=species:S:1:pos:R:3:forces:R:3 energy=-6.997911146337e+02 dipole="6.2791746873e-02 3.2128062013e-02 -1.4577710130e+00" quadrupole="-2.4501065436e+01 -3.7956702646e+00 3.8284543512e-01 -3.7956702646e+00 -2.8289145013e+01 -1.5177615470e-01 3.8284543512e-01 -1.5177615470e-01 -2.5691976047e+01" polarizability="3.5923496429e+01 -2.3186038409e+00 -2.3324591486e-02 -2.3186038409e+00 4.0231874598e+01 -9.0359340430e-01 -2.3324591486e-02 -9.0359340430e-01 3.7032249107e+01" charge=0 multiplicity=1 method=wB97M-V basis=def2-svpd config_type=h2so4 sample_index=123 temperature=300.0 units=atomic
S        -0.0000605935       0.0033047363       0.1607263687   2.287485755232e-03  -4.433810697484e-02   2.262285932654e-02
O        -0.0566196276       1.2728726504       0.8212527133   1.070673063222e-02   1.068081895568e-02   1.316335995619e-02
O         0.0528151815      -1.3193639435       0.8651380096  -9.209402977860e-03   5.341202448830e-02  -3.136384892721e-02
O         1.2138427118       0.0320214111      -0.8791533966   2.142307795250e-02  -2.805442292142e-02  -1.120578351036e-02
O        -1.2157352314       0.0129208107      -0.8532144232  -2.705498126300e-02  -1.082262491354e-02  -2.202369856969e-02
H         1.4848364251      -0.9123448546      -1.1166491845  -1.039736056663e-02   3.161551833448e-02   1.027647125821e-02
H        -1.3957441704       0.8385331264      -1.3712098788   1.223267348726e-02  -1.253410428603e-02   1.843719815603e-02
7
Properties=species:S:1:pos:R:3:forces:R:3 energy=-6.997669806913e+02 dipole="2.2550451736e-01 3.7253522040e-02 -1.2153069626e+00" quadrupole="-2.2102782000e+01 -4.1959533566e+00 -7.6947014606e-02 -4.1959533566e+00 -2.8547553619e+01 8.5078796119e-02 -7.6947014606e-02 8.5078796119e-02 -2.7343342557e+01" polarizability="3.5668100824e+01 -1.4033120674e+00 -4.1169689191e-01 -1.4033120674e+00 3.6668087700e+01 5.7580901874e-01 -4.1169689191e-01 5.7580901874e-01 3.4388490617e+01" charge=0 multiplicity=1 method=wB97M-V basis=def2-svpd config_type=h2so4 sample_index=124 temperature=300.0 units=atomic
S         0.0062320367       0.0206675763       0.1196636868  -1.765336058917e-03  -4.180640250013e-02   3.890224481722e-02
O        -0.0253055969       1.2436588938       0.8540691837   1.356596854017e-03   2.744810265120e-02  -1.389705918523e-03
O         0.0121335824      -1.2439593592       0.8142898934   1.225638812338e-03  -7.969390333866e-03   4.402352436141e-04
O         1.2442379588       0.0132573694      -0.8444245448   2.897369004108e-02  -1.846941645695e-03  -2.663111449028e-02
O        -1.2573213659      -0.0463689087      -0.8268505233   7.763285623665e-02  -2.130547039210e-01   3.312923377844e-02
H         1.7679570341      -0.8327743357      -0.8984686424  -2.150093820487e-02   1.709384654224e-02   7.244763578632e-03
H        -1.5471420100       0.7065949292      -1.0006048199  -8.588727722227e-02   2.201469280561e-01  -5.184667213219e-02
7
Properties=species:S:1:pos:R:3:forces:R:3 energy=-6.997342188525e+02 dipole="-1.0872453547e-02 -1.0924968904e-01 -1.9938434903e+00" quadrupole="-2.4338586703e+01 -3.9403691048e+00 1.1955703493e+00 -3.9403691048e+00 -2.9441750643e+01 -9.8030756690e-01 1.1955703493e+00 -9.8030756690e-01 -2.3659777403e+01" polarizability="3.9213765685e+01 -1.8044037386e+00 2.6720412611e+00 -1.8044037386e+00 4.3036574398e+01 -1.8278351994e+00 2.6720412611e+00 -1.8278351994e+00 4.4523423598e+01" charge=0 multiplicity=1 method=wB97M-V basis=def2-svpd config_type=h2so4 sample_index=125 temperature=300.0 units=atomic
S        -0.0265561206       0.0052396980       0.1363990459   2.748527280498e-02   3.994236574280e-02   6.110620216487e-02
O         0.0767299228       1.3106646959       0.9184534563  -1.661387439860e-02  -6.588627075900e-02  -4.844758899287e-02
O        -0.0110654140      -1.2842662440       0.8408439854  -3.057127383300e-03   2.281877616472e-02  -1.453175416303e-02
O         1.2327556345       0.0841271234      -0.8694835258   1.510881862903e-02  -2.406084542208e-02  -1.482512967991e-02
O        -1.2621955260      -0.1136742343      -0.8567170682  -2.048626812233e-02   6.741831367452e-02  -9.043065828052e-02
H         1.6134032365      -0.8163618599      -1.1177764399  -1.837852512943e-02   2.665615850369e-02   1.195530856150e-02
H        -1.3513144565       0.7025405191      -1.8582841864   1.591024785614e-02  -6.680157807861e-02   9.521258073477e-02
7
Properties=species:S:1:pos:R:3:forces:R:3 energy=-6.997878176153e+02 dipole="3.1261989189e-01 7.9565396787e-03 -9.9692334605e-01" quadrupole="-2.3479851075e+01 -4.2770617193e+00 -1.0210921851e-01 -4.2770617193e+00 -2.7922996360e+01 -5.7974596151e-01 -1.0210921851e-01 -5.7974596151e-01 -2.7957534035e+01" polarizability="3.7282126141e+01 -2.1325290893e+00 1.1734324399e+00 -2.1325290893e+00 3.9715908289e+01 -9.5591389983e-01 1.1734324399e+00 -9.5591389983e-01 3.6348148316e+01" charge=0 multiplicity=1 method=wB97M-V basis=def2-svpd config_type=h2so4 sample_index=126 temperature=300.0 units=atomic
S         0.0005095196      -0.0182390037       0.1524443984  -2.934880957233e-02  -7.614575407974e-03   1.231504143546e-02
O         0.0137125951       1.2563874076       0.8173263874  -1.077867169703e-02   1.127668479376e-02   9.883932752571e-03
O         0.0460091498      -1.2840517325       0.8757437528  -3.796237603243e-03   1.231654147983e-02  -1.625953161502e-02
O         1.1956681053       0.0750483757      -0.8547120793   5.145844190151e-02  -6.111212083446e-02  -1.328532531001e-02
O        -1.2749132263      -0.0206946917      -0.9103476838   1.358418771843e-02   4.877682121270e-02   1.399720011136e-02
H         1.6936344227      -0.8341353575      -0.7693768464  -2.161615400096e-02   4.625967480672e-02  -1.029788374724e-02
H        -1.4038109988       0.9980881680      -1.0558482181   4.815885629987e-04  -4.996973159499e-02   3.540332403893e-03
7
Properties=species:S:1:pos:R:3:forces:R:3 energy=-6.997800882237e+02 dipole="-2.7333973259e-01 3.2283638089e-01 -8.8029994911e-01" quadrupole="-2.2506644784e+01 -4.1989514988e+00 3.6070647607e-01 -4.1989514988e+00 -2.8431046927e+01 3.1658109418e-01 3.6070647607e-01 3.1658109418e-01 -2.7485431810e+01" polarizability="3.6072023274e+01 -6.5183247818e-01 4.9726765572e-01 -6.5183247818e-01 3.7387099970e+01 2.9832993314e-01 4.9726765572e-01 2.9832993314e-01 3.5362291157e+01" charge=0 multiplicity=1 method=wB97M-V basis=def2-svpd config_type=h2so4 sample_index=127 temperature=300.0 units=atomic
S        -0.0411651075       0.0565490414       0.1771762494   4.903645459912e-02  -1.393093569202e-01  -4.772928342347e-02
O         0.0685348011       1.2542892458       0.8659650214  -1.516854997459e-02   7.653757697831e-02   3.197232450219e-02
O         0.0044734134      -1.2669081727       0.7897458737  -5.222315387994e-03   1.615485895624e-02   9.926554846881e-03
O         1.2211935665       0.0286219064      -0.8707109398  -3.884621524178e-02   8.702145693084e-02   5.190453339365e-03
O        -1.2134289641      -0.1257149125      -0.8991352425   4.536564649628e-03  -2.434590350811e-03   1.099027929442e-02
H         1.6623632085      -0.7600006914      -0.9466892439   2.718053293138e-02  -6.954260761940e-02   8.145544535412e-04
H        -1.6396776322       0.7036951063      -0.9955340979  -2.157419169848e-02   3.159582739956e-02  -1.118067839633e-02
7
Properties=species:S:1:pos:R:3:forces:R:3 energy=-6.997702791693e+02 dipole="3.2500084991e-02 8.9884428252e-02 -1.0793453840e+00" quadrupole="-2.5872315038e+01 -3.8481333369e+00 2.0245190241e-01 -3.8481333369e+00 -2.7191825840e+01 4.9078793554e-02 2.0245190241e-01 4.9078793554e-02 -2.6291437173e+01" polarizability="3.7668252908e+01 -2.1563971872e+00 1.0997639041e-01 -2.1563971872e+00 3.9807732065e+01 3.5742636729e-01 1.0997639041e-01 3.5742636729e-01 3.5653123952e+01" charge=0 multiplicity=1 method=wB97M-V basis=def2-svpd config_type=h2so4 sample_index=128 temperature=300.0 units=atomic
S         0.0116667621       0.0301777592       0.1670075777  -8.681398091283e-03  -3.420521063428e-02  -6.083055188643e-02
O        -0.0446352459       1.2691355054       0.8140248515   4.691114998556e-03   5.670535939857e-02   2.985091444543e-02
O         0.0223516448      -1.2555883655       0.7415019732   1.816963614345e-03  -4.884939798804e-02   4.061680075915e-02
O         1.3089836774       0.0124695470      -0.8250811397  -1.348091981496e-02  -6.593569745836e-02  -1.637789736034e-02
O        -1.3075302574      -0.0806401832      -0.8088617692   1.660042745874e-02   9.158231108735e-02  -2.470673448006e-02
H         1.3442995528      -1.0487618392      -1.0633559355   3.804725729319e-03   7.503956684497e-02   1.332569819041e-02
H        -1.3802124783       0.9533975074      -1.1481017465  -4.650837264839e-03  -7.439300202162e-02   1.810530237278e-02
7
Properties=species:S:1:pos:R:3:forces:R:3 energy=-6.997763166778e+02 dipole="1.1544049006e-01 2.1610513323e-01 -1.2686404253e+00" quadrupole="-2.3443809852e+01 -3.9431902898e+00 1.1034717173e+00 -3.9431902898e+00 -2.8744549595e+01 -1.1814578427e+00 1.1034717173e+00 -1.1814578427e+00 -2.6643590630e+01" polarizability="3.8797405315e+01 -1.2631708529e+00 -1.7630189294e-01 -1.2631708529e+00 4.0510724009e+01 -2.4954445256e+00 -1.7630189294e-01 -2.4954445256e+00 3.9110150341e+01" charge=0 multiplicity=1 method=wB97M-V basis=def2-svpd config_type=h2so4 sample_index=129 temperature=300.0 units=atomic
S        -0.0257711611      -0.0016488723       0.1504979423   3.422912523764e-02  -5.761435144666e-02   1.557658984804e-02
O         0.0217815018       1.2447361551       0.8413961026  -4.787056988747e-03   2.258625836269e-02   1.026215669403e-02
O        -0.0189800849      -1.3032916720       0.8939733296   2.691306902918e-03   4.852440358106e-02  -3.775460890037e-02
O         1.2745926980       0.0985236598      -0.9352613949  -2.990250498867e-02  -4.194698608011e-03   1.746482848496e-02
O        -1.2624238393      -0.0505520017      -0.8418869532  -4.772837893722e-03   7.076366367903e-02  -5.515062216448e-02
H         1.8539091643      -0.6617987044      -0.8044824345   5.240967328302e-04  -6.342360782503e-03   1.087857539169e-03
H        -1.2830445482       0.8997216613      -1.4381532484   1.970026320832e-03  -7.378301280798e-02   4.841268014616e-02
7
Properties=species:S:1:pos:R:3:forces:R:3 energy=-6.997903996356e+02 dipole="-4.8278230300e-01 -7.2283214722e-03 -1.3464385561e+00" quadrupole="-2.5180979182e+01 -3.4056030330e+00 2.5745224849e-01 -3.4056030330e+00 -2.8562426767e+01 1.1958541519e-01 2.5745224849e-01 1.1958541519e-01 -2.6015390160e+01" polarizability="3.5033651111e+01 -9.0366581656e-01 -1.9428415058e-01 -9.0366581656e-01 3.9862444885e+01 3.0989397077e-01 -1.9428415058e-01 3.0989397077e-01 3.6550992252e+01" charge=0 multiplicity=1 method=wB97M-V basis=def2-svpd config_type=h2so4 sample_index=130 temperature=300.0 units=atomic
S        -0.0423654631      -0.0129804477       0.1691363194   7.150307263428e-02   4.196389653977e-02   4.221331353944e-02
O         0.0243058655       1.3176268713       0.8449955685  -1.505076050119e-02  -4.987000017373e-02  -2.213921778591e-02
O         0.0189916498      -1.2899898436       0.8447062929  -7.938011567293e-03   6.703249019004e-03  -6.014680813120e-04
O         1.2233122195       0.0626717066      -0.8711675738  -5.813284487264e-03   1.326327052481e-02   1.818989413809e-02
O        -1.1667644169      -0.0715796124      -0.8871574329  -4.786118144087e-02   2.086403571714e-02  -2.039517832251e-02
H         1.1914303896      -0.7563877830      -1.3511054808   6.004790521007e-03  -1.863680956982e-02  -1.346578134741e-02
H        -1.4349978858       0.8673632772      -1.0383708240  -9.160987536552e-04  -1.419561702531e-02  -3.816108628238e-03
7
Properties=species:S:1:pos:R:3:forces:R:3 energy=-6.997685993973e+02 dipole="8.1039950947e-02 2.9768626645e-02 -1.5687942573e+00" quadrupole="-2.5347999370e+01 -3.5439949195e+00 5.0464152831e-01 -3.5439949195e+00 -2.8514687839e+01 -3.9503534858e-01 5.0464152831e-01 -3.9503534858e-01 -2.4184501178e+01" polarizability="3.7686613485e+01 -8.0553838624e-01 3.9914108428e-01 -8.0553838624e-01 3.8012973419e+01 -1.0850109092e+00 3.9914108428e-01 -1.0850109092e+00 3.8900372370e+01" charge=0 multiplicity=1 method=wB97M-V basis=def2-svpd config_type=h2so4 sample_index=131 temperature=300.0 units=atomic
S         0.0105826317       0.0141532995       0.1573778544  -2.277749416592e-03   7.571474805376e-03  -4.921232824384e-02
O         0.0138496182       1.2332059477       0.8708538562   5.276737183350e-03   3.985190315261e-02   8.402278378238e-03
O        -0.0630003026      -1.2198276791       0.8131514759   1.202099292928e-02  -6.238811885412e-02   3.215318145114e-02
O         1.3025539092       0.0754064827      -0.8877375656  -3.125456292709e-02   5.426957318102e-02   3.458993123861e-02
O        -1.2852799135      -0.1166604883      -0.8133944728   5.111047273470e-03   8.156808583259e-02  -7.585986930097e-02
H         1.4973090894      -0.7431833701      -1.2676004520   6.602544529090e-03  -5.073579910739e-02  -1.844952522434e-02
H        -1.3260826687       0.7374193221      -1.5836584454   4.619610761256e-03  -7.015815697301e-02   6.833264519325e-02
7
Properties=species:S:1:pos:R:3:forces:R:3 energy=-6.997738143294e+02 dipole="9.9006205617e-02 -1.9780951605e-01 -1.4412283113e+00" quadrupole="-2.4772589829e+01 -4.0068132780e+00 -1.9109426991e-01 -4.0068132780e+00 -2.7860328862e+01 -3.3490327974e-01 -1.9109426991e-01 -3.3490327974e-01 -2.5239161368e+01" polarizability="3.7049094786e+01 -2.0495505211e+00 1.5468183946e+00 -2.0495505211e+00 3.8648937159e+01 7.9930946541e-01 1.5468183946e+00 7.9930946541e-01 3.6989129301e+01" charge=0 multiplicity=1 method=wB97M-V basis=def2-svpd config_type=h2so4 sample_index=132 temperature=300.0 units=atomic
S         0.0054805021      -0.0181563500       0.1565021839  -4.272700540880e-02   1.300356687866e-01  -4.109134486158e-02
O         0.0218223673       1.2604766674       0.8389056030  -7.672461940827e-03  -4.236263295589e-03  -4.209107896028e-03
O         0.0559208534      -1.2149431735       0.8081785266  -1.228264156651e-02  -1.211300527267e-01   6.164313643589e-02
O         1.2283869686       0.0444327476      -0.7851476917   4.346495008366e-02  -5.176573720632e-02  -6.901724044609e-02
O        -1.3086683062      -0.0526085264      -0.8946656135   1.044532710523e-02   3.816900087983e-02  -6.507162095865e-03
H         1.3903209014      -0.8945881260      -1.2486610438  -9.831098865755e-03   5.686435818111e-02   2.891643655978e-02
H        -1.5229151602       0.8723499553      -1.3306216549   1.856118473032e-02  -4.799290936349e-02   3.018278019432e-02
7
Properties=species:S:1:pos:R:3:forces:R:3 energy=-6.997823610578e+02 dipole="-2.6214620729e-01 5.7634477871e-02 -1.5072401623e+00" quadrupole="-2.3739708096e+01 -4.0594598128e+00 7.1868409839e-01 -4.0594598128e+00 -2.9338419211e+01 -2.9484827646e-01 7.1868409839e-01 -2.9484827646e-01 -2.5148443011e+01" polarizability="3.8423488058e+01 -7.9354163231e-01 2.3931361298e-01 -7.9354163231e-01 4.1452553383e+01 -4.9112194783e-01 2.3931361298e-01 -4.9112194783e-01 3.7555648177e+01" charge=0 multiplicity=1 method=wB97M-V basis=def2-svpd config_type=h2so4 sample_index=133 temperature=300.0 units=atomic
S        -0.0360276320       0.0076605953       0.1569896167   5.480387394149e-02  -1.814935189226e-03   2.888572782806e-02
O         0.0616200724       1.3371777178       0.8158823596  -1.527119048519e-02  -4.906641256004e-02  -1.889759485853e-02
O        -0.0272898790      -1.3328074624       0.7894001012  -1.707196208137e-04   4.441896001043e-02  -9.107015218182e-03
O         1.3013289238       0.0831888071      -0.8344614143  -3.600362622201e-02   5.220335819307e-02   2.403555971043e-02
O        -1.2690881267      -0.1042703144      -0.8083359074  -3.218280128444e-02   4.115795304005e-02  -4.572859903785e-02
H         1.6270685047      -0.7074854222      -1.1886659322   7.618518167485e-03  -4.883509935619e-02  -1.291364611375e-02
H        -1.5450142495       0.7313394765      -1.3627948178   2.117887470910e-02  -3.800766382611e-02   3.378963988549e-02
7
Properties=species:S:1:pos:R:3:forces:R:3 energy=-6.997658940150e+02 dipole="1.8312069636e-01 -1.6151905667e-01 -1.7345571484e+00" quadrupole="-2.6155275809e+01 -3.2914790200e+00 -4.0778306655e-01 -3.2914790200e+00 -2.9149290331e+01 1.2883976477e-01 -4.0778306655e-01 1.2883976477e-01 -2.3517443648e+01" polarizability="3.7014625695e+01 -1.0333463649e+00 -1.2043219728e+00 -1.0333463649e+00 4.2793664708e+01 3.0213249467e-01 -1.2043219728e+00 3.0213249467e-01 4.0683380599e+01" charge=0 multiplicity=1 method=wB97M-V basis=def2-svpd config_type=h2so4 sample_index=134 temperature=300.0 units=atomic
S         0.0157801345      -0.0265680514       0.1844030066  -1.403735898012e-02   2.219047176453e-02   1.156633978220e-02
O         0.0179942532       1.3192084606       0.7981510149   1.677473379231e-03  -4.186212547177e-02  -5.057207552088e-04
O        -0.0589993751      -1.3343136060       0.8616902275   1.117753134172e-02   3.923328060144e-02  -1.599986780544e-02
O         1.2249483785       0.1383145356      -0.8729284522   1.810069222613e-02  -8.824027980233e-02  -5.716788089481e-02
O        -1.2238172014      -0.0669983196      -0.8445654379  -6.881709521377e-03   3.532020630636e-02  -4.196137430471e-02
H         1.3318330166      -0.7942484077      -1.5511324593  -1.091833005098e-02   7.668023167249e-02   6.177483259878e-02
H        -1.2000103420       0.7493143996      -1.5034495054   9.540513363504e-04  -4.333617053582e-02   4.232432780609e-02
7
Properties=species:S:1:pos:R:3:forces:R:3 energy=-6.997519386379e+02 dipole="-5.0336037303e-01 1.8465562533e-01 -1.1468120352e+00" quadrupole="-2.4029239581e+01 -4.3959109928e+00 3.8955251547e-01 -4.3959109928e+00 -2.6801136465e+01 1.6783836780e-01 3.8955251547e-01 1.6783836780e-01 -2.7526905976e+01" polarizability="3.5901663854e+01 -3.4283903229e+00 -3.9936275209e-01 -3.4283903229e+00 3.8511786381e+01 -5.2062613182e-01 -3.9936275209e-01 -5.2062613182e-01 3.5491295033e+01" charge=0 multiplicity=1 method=wB97M-V basis=def2-svpd config_type=h2so4 sample_index=135 temperature=300.0 units=atomic
S        -0.0257720420      -0.0003544375       0.1447918164   6.218927430309e-02  -9.665650333069e-03  -1.152485257382e-02
O        -0.0708615309       1.2045218799       0.8506046626   3.554285065375e-03   7.508737846314e-02   3.076678409243e-02
O         0.0554924869      -1.2050474854       0.8644295962  -2.548302757937e-03  -6.052617178430e-02   2.095467852887e-02
O         1.2406437028       0.0066763532      -0.8995020323  -7.391267150698e-03  -8.804035953204e-03   8.794171397163e-03
O        -1.1568121076      -0.0167311565      -0.8608201959  -9.981369872431e-02   9.645905255857e-02  -4.387974401543e-02
H         1.3122207475      -0.9431553707      -1.1286342088   7.667104521723e-03   9.291244789985e-03  -2.229832265030e-03
H        -1.5829795171       1.1215631959      -0.8523138855   3.636611342112e-02  -1.018355366044e-01  -3.006078422442e-03
7
Properties=species:S:1:pos:R:3:forces:R:3 energy=-6.997861374961e+02 dipole="8.8348760281e-03 9.1061631777e-02 -8.7492112710e-01" quadrupole="-2.2810197384e+01 -4.6359421974e+00 -5.6392641377e-01 -4.6359421974e+00 -2.7674935850e+01 6.3909605094e-01 -5.6392641377e-01 6.3909605094e-01 -2.7891694506e+01" polarizability="3.7692984069e+01 -2.7157655737e+00 1.7806784180e-01 -2.7157655737e+00 3.8447585864e+01 -1.4098218992e-01 1.7806784180e-01 -1.4098218992e-01 3.4983277071e+01" charge=0 multiplicity=1 method=wB97M-V basis=def2-svpd config_type=h2so4 sample_index=136 temperature=300.0 units=atomic
S         0.0185665401       0.0115392468       0.1538665707  -2.404234017397e-02  -6.777653180023e-02  -4.178951145343e-02
O        -0.0428824130       1.2374890136       0.8021105381   2.830235601156e-03   7.830445279140e-02   4.151664370002e-02
O         0.0258700064      -1.2588735413       0.8233559898   2.561349269737e-03  -1.243949363359e-02   7.001507806118e-03
O         1.2596839780       0.0253672978      -0.8398081957   1.445767851962e-02  -2.325797815453e-02  -1.271072978566e-02
O        -1.2668587809      -0.0275374226      -0.8670477606  -2.177355496655e-02   6.434084196597e-02   1.148912121820e-02
H         1.5535974024      -0.9213632256      -0.9876050401  -8.327554943468e-03   2.645339806173e-02   3.888422293513e-03
H        -1.7555264788       0.9269530255      -0.7522089360   3.432501764011e-02  -6.556473235999e-02  -9.501477828323e-03
7
Properties=species:S:1:pos:R:3:forces:R:3 energy=-6.997919682561e+02 dipole="-3.3579766895e-02 2.5514280878e-01 -1.5108857549e+00" quadrupole="-2.4697608677e+01 -3.6920114917e+00 2.5296070399e-01 -3.6920114917e+00 -2.8606293689e+01 2.8062907071e-01 2.5296070399e-01 2.8062907071e-01 -2.4948375524e+01" polarizability="3.6527667473e+01 -1.0875935905e+00 2.1195611308e-01 -1.0875935905e+00 3.8893238988e+01 -4.0636703175e-01 2.1195611308e-01 -4.0636703175e-01 3.7462805072e+01" charge=0 multiplicity=1 method=wB97M-V basis=def2-svpd config_type=h2so4 sample_index=137 temperature=300.0 units=atomic
S         0.0106132774       0.0400551723       0.1632514214  -7.401258201220e-03  -1.027156397522e-01  -1.258030731652e-02
O        -0.0016975303       1.2590901475       0.8643022139   4.666711052278e-03   4.392064483963e-02   1.437705433244e-02
O        -0.0285897247      -1.2801051162       0.8260234468   7.059440887344e-03   3.571914108061e-02  -1.227609637106e-02
O         1.2519965992       0.0406925776      -0.8761127810  -1.961086364155e-03   4.105780947688e-02   1.611111910376e-02
O        -1.2379833105      -0.0990066908      -0.8532905768  -1.263932314894e-02   3.781676237698e-02  -2.232590894119e-02
H         1.4107192178      -0.7695359916      -1.3371887613  -3.407832993884e-03  -2.575325507146e-02  -5.563047414799e-03
H        -1.4860721242       0.7557212336      -1.3452722887   1.371492924127e-02  -3.005934693865e-02   2.221546938388e-02
7
Properties=species:S:1:pos:R:3:forces:R:3 energy=-6.997509261657e+02 dipole="4.8186465213e-01 -6.5064613266e-03 -1.0396299874e+00" quadrupole="-2.1050460846e+01 -5.0668491801e+00 2.0254434561e-01 -5.0668491801e+00 -2.8039247053e+01 -3.9208704536e-01 2.0254434561e-01 -3.9208704536e-01 -2.8968504850e+01" polarizability="4.0218084319e+01 -4.1456815548e+00 -5.7193221292e-01 -4.1456815548e+00 3.9990340276e+01 -4.1455310053e-01 -5.7193221292e-01 -4.1455310053e-01 3.6678797407e+01" charge=0 multiplicity=1 method=wB97M-V basis=def2-svpd config_type=h2so4 sample_index=138 temperature=300.0 units=atomic
S         0.0184638850      -0.0001549733       0.1179644117  -9.778866707770e-03  -3.126723086522e-02   4.280819097589e-02
O        -0.0604018026       1.2198548128       0.8717654617   6.894423498657e-03   2.541689944309e-02  -1.043056828777e-03
O         0.0094673715      -1.2424604323       0.8879298091   8.262185194787e-03   3.972437272267e-03  -2.129171379824e-02
O         1.2182193330       0.0337321910      -0.9225116996   7.665432397824e-02  -8.633343081704e-02   1.855284542945e-02
O        -1.2338254229      -0.0105182798      -0.8578143165  -1.113583498405e-02   2.089782616615e-02  -1.325736465178e-02
H         1.9826997462      -0.9380899307      -0.6385493092  -7.127430816488e-02   8.663655555979e-02  -2.362314444561e-02
H        -1.5125848910       0.9410064302      -0.9058042031   3.487156367843e-04  -1.937018011901e-02  -2.256384861504e-03
7
Properties=species:S:1:pos:R:3:forces:R:3 energy=-6.997723111577e+02 dipole="-2.2938886563e-01 1.9755405603e-01 -1.3351585562e+00" quadrupole="-2.5264116361e+01 -3.3022796189e+00 2.8413498303e-01 -3.3022796189e+00 -2.8317855242e+01 6.1110251298e-01 2.8413498303e-01 6.1110251298e-01 -2.5270329091e+01" polarizability="3.8732381514e+01 -1.6159938526e+00 1.1174952266e+00 -1.6159938526e+00 3.9108755296e+01 3.1321154713e-01 1.1174952266e+00 3.1321154713e-01 3.9450285264e+01" charge=0 multiplicity=1 method=wB97M-V basis=def2-svpd config_type=h2so4 sample_index=139 temperature=300.0 units=atomic
S         0.0353357332       0.0174745581       0.1736235236  -3.373394741103e-02  -5.822120814671e-02  -4.105723566471e-02
O        -0.0308940534       1.2329313817       0.8558029619   3.569031563798e-03   6.439738985434e-02   2.969150645076e-02
O         0.0111714367      -1.2504767043       0.8728049844  -1.087215743875e-04   4.285774096338e-03  -1.108604738158e-02
O         1.2873760223       0.0324606734      -0.8578616019  -4.170622028081e-02  -6.048202222173e-02  -4.966743940220e-02
O        -1.2880149329      -0.0540099558      -0.9299163968   1.125699538701e-02   2.249196844873e-02   9.581925915539e-03
H         0.9662331376      -0.7710448170      -1.5508458923   3.218867661718e-02   5.879308077718e-02   4.720848014530e-02
H        -1.7577057806       0.8283878147      -1.1303238679   2.859308929362e-02  -3.122787779599e-02   1.521868529816e-02
7
Properties=species:S:1:pos:R:3:forces:R:3 energy=-6.997876737767e+02 dipole="2.4118107858e-03 5.0502178676e-02 -1.4555894755e+00" quadrupole="-2.4609230845e+01 -3.5298373028e+00 2.3385943481e-01 -3.5298373028e+00 -2.9189464026e+01 -9.4747972783e-02 2.3385943481e-01 -9.4747972783e-02 -2.4540314248e+01" polarizability="3.5730760072e+01 -5.7592698002e-01 9.6615063893e-01 -5.7592698002e-01 3.9712886542e+01 4.8647317792e-01 9.6615063893e-01 4.8647317792e-01 3.5808851687e+01" charge=0 multiplicity=1 method=wB97M-V basis=def2-svpd config_type=h2so4 sample_index=140 temperature=300.0 units=atomic
S         0.0037357475       0.0224926019       0.1796592056  -1.485540104673e-02   6.999157140709e-03  -7.412574891807e-04
O         0.0402320084       1.3408644994       0.8244025422  -5.750888253440e-03  -3.636842535794e-02  -9.791038562497e-03
O        -0.0188542861      -1.3069345212       0.7377901738   1.457651297675e-03   3.986047811548e-03   2.501667336915e-02
O         1.2250254663       0.0426946011      -0.8055176535   1.206786243711e-02   7.956482660627e-02   1.388120290604e-02
O        -1.2493613814      -0.1182934737      -0.8330923816  -9.420575013635e-03   1.577690175832e-02  -1.127402030059e-02
H         1.4161243087      -0.7225331977      -1.2583243872   8.130471114465e-03  -6.506445971700e-02  -2.950807550561e-02
H        -1.4847844442       0.6637809269      -1.3793316705   8.370004195393e-03  -4.909976503386e-03   1.243411446191e-02
7
Properties=species:S:1:pos:R:3:forces:R:3 energy=-6.997820637836e+02 dipole="-1.9622800552e-01 -6.5172871644e-02 -1.2469050544e+00" quadrupole="-2.3112788928e+01 -3.9627159774e+00 3.8076507024e-01 -3.9627159774e+00 -2.9023967813e+01 -4.1544795370e-01 3.8076507024e-01 -4.1544795370e-01 -2.6180436133e+01" polarizability="3.5268272543e+01 -5.2831530015e-01 -6.3578750165e-01 -5.2831530015e-01 3.8712747270e+01 1.6739777900e-01 -6.3578750165e-01 1.6739777900e-01 3.4590320568e+01" charge=0 multiplicity=1 method=wB97M-V basis=def2-svpd config_type=h2so4 sample_index=141 temperature=300.0 units=atomic
S        -0.0442926255      -0.0128639145       0.1640223951   9.204937898567e-02   5.716880741202e-02   2.985653654792e-02
O         0.0498969506       1.3206198284       0.7994729388  -1.733730324024e-02  -4.072202235394e-02  -1.037005252988e-02
O        -0.0269847823      -1.2914405245       0.7763677092   2.702607373225e-03  -2.708295820618e-02   2.833814385642e-02
O         1.2445078969       0.0819258809      -0.8496851511  -3.624688400737e-02   6.210870582225e-02   1.334383414151e-02
O        -1.1968819607      -0.0901845356      -0.7986792096  -5.659527767996e-02  -1.586409353063e-02  -4.011121053574e-02
H         1.7051922043      -0.6780881706      -1.0594895289   2.391932924898e-02  -6.106304347248e-02  -8.993141868161e-03
H        -1.4246280468       0.7569131045      -1.1479145420  -8.556371666309e-03   2.554970794045e-02  -1.206217632653e-02
7
Properties=species:S:1:pos:R:3:forces:R:3 energy=-6.997898135169e+02 dipole="5.4466915120e-01 4.9506497372e-02 -1.5779698804e+00" quadrupole="-2.4539702985e+01 -3.6220880271e+00 -6.9177911040e-01 -3.6220880271e+00 -2.8798509790e+01 -9.1215622968e-05 -6.9177911040e-01 -9.1215622968e-05 -2.5670691432e+01" polarizability="3.5882849409e+01 -7.3609428295e-01 4.4944254816e-01 -7.3609428295e-01 3.9165686336e+01 1.7742264983e-01 4.4944254816e-01 1.7742264983e-01 3.7107890340e+01" charge=0 multiplicity=1 method=wB97M-V basis=def2-svpd config_type=h2so4 sample_index=142 temperature=300.0 units=atomic
S         0.0465583157       0.0188070318       0.1398718531  -7.962740961099e-02  -3.901109635795e-02   6.800636577109e-02
O        -0.0018837975       1.2760537271       0.8793134893   7.195213468668e-03  -1.397967272437e-02  -2.190602879671e-02
O        -0.0405869642      -1.2750603809       0.8407060400   1.626034488849e-02   2.749197762076e-02  -1.561541805176e-02
O         1.1971123665       0.0598841943      -0.8596927236   4.588253267480e-02   1.876832614044e-02  -3.241417983821e-02
O        -1.2638253849      -0.0971057053      -0.8639745283   2.195591342910e-02   2.239551892867e-02   2.504761142770e-03
H         1.5293701021      -0.7861493586      -1.1753502034  -2.428152533184e-03  -1.023765243760e-02   9.495677312654e-04
H        -1.2674140446       0.7639000632      -1.3266943326  -9.139453362789e-03  -5.475632906913e-03  -1.559786953429e-03
7
Properties=species:S:1:pos:R:3:forces:R:3 energy=-6.997759061690e+02 dipole="-1.1914868854e-01 -1.0491016724e-01 -1.7517873354e+00" quadrupole="-2.5213540383e+01 -3.5475506833e+00 1.0489152694e-01 -3.5475506833e+00 -2.8970319175e+01 2.4868441759e-01 1.0489152694e-01 2.4868441759e-01 -2.4397345553e+01" polarizability="3.5825183154e+01 -9.8674690064e-01 -4.0809601807e-01 -9.8674690064e-01 4.0266219266e+01 7.3913761869e-01 -4.0809601807e-01 7.3913761869e-01 3.7523025859e+01" charge=0 multiplicity=1 method=wB97M-V basis=def2-svpd config_type=h2so4 sample_index=143 temperature=300.0 units=atomic
S        -0.0197249329      -0.0105894295       0.1457228664   2.144630377983e-02   2.692264626154e-03   4.655935273593e-02
O         0.0631879517       1.2775882788       0.7984261095  -1.671023001378e-02  -1.593470963265e-03   9.605711248591e-03
O        -0.0161494918      -1.2953099495       0.8395952758  -2.918642546325e-03   1.903436524622e-02  -1.264570811487e-02
O         1.2344620953       0.1255597903      -0.8028428654   2.076475635609e-02  -9.598174704972e-02  -7.468332581636e-02
O        -1.2384532090      -0.0776054428      -0.8354664607  -2.277881848307e-02  -1.338254399237e-02  -1.637032204278e-02
H         1.3113486196      -0.8534422561      -1.3844550820  -2.078772965567e-03   8.006826645065e-02   4.727184348606e-02
H        -1.3724151053       0.7107612028      -1.3715785364   2.187558226587e-03   9.188249760713e-03   2.495474688353e-04
7
Properties=species:S:1:pos:R:3:forces:R:3 energy=-6.997762668944e+02 dipole="-1.6645300188e-01 -1.1164821860e-03 -1.2485570672e+00" quadrupole="-2.5556533856e+01 -3.3341670729e+00 8.1275417766e-01 -3.3341670729e+00 -2.8234180990e+01 -8.2312532092e-01 8.1275417766e-01 -8.2312532092e-01 -2.5356612778e+01" polarizability="3.4481820295e+01 -1.6119556321e+00 8.1039675151e-01 -1.6119556321e+00 3.9183646636e+01 -1.0120111808e+00 8.1039675151e-01 -1.0120111808e+00 3.4441792371e+01" charge=0 multiplicity=1 method=wB97M-V basis=def2-svpd config_type=h2so4 sample_index=144 temperature=300.0 units=atomic
S        -0.0125583987      -0.0105880472       0.1802118319   5.404148206776e-03   5.366359815741e-02  -2.102170931614e-03
O        -0.0199149889       1.3114720646       0.7583405943   1.870868091701e-04  -4.187036275319e-03   2.343276219887e-02
O         0.0543981869      -1.3100598602       0.7607205698  -9.617601725479e-03  -1.923839046208e-02   2.425909465666e-02
O         1.2236144008       0.0403527043      -0.8059887810   6.117950333604e-03   7.700043805941e-02   6.635295176652e-03
O        -1.2276754744      -0.0247002891      -0.8089306173  -3.642129292774e-02   4.263281622266e-02  -5.593841397631e-02
H         1.2541822662      -0.8316077404      -1.0108959101   2.381196101604e-02  -9.158117691699e-02  -3.561079689469e-02
H        -1.3427303141       0.8995760727      -1.3321641406   1.050678245331e-02  -5.827015115353e-02   3.926054755581e-02
7
Properties=species:S:1:pos:R:3:forces:R:3 energy=-6.997765732500e+02 dipole="4.1079456885e-02 1.1796977644e-01 -1.9475531170e+00" quadrupole="-2.5635772789e+01 -3.0235246314e+00 -5.5714532261e-01 -3.0235246314e+00 -2.8934043111e+01 -1.5659401757e-01 -5.5714532261e-01 -1.5659401757e-01 -2.3126938785e+01" polarizability="3.5304526564e+01 -8.9957046410e-01 2.0686586453e-01 -8.9957046410e-01 3.7550104307e+01 -7.3960819239e-01 2.0686586453e-01 -7.3960819239e-01 3.8637494898e+01" charge=0 multiplicity=1 method=wB97M-V basis=def2-svpd config_type=h2so4 sample_index=145 temperature=300.0 units=atomic
S        -0.0206354306       0.0018921311       0.1425649184   9.618160845740e-03  -4.923904682766e-02  -1.934210208495e-03
O         0.0526199186       1.2048663939       0.8465197232  -7.032548155291e-03   6.950740440999e-02   2.778405621871e-02
O         0.0011808806      -1.2241296231       0.8724419410  -6.958622082747e-03  -2.687255493239e-02   2.518844426582e-03
O         1.2219203441       0.0865292306      -0.8271675860   3.022995477261e-02  -2.008471089971e-02  -5.497571288588e-02
O        -1.2476028232      -0.0801418572      -0.8632319188  -3.400554854007e-03   6.279886292147e-02  -6.093381348815e-02
H         1.3832740475      -0.6255081863      -1.5409241410  -1.452019683527e-02   2.410155260761e-02   3.696082711388e-02
H        -1.1776985589       0.7741765389      -1.5428618036  -7.978001298755e-03  -6.016698999388e-02   5.051449144616e-02
7
Properties=species:S:1:pos:R:3:forces:R:3 energy=-6.997881934041e+02 dipole="-4.7735474525e-02 -1.0939190518e-01 -1.0466925859e+00" quadrupole="-2.2041243434e+01 -4.3326287805e+00 -1.5182468554e+00 -4.3326287805e+00 -2.8971709964e+01 1.2817123183e+00 -1.5182468554e+00 1.2817123183e+00 -2.7906445655e+01" polarizability="3.7716650564e+01 -2.4552278953e+00 -7.1606034810e-01 -2.4552278953e+00 4.0924039396e+01 3.8155342307e-01 -7.1606034810e-01 3.8155342307e-01 3.6029635813e+01" charge=0 multiplicity=1 method=wB97M-V basis=def2-svpd config_type=h2so4 sample_index=146 temperature=300.0 units=atomic
S         0.0058496540      -0.0097707993       0.1396165386  -1.124012644246e-03  -1.866148254861e-02   5.178816868641e-02
O        -0.0347505854       1.3128824328       0.7955318473   2.149978807224e-03  -3.235322649259e-02  -8.128901216631e-03
O         0.0217321908      -1.3215990543       0.8509163350   1.830731043873e-04   4.630095834938e-02  -2.219041805655e-02
O         1.2395245801       0.0402557131      -0.8318849733   3.118277047946e-02  -3.075635674238e-02  -2.922024426125e-02
O        -1.2260403489      -0.0077721638      -0.8726976251  -3.491622685757e-02   3.927261438449e-02   1.361463072387e-02
H         1.5875542681      -0.8674188034      -1.1437115950  -1.941554986400e-02   3.447142060068e-02   1.763662834483e-02
H        -1.7774075952       0.7959847616      -0.5176907708   2.197481428401e-02  -3.823587263504e-02  -2.357383225592e-02
7
Properties=species:S:1:pos:R:3:forces:R:3 energy=-6.997872852959e+02 dipole="4.0075320593e-01 -1.2329820647e-01 -1.3468753391e+00" quadrupole="-2.6050303930e+01 -2.9707904969e+00 -8.0247185173e-01 -2.9707904969e+00 -2.7734626018e+01 2.8096651868e-01 -8.0247185173e-01 2.8096651868e-01 -2.6117660177e+01" polarizability="3.5680729760e+01 -2.1509197441e+00 1.8598658146e-01 -2.1509197441e+00 3.8441469879e+01 4.0266392460e-01 1.8598658146e-01 4.0266392460e-01 3.6430311524e+01" charge=0 multiplicity=1 method=wB97M-V basis=def2-svpd config_type=h2so4 sample_index=147 temperature=300.0 units=atomic
S         0.0496188070      -0.0130850972       0.1483639602  -7.083332538071e-02   3.265600571019e-02   3.231509626153e-02
O        -0.1228436509       1.2678243278       0.8470823145   2.736419203769e-02  -1.885648926219e-02  -1.570934673916e-02
O         0.0623406412      -1.2543476539       0.8580559305  -5.676546474187e-04  -1.776085703277e-02   3.234678201139e-03
O         1.2325732252      -0.0105093264      -0.8615917393   2.364331159644e-02   3.559470483931e-03  -2.281743532257e-02
O        -1.2739482537       0.0211870956      -0.8724479695   2.889769271765e-02  -3.880196279626e-02   1.654936238885e-02
H         1.2703400195      -0.9019669084      -1.2634574580   3.989762655877e-03   5.132519481748e-03   1.625115405897e-03
H        -1.2212175866       0.9318894353      -1.0976698950  -1.254426601028e-02   3.417375851428e-02  -1.532955279802e-02
7
Properties=species:S:1:pos:R:3:forces:R:3 energy=-6.997126509799e+02 dipole="1.5839320101e-01 -1.1122786640e-01 -8.5457787938e-01" quadrupole="-2.0976780242e+01 -5.5408729891e+00 7.9400905904e-01 -5.5408729891e+00 -2.7635320792e+01 -9.2601648294e-01 7.9400905904e-01 -9.2601648294e-01 -2.8768285075e+01" polarizability="4.4132987137e+01 -6.4663846198e+00 4.7627693849e-01 -6.4663846198e+00 4.2947663815e+01 -8.8329432849e-01 4.7627693849e-01 -8.8329432849e-01 3.7149944030e+01" charge=0 multiplicity=1 method=wB97M-V basis=def2-svpd config_type=h2so4 sample_index=148 temperature=300.0 units=atomic
S        -0.0484301289      -0.0252870947       0.1461173293   5.300311316715e-02   9.260718378907e-03  -3.244938464402e-03
O        -0.0052667820       1.2527482897       0.8122592087  -1.340444708131e-02   1.026373852350e-02   1.191274557604e-02
O         0.1063770811      -1.2753478414       0.8636235028  -2.294011973446e-02  -2.045486313339e-03  -5.659707899502e-03
O         1.2324674209       0.0429642091      -0.8692262224   6.027334402138e-02  -8.809399956900e-02   1.892949756973e-02
O        -1.2718745809       0.0318452146      -0.8840574175  -1.648571182868e-02   2.917230349026e-02  -6.575442769075e-03
H         2.0950145411      -1.0328542552      -0.5416292823  -7.598536315722e-02   8.730439338118e-02  -2.478946758529e-02
H        -1.5484898823       1.0184557866      -1.0133567417   1.552949123122e-02  -4.590201490276e-02   9.387380534380e-03
7
Properties=species:S:1:pos:R:3:forces:R:3 energy=-6.997878427120e+02 dipole="3.8977156975e-01 -7.9566975507e-02 -1.5121155019e+00" quadrupole="-2.5035156385e+01 -3.5946983258e+00 -4.1387739764e-01 -3.5946983258e+00 -2.8281525767e+01 -1.3832819871e-01 -4.1387739764e-01 -1.3832819871e-01 -2.6280097979e+01" polarizability="3.5156103289e+01 -8.1717842898e-01 5.2140591407e-01 -8.1717842898e-01 3.8421992418e+01 -3.1366158597e-01 5.2140591407e-01 -3.1366158597e-01 3.6619657177e+01" charge=0 multiplicity=1 method=wB97M-V basis=def2-svpd config_type=h2so4 sample_index=149 temperature=300.0 units=atomic
S         0.0423696844      -0.0124876527       0.1296193692  -8.496306114271e-02   4.478815242167e-03   7.718866662697e-02
O         0.0032214374       1.2394509961       0.8529872525   1.515044565077e-03   4.604035442014e-03  -6.468155834467e-03
O        -0.0271937806      -1.2563911692       0.8913841766   1.320509057258e-02   7.843220066100e-03  -2.562620119912e-02
O         1.1912158807       0.1034953014      -0.8553812096   5.224064048890e-02  -4.063203460985e-02  -4.285139505046e-02
O        -1.2549113158      -0.0607967601      -0.8816257222   1.640685647085e-02  -1.494076123466e-03   7.554180216816e-03
H         1.3527979032      -0.8486117411      -1.1097773005   8.159283620277e-03   2.172606682039e-02  -5.433395938412e-03
H        -1.3030019224       0.8386458547      -1.2334991877  -6.494429275383e-03   3.408740014681e-03  -4.434949536665e-03
7
Properties=species:S:1:pos:R:3:forces:R:3 energy=-6.997645772973e+02 dipole="-1.0759510583e-01 4.6538236357e-02 -1.6646843603e+00" quadrupole="-2.6896999413e+01 -2.6464770742e+00 2.3311017694e-01 -2.6464770742e+00 -2.8464751788e+01 6.3242169356e-03 2.3311017694e-01 6.3242169356e-03 -2.4485446951e+01" polarizability="3.5879945373e+01 -2.8460305794e-01 3.6503429201e-01 -2.8460305794e-01 3.7922114678e+01 5.2321020905e-01 3.6503429201e-01 5.2321020905e-01 3.7461141845e+01" charge=0 multiplicity=1 method=wB97M-V basis=def2-svpd config_type=h2so4 sample_index=150 temperature=300.0 units=atomic
S        -0.0255475885       0.0353390394       0.1358135988   2.404930929493e-02  -2.738380213852e-03   1.497424926711e-02
O         0.0469757273       1.2362919422       0.8877486969  -1.114991085069e-02   3.785024450265e-02   1.970438720804e-03
O         0.0011143519      -1.2077348034       0.7815899954  -3.103712328826e-04  -6.578995815551e-02   3.848420940831e-02
O         1.2822374716       0.0529212350      -0.8207533724  -2.672211727595e-02  -4.832671573285e-02  -4.086990307229e-02
O        -1.2844813652      -0.1421115669      -0.8282898878   2.700357897327e-02   9.183271796593e-02  -6.768772263867e-02
H         1.1375265651      -0.8787839036      -1.2725840652   2.198886780358e-02   4.684395591486e-02   1.738334989890e-02
H        -1.0547299413       0.7143099634      -1.4838886820  -3.482772234307e-02  -5.957490989081e-02   3.573304606681e-02
7
Properties=species:S:1:pos:R:3:forces:R:3 energy=-6.997750310392e+02 dipole="9.8965869242e-03 -7.6754823075e-02 -6.7262928484e-01" quadrupole="-2.2943875033e+01 -4.5859838302e+00 -5.7901808481e-01 -4.5859838302e+00 -2.7998057792e+01 3.7092406168e-01 -5.7901808481e-01 3.7092406168e-01 -2.8932026458e+01" polarizability="3.9642754938e+01 -2.2674970306e+00 -1.0418324036e+00 -2.2674970306e+00 3.9874261752e+01 -9.6176099507e-02 -1.0418324036e+00 -9.6176099507e-02 3.6152711305e+01" charge=0 multiplicity=1 method=wB97M-V basis=def2-svpd config_type=h2so4 sample_index=151 temperature=300.0 units=atomic
S         0.0108445146      -0.0254275321       0.1370360088  -2.366077127390e-03   3.357099214978e-02  -6.201228423949e-03
O        -0.0477647238       1.2737370314       0.8045035667   4.599404556582e-03  -1.002863307619e-02  -2.437373917850e-03
O        -0.0164003560      -1.2704753798       0.8548339294   1.464105444155e-02  -1.143181285049e-02  -6.779334832334e-04
O         1.3227001859       0.0658407640      -0.8900565998  -2.728072291309e-02  -2.533085867971e-02   2.399611576045e-02
O        -1.2796804310      -0.0262682418      -0.8448988480  -1.828797406635e-02   8.340949341129e-02   2.930908739229e-02
H         1.6633888893      -0.8508849618      -0.8162285610   5.681406656528e-03   7.728277281017e-03  -8.497258395460e-03
H        -1.6706387560       0.9794281714      -0.4946189398   2.304503573770e-02  -7.788077284887e-02  -3.555984993664e-02
7
Properties=species:S:1:pos:R:3:forces:R:3 energy=-6.997870354461e+02 dipole="1.3288893007e-02 -2.3954840374e-02 -1.6487830919e+00" quadrupole="-2.4775250831e+01 -3.6392595039e+00 -8.7775463227e-01 -3.6392595039e+00 -2.8792168901e+01 5.8461477501e-02 -8.7775463227e-01 5.8461477501e-02 -2.5402460798e+01" polarizability="3.6220903741e+01 -4.7435165590e-01 2.5387376775e-01 -4.7435165590e-01 3.8738871111e+01 2.7020999403e-01 2.5387376775e-01 2.7020999403e-01 3.7093434806e+01" charge=0 multiplicity=1 method=wB97M-V basis=def2-svpd config_type=h2so4 sample_index=152 temperature=300.0 units=atomic
S        -0.0316241406      -0.0190111978       0.1282837323   2.095319672987e-02   3.741085497666e-03   5.549776043418e-02
O         0.1016374739       1.2535172962       0.8238200104  -2.878417222610e-02  -2.971698809045e-03  -5.536077906140e-03
O        -0.0057899822      -1.2553408373       0.8711513734  -5.956307196596e-03  -5.979586901685e-03  -9.170416701393e-03
O         1.2301998064       0.1283293182      -0.7925227714   3.234968240898e-02  -4.146979184503e-02  -5.794636098052e-02
O        -1.2737336469      -0.0984899432      -0.8823288600   7.604195860953e-03   2.891620396096e-02  -2.152563352965e-03
H         1.4698100697      -0.6867395279      -1.3585964666  -1.333215222698e-02   3.032499207951e-02   2.544616724398e-02
H        -1.3004474071       0.8480063509      -1.1650860236  -1.291293657273e-02  -1.253842243170e-02  -6.146860772464e-03
7
Properties=species:S:1:pos:R:3:forces:R:3 energy=-6.997761584147e+02 dipole="-2.3182659714e-01 1.0252076098e-01 -9.4386254472e-01" quadrupole="-2.2143301396e+01 -4.6150839328e+00 -2.2520467855e-01 -4.6150839328e+00 -2.8221213389e+01 8.8670651078e-01 -2.2520467855e-01 8.8670651078e-01 -2.8159663001e+01" polarizability="3.8285665890e+01 -3.3920529340e+00 -7.0649158699e-01 -3.3920529340e+00 4.1172622631e+01 1.7987076521e-01 -7.0649158699e-01 1.7987076521e-01 3.6065043445e+01" charge=0 multiplicity=1 method=wB97M-V basis=def2-svpd config_type=h2so4 sample_index=153 temperature=300.0 units=atomic
S         0.0190052810       0.0259681954       0.1638282981  -5.608383485634e-03  -5.935400670915e-02   1.269822815687e-02
O        -0.0802895187       1.2954147970       0.8285720307   1.348048065339e-02   8.316220399433e-03   9.591713746790e-03
O         0.0124291217      -1.3122842526       0.8200482911   7.521957860948e-03   4.424990317609e-02  -1.089936572633e-02
O         1.2345480178      -0.0010901484      -0.8903246751   1.562937647370e-02  -3.659736168582e-02  -5.439656036756e-04
O        -1.1804894873      -0.0260677454      -0.8586535889  -7.865392299883e-02   6.973832020167e-02  -8.113965269855e-03
H         1.4785446186      -0.9913931685      -1.0319645230  -1.072836359928e-02   4.500772885854e-02   7.844544200496e-03
H        -1.8576526774       0.8602690440      -0.7107527880   5.836561377735e-02  -7.132774115846e-02  -1.062298377065e-02
7
Properties=species:S:1:pos:R:3:forces:R:3 energy=-6.997831286009e+02 dipole="4.0632031519e-01 -4.3807593367e-02 -1.5933180040e+00" quadrupole="-2.4383091493e+01 -3.6799805347e+00 -8.7352432775e-01 -3.6799805347e+00 -2.8330342801e+01 -1.7432530935e-01 -8.7352432775e-01 -1.7432530935e-01 -2.4870175063e+01" polarizability="3.5603003168e+01 -2.0931370991e+00 -1.0344312318e-01 -2.0931370991e+00 3.8387438852e+01 2.7251098835e-02 -1.0344312318e-01 2.7251098835e-02 3.6501906074e+01" charge=0 multiplicity=1 method=wB97M-V basis=def2-svpd config_type=h2so4 sample_index=154 temperature=300.0 units=atomic
S         0.0064624179      -0.0031472922       0.1537948017  -2.330450449562e-02  -7.526130268247e-05   5.656929515592e-04
O        -0.0210408052       1.2511978033       0.8297141266   4.792652034664e-03   2.345228921961e-02   9.379285490677e-03
O         0.0351413542      -1.2462726985       0.8237735777  -6.229598629180e-03  -4.023150621036e-02   2.352753946676e-02
O         1.1968713881       0.0331478602      -0.8305256473   6.505407760726e-02  -1.983962436515e-02  -5.780973690404e-02
O        -1.2502697125      -0.0346032714      -0.8453024202   2.059671527839e-04   4.636783564507e-02  -3.718596494333e-02
H         1.6259197301      -0.8109857239      -1.2594916452  -3.386056556387e-02   3.870735930475e-02   3.143350261649e-02
H        -1.2068244517       0.8590634016      -1.3881490041  -6.653483386495e-03  -4.839592696016e-02   2.993523476526e-02
7
Properties=species:S:1:pos:R:3:forces:R:3 energy=-6.997459473421e+02 dipole="1.6453237632e-01 2.7661335941e-01 -1.4960639259e+00" quadrupole="-2.5622364900e+01 -3.7389561623e+00 1.3569652257e-01 -3.7389561623e+00 -2.8117424665e+01 -4.8762379914e-01 1.3569652257e-01 -4.8762379914e-01 -2.5326839687e+01" polarizability="3.8368623042e+01 -1.7123123808e+00 1.0122259523e+00 -1.7123123808e+00 4.1996770698e+01 -2.6302883942e+00 1.0122259523e+00 -2.6302883942e+00 4.0006744612e+01" charge=0 multiplicity=1 method=wB97M-V basis=def2-svpd config_type=h2so4 sample_index=155 temperature=300.0 units=atomic
S        -0.0120891433       0.0369112913       0.1535204611   2.158983396154e-03  -1.241886777251e-01  -7.441898693598e-03
O         0.0230386781       1.2500942468       0.8462549015  -3.768067787513e-03   5.929211861194e-02   2.538441370418e-02
O         0.0105443767      -1.2969384210       0.8288908294  -8.851240673557e-04   4.564842399078e-02  -1.958942362847e-02
O         1.2690322793       0.0648677652      -0.8573035036  -1.167630962602e-04  -2.580545004673e-02  -7.981319351225e-03
O        -1.3037541797      -0.0959672533      -0.8426062896   3.523228832644e-02   1.069566245616e-01  -5.789320964469e-02
H         1.5431559448      -0.8836695415      -1.0690348225  -1.214235753714e-02   3.062267615863e-02   8.495478885828e-03
H        -1.1447487303       0.9576030457      -1.5430589255  -2.047091542464e-02  -9.252458453164e-02   5.900819253128e-02
7
Properties=species:S:1:pos:R:3:forces:R:3 energy=-6.997435547204e+02 dipole="-4.3229426469e-01 -3.7474110817e-02 -7.1331450506e-01" quadrupole="-2.0259494646e+01 -4.9077194339e+00 -6.4035668225e-01 -4.9077194339e+00 -2.8865935002e+01 6.5158661224e-01 -6.4035668225e-01 6.5158661224e-01 -2.8967033275e+01" polarizability="4.1005193862e+01 -3.6445830791e+00 -2.3919516251e-01 -3.6445830791e+00 4.0795115516e+01 9.6244117556e-01 -2.3919516251e-01 9.6244117556e-01 3.5157448042e+01" charge=0 multiplicity=1 method=wB97M-V basis=def2-svpd config_type=h2so4 sample_index=156 temperature=300.0 units=atomic
S        -0.0083771335       0.0113129068       0.1519709715   7.100817907047e-03   2.220945479650e-02   1.504217828275e-02
O         0.0158925169       1.3096884727       0.8247705316  -9.828528885435e-03  -2.003430907737e-02  -4.372421286783e-03
O         0.0017752907      -1.2794137316       0.7828742213   5.070518530484e-03  -1.295302990889e-02   2.319311796773e-02
O         1.2252660886       0.0301773168      -0.8347498694   2.559764395835e-02  -2.625572002851e-02  -1.318348076268e-02
O        -1.1956757103      -0.0763820433      -0.8798037401  -9.939326085728e-02   8.797405568919e-02   2.184069060328e-02
H         1.5889149380      -0.9010383529      -0.8324628791  -7.196837116150e-03   2.453237180960e-02  -3.388568157723e-03
H        -2.0701341866       0.7839914069      -0.4537229690   7.862777739310e-02  -7.542759115462e-02  -3.919894001334e-02
7
Properties=species:S:1:pos:R:3:forces:R:3 energy=-6.997873848108e+02 dipole="3.5023412362e-01 4.1236273501e-02 -1.0114475985e+00" quadrupole="-2.4525287603e+01 -4.1327419235e+00 -5.6641252528e-01 -4.1327419235e+00 -2.8097647667e+01 1.2181751499e-01 -5.6641252528e-01 1.2181751499e-01 -2.6751029367e+01" polarizability="3.7610386305e+01 -1.5476475668e+00 6.7758626059e-01 -1.5476475668e+00 4.1245099834e+01 1.9832360199e-01 6.7758626059e-01 1.9832360199e-01 3.7312169637e+01" charge=0 multiplicity=1 method=wB97M-V basis=def2-svpd config_type=h2so4 sample_index=157 temperature=300.0 units=atomic
S         0.0153720215       0.0148757263       0.1987866636  -2.990599754344e-02  -5.351557917259e-02  -2.581371937033e-02
O         0.0189093845       1.3127150579       0.8240839054  -5.140435833659e-03  -4.011199098485e-03   6.451738304039e-03
O         0.0063471929      -1.3271326046       0.8162253940   2.312370023111e-03   4.106531456967e-02  -4.650733960613e-03
O         1.1968629431       0.0642521132      -0.8654266915   4.204088236379e-02  -5.348541829235e-02  -1.594815365595e-02
O        -1.2659884795      -0.0767512764      -0.9142166857   2.487625416748e-02   1.526970756538e-02   3.125967204113e-02
H         1.5823145017      -0.9013658124      -1.0606614754  -2.748322470154e-02   5.700526095770e-02   1.369668862138e-02
H        -1.3718197767       0.8573983670      -1.1643504888  -6.732355430809e-03  -2.402888165928e-03  -4.965532533863e-03
7
Properties=species:S:1:pos:R:3:forces:R:3 energy=-6.997845799543e+02 dipole="-6.7563206064e-02 4.5570688636e-02 -1.4269942418e+00" quadrupole="-2.4276889812e+01 -4.2602475676e+00 3.9682210918e-01 -4.2602475676e+00 -2.8430108541e+01 -1.5696975362e-01 3.9682210918e-01 -1.5696975362e-01 -2.5791759217e+01" polarizability="4.0338387356e+01 -9.7048737167e-01 9.5693837681e-01 -9.7048737167e-01 3.9291753055e+01 -5.6916606486e-01 9.5693837681e-01 -5.6916606486e-01 3.7802877134e+01" charge=0 multiplicity=1 method=wB97M-V basis=def2-svpd config_type=h2so4 sample_index=158 temperature=300.0 units=atomic
S         0.0120973040       0.0032519246       0.1287458658  -1.897297676559e-02   2.053137246663e-05   7.403085641076e-04
O         0.0466199979       1.2478854484       0.8305932894  -6.852340491362e-03   2.033807910502e-02   3.293530910573e-03
O        -0.0475692415      -1.2540273095       0.8317026801   9.155171659984e-03  -7.303790993980e-03  -8.357940472617e-03
O         1.3497963357       0.1045284332      -0.8172158907  -2.724742921369e-02  -1.944637377299e-02  -2.445302244972e-03
O        -1.3585575511      -0.1063995359      -0.8335408495   9.731189882155e-03   5.681660905463e-02  -2.028370106344e-02
H         1.4566964565      -0.7929611099      -1.1850885616   6.247719001479e-03   3.541996815883e-03  -2.562531160005e-03
H        -1.6855874890       0.8158916386      -1.2497009859   2.794768980447e-02  -5.399665200555e-02   2.953251046877e-02
7
Properties=species:S:1:pos:R:3:forces:R:3 energy=-6.997083021428e+02 dipole="5.6065270247e-02 -1.6005333145e-01 -1.9253896680e+00" quadrupole="-2.7294582093e+01 -2.5508509661e+00 5.4677543948e-01 -2.5508509661e+00 -2.9171996295e+01 -4.1252293832e-01 5.4677543948e-01 -4.1252293832e-01 -2.1837546481e+01" polarizability="3.7177164136e+01 -1.2758505964e+00 6.5183159938e-01 -1.2758505964e+00 4.1283385021e+01 -2.2652439333e+00 6.5183159938e-01 -2.2652439333e+00 4.4685422545e+01" charge=0 multiplicity=1 method=wB97M-V basis=def2-svpd config_type=h2so4 sample_index=159 temperature=300.0 units=atomic
S        -0.0020396057       0.0016543898       0.1699901006   1.027334385255e-02   5.549235088649e-02  -1.399823253646e-02
O        -0.0086716430       1.2866384292       0.8376066046   6.636264617247e-03  -1.043499509681e-02   2.055694599369e-03
O        -0.0139484367      -1.2696062170       0.7806480810   5.976229476216e-03  -4.339782590528e-02   3.454158623370e-02
O         1.2788750881       0.0688404984      -0.8560042667  -1.748511605687e-02  -5.421207175038e-02  -2.907430771404e-02
O        -1.2674866342      -0.0767681529      -0.7748824168   7.915214345473e-03   5.654307490512e-02  -1.215654554032e-01
H         1.2350517852      -0.8527454469      -1.3606434527   9.197173659916e-03   5.069387740091e-02   2.836567307308e-02
H        -0.9947159294       0.6582219541      -1.9577560980  -2.249833255612e-02  -5.470950072784e-02   9.965530753075e-02
7
Properties=species:S:1:pos:R:3:forces:R:3 energy=-6.997581445738e+02 dipole="2.4242686737e-01 1.1803235981e-02 -1.4647492481e+00" quadrupole="-2.5692797374e+01 -3.2042777809e+00 -3.8640952960e-01 -3.2042777809e+00 -2.8920716206e+01 -7.6721039913e-01 -3.8640952960e-01 -7.6721039913e-01 -2.5267541127e+01" polarizability="3.6420575767e+01 3.2332453356e-02 1.2235973696e+00 3.2332453356e-02 4.1008964304e+01 -1.7387556769e+00 1.2235973696e+00 -1.7387556769e+00 3.8211220713e+01" charge=0 multiplicity=1 method=wB97M-V basis=def2-svpd config_type=h2so4 sample_index=160 temperature=300.0 units=atomic
S        -0.0032502147      -0.0187195535       0.1680180653  -1.797648680842e-02   1.127952097300e-02   3.127890640518e-02
O         0.0678361456       1.3071230458       0.8178857792  -1.466259707782e-02  -3.881668268272e-02  -9.642724837239e-03
O        -0.0198666172      -1.3209961618       0.8587073057   4.684997338063e-03   3.558432579070e-02  -1.871048866513e-02
O         1.2149913868       0.1251944124      -0.8487490493  -3.943260431256e-02   1.424303967715e-01   5.309912943528e-02
O        -1.2790015247      -0.0893019031      -0.8817403621   3.680352668724e-02   8.575070290249e-02  -3.166006884174e-02
H         1.4612350221      -0.6296486391      -1.1576720222   5.232190548108e-02  -1.583989771504e-01  -6.644339698228e-02
H        -1.1072463792       0.8829865842      -1.4451368220  -2.175769366973e-02  -7.780728018121e-02   4.208743916709e-02
7
Properties=species:S:1:pos:R:3:forces:R:3 energy=-6.997894050285e+02 dipole="1.3237299113e-01 1.4416460851e-01 -1.2139352836e+00" quadrupole="-2.2725329709e+01 -4.4444170759e+00 -1.5992551167e-01 -4.4444170759e+00 -2.8420827557e+01 1.1775307597e-01 -1.5992551167e-01 1.1775307597e-01 -2.6689891891e+01" polarizability="3.6522911986e+01 -2.0734787359e+00 -1.7775898522e-01 -2.0734787359e+00 3.9313492980e+01 3.3148225206e-01 -1.7775898522e-01 3.3148225206e-01 3.5213477288e+01" charge=0 multiplicity=1 method=wB97M-V basis=def2-svpd config_type=h2so4 sample_index=161 temperature=300.0 units=atomic
S         0.0225780284       0.0275876893       0.1559855399  -1.352007469562e-02  -3.102062646060e-02   9.198071888771e-03
O        -0.0428713445       1.2984858509       0.8379186192   1.107585398021e-02  -1.461884045586e-03  -4.743503121123e-03
O        -0.0193538733      -1.2767794531       0.7656279138   1.091626246513e-02  -4.479352018816e-03   2.070268423255e-02
O         1.2384510885       0.0030900382      -0.8535812753   1.557262473653e-02   3.634483328620e-02  -1.190524053562e-02
O        -1.2251448923      -0.0827259230      -0.8113033199  -3.669368913586e-02   6.201852293894e-02  -3.140127866629e-02
H         1.6625917401      -0.8243776724      -1.0957608279  -7.398901908441e-03  -1.225383318659e-02   7.509747470376e-03
H        -1.5966002207       0.8640805595      -1.0302269437   2.010837790443e-02  -4.918125487651e-02   1.061190595103e-02
7
Properties=species:S:1:pos:R:3:forces:R:3 energy=-6.997885730994e+02 dipole="-1.2606803110e-01 -6.4038310858e-02 -1.1541189743e+00" quadrupole="-2.5400170033e+01 -3.4733684937e+00 1.9201136425e-01 -3.4733684937e+00 -2.8354707691e+01 1.0663187494e-02 1.9201136425e-01 1.0663187494e-02 -2.5212698724e+01" polarizability="3.5067236096e+01 -5.3458482255e-01 7.7566762224e-02 -5.3458482255e-01 3.8768615888e+01 -9.4848261344e-02 7.7566762224e-02 -9.4848261344e-02 3.5987499568e+01" charge=0 multiplicity=1 method=wB97M-V basis=def2-svpd config_type=h2so4 sample_index=162 temperature=300.0 units=atomic
S        -0.0252049417      -0.0085787418       0.2098896578   2.107826272011e-02  -6.317746643241e-03  -5.808132122268e-02
O         0.0568098768       1.2823268537       0.7841360928  -1.450269579335e-02   2.849207434957e-02   3.561819350494e-02
O         0.0027079349      -1.3059356978       0.8257418050  -6.125377285703e-03   1.743501740638e-03   8.404463320483e-03
O         1.1992955421       0.1098588106      -0.8589008533   8.978926068735e-03  -4.310243408214e-02  -7.597181385641e-03
O        -1.2071021862      -0.0630685275      -0.8907279518  -2.385676666732e-03  -7.449704524055e-02   4.439529347831e-02
H         1.3360297948      -0.8108307257      -1.2310602442   1.132782118687e-04   2.697012734548e-02   7.414555724824e-03
H        -1.3621306153       0.7181280990      -1.3282492881  -7.117169318860e-03   6.677494202031e-02  -3.015050594216e-02
7
Properties=species:S:1:pos:R:3:forces:R:3 energy=-6.997772157635e+02 dipole="-4.2437962659e-01 7.7268150702e-02 -1.1565742624e+00" quadrupole="-2.4969890850e+01 -3.7218333248e+00 -2.5411375958e-01 -3.7218333248e+00 -2.7989645044e+01 9.4412641338e-01 -2.5411375958e-01 9.4412641338e-01 -2.5901049823e+01" polarizability="3.7674300624e+01 -1.6176554913e+00 -6.8942761473e-01 -1.6176554913e+00 3.8729066686e+01 1.6037597327e+00 -6.8942761473e-01 1.6037597327e+00 3.6905660978e+01" charge=0 multiplicity=1 method=wB97M-V basis=def2-svpd config_type=h2so4 sample_index=163 temperature=300.0 units=atomic
S        -0.0138619436       0.0162078203       0.1678670667   3.112006917284e-02   1.994089936028e-03  -5.939824943980e-02
O        -0.0087794812       1.2627887355       0.8348788136  -3.851927971990e-03   3.769014283646e-02   1.514821492664e-02
O         0.0021938464      -1.2305837894       0.7930938448   3.731800788878e-04  -6.463353905230e-02   4.177982908090e-02
O         1.3180365095       0.0281846197      -0.8392772184  -3.508135769655e-02  -5.884472683924e-02  -3.979866269566e-02
O        -1.2551472347      -0.0926075628      -0.8604390819  -1.582486321573e-02   5.753732354943e-02   8.562501297842e-04
H         1.2043504505      -0.8663198035      -1.4733257667   1.079049152240e-02   6.670256915417e-02   4.896290581413e-02
H        -1.6538967835       0.8517816969      -0.8537848908   1.247825310203e-02  -4.046779190030e-02  -7.600564020982e-03
7
Properties=species:S:1:pos:R:3:forces:R:3 energy=-6.997823496797e+02 dipole="-1.2021383592e-01 1.1869769908e-01 -1.0730346132e+00" quadrupole="-2.4217109880e+01 -4.2698676051e+00 6.9614860258e-02 -4.2698676051e+00 -2.7918394494e+01 -4.1216009151e-01 6.9614860258e-02 -4.1216009151e-01 -2.6915288433e+01" polarizability="3.7398439315e+01 -1.6683129036e+00 1.4184457896e+00 -1.6683129036e+00 4.0453582064e+01 -9.2753609433e-01 1.4184457896e+00 -9.2753609433e-01 3.6916899264e+01" charge=0 multiplicity=1 method=wB97M-V basis=def2-svpd config_type=h2so4 sample_index=164 temperature=300.0 units=atomic
S        -0.0322635398      -0.0041272579       0.1773366929   2.078449084704e-02  -1.083978709844e-02  -2.100514739836e-02
O         0.0531571461       1.2843400444       0.8171684605  -1.845609047906e-02   1.326384806717e-03   6.909480272375e-03
O         0.0452950837      -1.2944115735       0.8383396267  -1.145410849488e-02   1.097457234494e-02  -2.511285701333e-03
O         1.2259294478       0.0703873522      -0.8424641069  -1.433641080883e-02   3.759910317135e-02   6.121296722899e-03
O        -1.2641079316      -0.0656409542      -0.9136726198  -5.953385063000e-03   8.589399164011e-02   4.594552856313e-03
H         1.5423833978      -0.7833013946      -1.0274124023   1.412243347224e-02  -4.258105722854e-02  -9.638120303107e-03
H        -1.4803867165       1.0028154067      -1.1351905797   1.523998579686e-02  -8.232889618381e-02   1.551351572472e-02
7
Properties=species:S:1:pos:R:3:forces:R:3 energy=-6.997835853268e+02 dipole="2.6114171870e-01 1.7118622420e-01 -1.3029126504e+00" quadrupole="-2.4295151658e+01 -3.4954958199e+00 -4.2762672069e-01 -3.4954958199e+00 -2.8377364499e+01 2.4000330587e-01 -4.2762672069e-01 2.4000330587e-01 -2.6209778828e+01" polarizability="3.4675702260e+01 -1.6313215825e+00 -8.6599265060e-01 -1.6313215825e+00 3.8647748182e+01 -5.0993187111e-01 -8.6599265060e-01 -5.0993187111e-01 3.5851281822e+01" charge=0 multiplicity=1 method=wB97M-V basis=def2-svpd config_type=h2so4 sample_index=165 temperature=300.0 units=atomic
S        -0.0077918324       0.0234008624       0.1698696318   2.717122733985e-02  -1.293076722782e-01   1.815724264654e-02
O        -0.0472382713       1.2581227223       0.8333605603   6.443366782630e-03   5.098173101545e-02   2.604056918377e-02
O         0.0312879682      -1.3115159938       0.8596972040  -4.409673912137e-03   5.765037005421e-02  -2.523667439865e-02
O         1.1815308979       0.0256008601      -0.9069539047   2.517914334890e-02   7.216344572591e-03  -6.625608853760e-03
O        -1.1801219078      -0.0177240065      -0.8580703906  -2.935609907846e-02  -5.926978376742e-02   1.261638627090e-02
H         1.6300069343      -0.8247915248      -1.1194453771  -1.497860005760e-02   8.885648640827e-03   1.212698686049e-02
H        -1.1538796694       0.8127821120      -1.2340446727  -1.011059834508e-02   6.380813687124e-02  -3.715696541146e-02
7
Properties=species:S:1:pos:R:3:forces:R:3 energy=-6.997706136135e+02 dipole="2.3306062046e-01 1.1311367492e-01 -1.7094836333e+00" quadrupole="-2.3616553447e+01 -4.3245804844e+00 2.6704719542e-02 -4.3245804844e+00 -2.8710193207e+01 -4.8521521690e-01 2.6704719542e-02 -4.8521521690e-01 -2.6406467887e+01" polarizability="3.7964581043e+01 -1.7432935041e+00 6.1686588891e-01 -1.7432935041e+00 4.1441022625e+01 -8.4599752059e-01 6.1686588891e-01 -8.4599752059e-01 3.8940322561e+01" charge=0 multiplicity=1 method=wB97M-V basis=def2-svpd config_type=h2so4 sample_index=166 temperature=300.0 units=atomic
S        -0.0097312793       0.0152522596       0.1052935972   3.151762310337e-03  -3.988948490161e-02   1.034417976542e-01
O         0.0421029409       1.2621287017       0.8941126358  -1.065159685893e-02  -2.057302215714e-02  -3.434424640838e-02
O        -0.0084216177      -1.2764106230       0.8746766086   1.929071111162e-03   4.332854797744e-02  -3.855889378033e-02
O         1.2334870142       0.0781553902      -0.8563708169   4.080568054546e-02  -4.191290153366e-02  -3.013023182712e-02
O        -1.2725675966      -0.0982433802      -0.8559762267  -7.228672063171e-04   9.121977691554e-02  -4.724926952503e-02
H         1.7019319970      -0.8395268780      -1.0153706699  -3.100608155507e-02   4.545233583989e-02   1.155668007806e-02
H        -1.3097577302       0.9065103937      -1.3530428997  -3.462600817302e-03  -7.761104190859e-02   3.526465453269e-02
7
Properties=species:S:1:pos:R:3:forces:R:3 energy=-6.997712701673e+02 dipole="-1.6682541322e-01 1.3400693878e-01 -1.5534095891e+00" quadrupole="-2.3902316115e+01 -3.6997136449e+00 -1.5690092020e-01 -3.6997136449e+00 -2.8879073510e+01 6.9333563275e-01 -1.5690092020e-01 6.9333563275e-01 -2.5773304805e+01" polarizability="3.4545461877e+01 -5.4080075734e-01 -6.2799377969e-01 -5.4080075734e-01 3.7483347793e+01 4.6307508326e-01 -6.2799377969e-01 4.6307508326e-01 3.4901240475e+01" charge=0 multiplicity=1 method=wB97M-V basis=def2-svpd config_type=h2so4 sample_index=167 temperature=300.0 units=atomic
S        -0.0215761566       0.0272128508       0.1260700050   4.372975538562e-02  -8.527207944448e-02   6.463600532870e-02
O         0.0320189890       1.2548128494       0.8333536846  -9.532819006837e-03   3.451671668409e-02   8.300599133335e-03
O        -0.0128830341      -1.2763790896       0.8247380715  -7.158078089267e-05   3.173806582657e-02  -1.715530228865e-02
O         1.2448907405       0.0633636611      -0.8205600926   1.627560607619e-02  -4.510841364327e-03  -2.647363236229e-02
O        -1.2187279890      -0.0885901147      -0.8254359424   2.133628320348e-02  -1.641801461839e-01   2.399051895089e-02
H         1.4414135875      -0.7972735255      -1.2569201911  -6.441396701334e-03   1.019972379191e-02   1.002149993072e-02
H        -1.4761886501       0.6744103196      -1.0760512531  -6.531819814609e-02   1.775415035902e-01  -6.339582617721e-02
7
Properties=species:S:1:pos:R:3:forces:R:3 energy=-6.997856498105e+02 dipole="-2.3640976949e-01 -7.5439741772e-02 -8.3508558624e-01" quadrupole="-2.3886673724e+01 -4.0789152087e+00 4.5984953944e-01 -4.0789152087e+00 -2.8250448375e+01 -3.6594048123e-01 4.5984953944e-01 -3.6594048123e-01 -2.7921065007e+01" polarizability="3.8400537471e+01 -1.2812051134e+00 -7.1537384554e-02 -1.2812051134e+00 3.9701039287e+01 -2.1134190761e-01 -7.1537384554e-02 -2.1134190761e-01 3.5770880710e+01" charge=0 multiplicity=1 method=wB97M-V basis=def2-svpd config_type=h2so4 sample_index=168 temperature=300.0 units=atomic
S        -0.0088410221      -0.0184395098       0.1528037139   1.661240960707e-03   6.707658253509e-02   5.270887484109e-03
O        -0.0096374330       1.3146309172       0.7998189068  -5.300879931930e-03  -4.017903234870e-02  -9.468068295753e-03
O         0.0167375864      -1.3051616254       0.8145919813   2.731950870683e-03   5.643375984889e-03  -5.038072509146e-03
O         1.3214176781       0.0609677150      -0.8525547916  -5.062287910906e-02   5.093210111071e-02   1.941945992764e-02
O        -1.2972184849      -0.0357181620      -0.8456843003   8.951966952395e-03   3.709038100601e-03   3.891454176530e-03
H         1.4564069948      -0.8362747763      -0.8123766359   3.569227163735e-02  -7.861775885701e-02  -1.445346826978e-02
H        -1.6752466262       0.8705111657      -0.8730366256   6.835689386377e-03  -8.526047077829e-03   3.711058909431e-04
7
Properties=species:S:1:pos:R:3:forces:R:3 energy=-6.997537327801e+02 dipole="6.4763001473e-02 7.4233435580e-02 -5.7740964380e-01" quadrupole="-2.2085935673e+01 -4.8017345817e+00 6.4576631110e-01 -4.8017345817e+00 -2.7979498203e+01 -2.2186680433e-01 6.4576631110e-01 -2.2186680433e-01 -2.9117245176e+01" polarizability="3.9280232594e+01 -3.6965708640e+00 2.1083054770e-01 -3.6965708640e+00 4.0990006135e+01 3.4634203549e-01 2.1083054770e-01 3.4634203549e-01 3.5761844985e+01" charge=0 multiplicity=1 method=wB97M-V basis=def2-svpd config_type=h2so4 sample_index=169 temperature=300.0 units=atomic
S        -0.0112198035       0.0401356861       0.1613870996   2.541534291169e-02  -6.219097569164e-02  -1.607921337648e-02
O        -0.0354097776       1.2941264923       0.8593175431  -5.483710660299e-03   9.472770064775e-03   3.667147876039e-03
O         0.0602391149      -1.2904733967       0.7735687368  -6.849323434874e-03   1.727201181196e-02   1.231351349851e-02
O         1.2256679088      -0.0228546878      -0.8841410847   5.053917404074e-02  -7.770623846261e-02   3.742115341755e-02
O        -1.2393360412      -0.0467563238      -0.8758750262   3.806705965323e-03   1.150899361184e-02   9.396366029339e-03
H         1.7982161478      -1.0593077231      -0.4782236650  -5.205659346991e-02   9.255994877431e-02  -3.743595114270e-02
H        -1.6191221019       0.8300634273      -0.7739931231  -1.537530990706e-02   9.005645370160e-03  -9.342070900400e-03
7
Properties=species:S:1:pos:R:3:forces:R:3 energy=-6.997397812656e+02 dipole="1.3173653841e-02 -1.5452355691e-01 -8.5523434895e-01" quadrupole="-2.2946876616e+01 -4.8106214325e+00 1.3988162718e+00 -4.8106214325e+00 -2.7596622785e+01 -7.4350692015e-01 1.3988162718e+00 -7.4350692015e-01 -2.7320290197e+01" polarizability="4.1048397318e+01 -3.7847633808e+00 -2.7322443910e-01 -3.7847633808e+00 4.1182035329e+01 -2.3402318992e-01 -2.7322443910e-01 -2.3402318992e-01 3.8194456340e+01" charge=0 multiplicity=1 method=wB97M-V basis=def2-svpd config_type=h2so4 sample_index=170 temperature=300.0 units=atomic
S        -0.0168273996       0.0008341917       0.1893999793   1.534911231978e-02   8.225688433165e-03  -8.312968610405e-02
O        -0.0131765049       1.2472921220       0.8540260855  -2.217976328641e-03   3.567509019365e-02   2.443317155039e-02
O         0.0339527030      -1.2669393686       0.8465586359  -6.741364872105e-03  -1.729502059073e-02   4.813869313233e-03
O         1.2634547549       0.0549277142      -0.9394239543   1.922752055477e-02  -1.102454853009e-01   4.972447362097e-02
O        -1.2604435942      -0.0143470182      -0.8924845863   1.412104405845e-02  -4.723133977130e-02   2.503892947387e-02
H         1.7835570747      -1.0941674850      -0.7207760918  -4.555809584506e-02   1.039945600468e-01  -2.252444113207e-02
H        -1.6333396294       0.7401282539      -1.3295632211   5.786608620083e-03   2.682883844588e-02   1.530393189038e-03
7
Properties=species:S:1:pos:R:3:forces:R:3 energy=-6.997504247476e+02 dipole="5.4456859755e-01 -2.8206478962e-01 -8.0752916558e-01" quadrupole="-2.3274311468e+01 -4.7019842708e+00 2.4870044427e-01 -4.7019842708e+00 -2.7467994791e+01 -7.4163750845e-01 2.4870044427e-01 -7.4163750845e-01 -2.8495117524e+01" polarizability="3.9529604167e+01 -3.5400779985e+00 -4.3066322776e-01 -3.5400779985e+00 4.0352993880e+01 7.1228809094e-01 -4.3066322776e-01 7.1228809094e-01 3.6219734233e+01" charge=0 multiplicity=1 method=wB97M-V basis=def2-svpd config_type=h2so4 sample_index=171 temperature=300.0 units=atomic
S         0.0428627302      -0.0121696479       0.1469134919  -4.539235518787e-02   1.024140754349e-01  -2.501462917045e-02
O        -0.0815991154       1.2778284249       0.8626357647   1.662291081014e-02  -2.808984966048e-02  -2.041715038394e-02
O        -0.0008064542      -1.2347580776       0.8054986194   1.240815850828e-02  -7.960128878323e-02   4.164669103749e-02
O         1.2595900085       0.0234522882      -0.9082838460   4.398778081337e-02  -9.907923210021e-02   3.558922854697e-02
O        -1.2848566429      -0.0319900535      -0.8383528046   2.800856190041e-02  -9.791503609270e-03   7.637328564945e-03
H         1.7816843689      -1.0658539278      -0.6157172387  -4.221863831991e-02   9.598787673901e-02  -3.089507044782e-02
H        -1.4283920688       0.9033821058      -0.9448125006  -1.340719696297e-02   1.820794444516e-02  -8.591190389724e-03
7
Properties=species:S:1:pos:R:3:forces:R:3 energy=-6.997910551236e+02 dipole="2.0023967668e-01 4.6198757820e-02 -1.4128503602e+00" quadrupole="-2.4821699855e+01 -3.8382054326e+00 -6.0045841506e-01 -3.8382054326e+00 -2.7948081698e+01 9.6934035369e-03 -6.0045841506e-01 9.6934035369e-03 -2.5954221872e+01" polarizability="3.6537542199e+01 -1.9873950332e+00 1.3960394245e+00 -1.9873950332e+00 3.9552639915e+01 -5.6905459961e-02 1.3960394245e+00 -5.6905459961e-02 3.7833071723e+01" charge=0 multiplicity=1 method=wB97M-V basis=def2-svpd config_type=h2so4 sample_index=172 temperature=300.0 units=atomic
S         0.0118533497       0.0034851505       0.1600112830  -4.053508934322e-02  -1.086185287082e-02   1.368892527260e-02
O        -0.0073989871       1.2644233703       0.8692471600  -2.484662281203e-04  -2.405988201236e-03  -1.061488188400e-02
O         0.0596257430      -1.2610530421       0.8643187832  -1.036342198834e-02   2.582770662585e-03  -6.369877040632e-03
O         1.1926496550       0.0253326624      -0.8432328434   3.999118526192e-02  -1.096576775484e-03  -3.424207700445e-02
O        -1.2684824659      -0.0415551672      -0.9337068766   1.283557478118e-02   4.733853687455e-02   8.747796024386e-03
H         1.4187005535      -0.8459710465      -1.2531826031  -8.972676280933e-03   1.351528834826e-02   1.180660923217e-02
H        -1.4180995856       0.9378967690      -1.2438151550   7.288253118550e-03  -4.908607487525e-02   1.683340273510e-02
7
Properties=species:S:1:pos:R:3:forces:R:3 energy=-6.997786382627e+02 dipole="2.8905502404e-02 -3.1498462221e-02 -1.5639081581e+00" quadrupole="-2.3998618931e+01 -4.1189630967e+00 -1.1672288274e+00 -4.1189630967e+00 -2.8390385076e+01 5.6707174066e-01 -1.1672288274e+00 5.6707174066e-01 -2.5829321343e+01" polarizability="3.6377976128e+01 -2.4032732591e+00 -8.3407871872e-01 -2.4032732591e+00 4.0673498897e+01 9.4946398466e-02 -8.3407871872e-01 9.4946398466e-02 3.7833652185e+01" charge=0 multiplicity=1 method=wB97M-V basis=def2-svpd config_type=h2so4 sample_index=173 temperature=300.0 units=atomic
S        -0.0079630748      -0.0319289807       0.1428458086   3.731211403204e-03  -1.054018886641e-02   5.400482844002e-02
O        -0.0071745192       1.2697794275       0.7918740954  -2.790868795687e-03  -7.096038010623e-03   4.427962514871e-03
O         0.0288802979      -1.2974356265       0.9043276551  -6.826909924823e-03   3.188198914526e-02  -3.034080659503e-02
O         1.2052754709       0.0852935979      -0.8308713031   5.493827868477e-02  -6.456405542539e-02  -6.905699072998e-02
O        -1.2119138859      -0.0052833242      -0.8797358505  -3.177037277080e-02   2.870788355964e-02  -1.506335685858e-02
H         1.4818653287      -0.7922998084      -1.4385762993  -2.727954418447e-02   6.256756988480e-02   5.167216950484e-02
H        -1.4701703765       0.9788437993      -0.9881950112   9.997588571242e-03  -4.101337028475e-02   4.313600474875e-03
7
Properties=species:S:1:pos:R:3:forces:R:3 energy=-6.997764473220e+02 dipole="-3.6270859004e-01 -1.3627455224e-01 -1.1763452379e+00" quadrupole="-2.5500107957e+01 -3.5527181646e+00 1.1713391797e-02 -3.5527181646e+00 -2.7714324180e+01 2.8607834439e-01 1.1713391797e-02 2.8607834439e-01 -2.6701637038e+01" polarizability="3.6945429771e+01 -1.1496205574e+00 -8.8605805584e-01 -1.1496205574e+00 3.8434488570e+01 1.8359022774e+00 -8.8605805584e-01 1.8359022774e+00 3.7462019289e+01" charge=0 multiplicity=1 method=wB97M-V basis=def2-svpd config_type=h2so4 sample_index=174 temperature=300.0 units=atomic
S        -0.0307634443      -0.0053261992       0.1552546710   5.502336750729e-02   1.228508046519e-01  -2.683304845259e-02
O        -0.0033303494       1.2775619968       0.9143369492  -8.481076704026e-03  -3.592495456111e-02  -4.174774308545e-02
O         0.0038663695      -1.1932807767       0.8263281539   2.947874369452e-03  -1.182649335081e-01   6.246863027657e-02
O         1.2986509420       0.0305268715      -0.9040172465  -3.403765158318e-02  -2.720841873654e-02   8.004163490286e-03
O        -1.2285923459      -0.1041544551      -0.8867410554  -8.963562533495e-03   5.155481735571e-02   1.344768387105e-03
H         1.2739182221      -0.8917259397      -1.3171096968   5.213680483273e-03   3.087003915911e-02   1.164757508437e-02
H        -1.4163730282       0.8806525221      -0.9267350471  -1.173951805106e-02  -2.382488324131e-02  -1.495629949916e-02
7
Properties=species:S:1:pos:R:3:forces:R:3 energy=-6.997610195571e+02 dipole="1.4289796839e-01 -2.2918298952e-01 -9.4786169196e-01" quadrupole="-2.1890747999e+01 -4.9185266530e+00 1.7722520501e-01 -4.9185266530e+00 -2.7746444228e+01 -6.6266614133e-01 1.7722520501e-01 -6.6266614133e-01 -2.9386171112e+01" polarizability="3.9482570091e+01 -3.7101572001e+00 -6.3431033814e-01 -3.7101572001e+00 3.9805805688e+01 1.8980624512e-01 -6.3431033814e-01 1.8980624512e-01 3.7003386259e+01" charge=0 multiplicity=1 method=wB97M-V basis=def2-svpd config_type=h2so4 sample_index=175 temperature=300.0 units=atomic
S         0.0123453045      -0.0426504002       0.1057923266  -1.161581022564e-02   1.272156198304e-01   2.724299450504e-02
O        -0.0833624563       1.2449232650       0.8857091096   1.193494466896e-02  -3.460224530282e-02  -3.726261188160e-02
O         0.0268203147      -1.2007715951       0.8923616716   8.621041238490e-03  -7.249092938502e-02   1.757845773531e-02
O         1.2708400605       0.0241071648      -0.9237874533   2.480285038017e-02  -8.062707377578e-02   3.102225684969e-02
O        -1.2486535280       0.0089527379      -0.8616405942  -3.123719906652e-02   7.032917425134e-02  -2.601240392645e-03
H         1.7896299124      -0.9123690940      -0.6600816802  -3.205218879350e-02   6.922284956422e-02  -2.461883262310e-02
H        -1.6361499355       1.0423908001      -0.7128348171   2.955438023102e-02  -7.898023089272e-02  -1.135605711368e-02
7
Properties=species:S:1:pos:R:3:forces:R:3 energy=-6.997916980385e+02 dipole="-2.3772546165e-01 -2.1926028728e-01 -1.1561890749e+00" quadrupole="-2.3346811395e+01 -4.1917209307e+00 3.8933584275e-01 -4.1917209307e+00 -2.8456041261e+01 -2.3618135898e-01 3.8933584275e-01 -2.3618135898e-01 -2.6693566073e+01" polarizability="3.7326106908e+01 -8.7459397230e-01 -1.7723249459e-01 -8.7459397230e-01 3.8802011131e+01 5.0749426595e-01 -1.7723249459e-01 5.0749426595e-01 3.6804829747e+01" charge=0 multiplicity=1 method=wB97M-V basis=def2-svpd config_type=h2so4 sample_index=176 temperature=300.0 units=atomic
S        -0.0253805122      -0.0243703597       0.1657239469   2.901038155704e-02   1.024263564984e-01  -1.837908742476e-02
O         0.0401259489       1.2915036807       0.8475788029  -1.317040919344e-02  -4.085496643808e-02  -1.946552453494e-02
O        -0.0054398809      -1.2589413563       0.8414950222  -1.807674774694e-03  -4.314983745623e-02   1.688749042404e-02
O         1.2662651071       0.0851071237      -0.8785963182  -1.874996184013e-02  -1.179809436550e-02   1.320270741435e-02
O        -1.2443967612      -0.0638604962      -0.8830098949   1.613578808077e-02  -5.281587471425e-02   1.397005841928e-02
H         1.5535514124      -0.8155254572      -1.1053348423  -6.153100846600e-04   1.279119097739e-03  -5.568825580977e-04
H        -1.6493840079       0.7328626855      -1.1357132499  -1.083906341457e-02   4.499805646017e-02  -5.699766529454e-03
7
Properties=species:S:1:pos:R:3:forces:R:3 energy=-6.997905600466e+02 dipole="-3.4760985742e-01 -3.4671195738e-02 -9.4665194293e-01" quadrupole="-2.3738360476e+01 -4.1410326828e+00 7.8850648154e-01 -4.1410326828e+00 -2.8075499752e+01 -2.8244420214e-01 7.8850648154e-01 -2.8244420214e-01 -2.7292206775e+01" polarizability="3.7820451761e+01 -1.5967120883e+00 -3.3863439018e-01 -1.5967120883e+00 3.9055932251e+01 1.0490682648e+00 -3.3863439018e-01 1.0490682648e+00 3.6213439425e+01" charge=0 multiplicity=1 method=wB97M-V basis=def2-svpd config_type=h2so4 sample_index=177 temperature=300.0 units=atomic
S        -0.0226819601       0.0135247343       0.1678909005   3.354539262654e-02   6.966677523355e-02  -2.275034711418e-02
O        -0.0191043394       1.3175220326       0.8733537743  -2.480925648122e-03  -4.226460511727e-02  -2.698188742170e-02
O         0.0225440786      -1.2588282272       0.7675197974  -1.075297957279e-03  -4.528170424071e-02   3.338877952625e-02
O         1.3059078433      -0.0016219691      -0.8842131785  -4.208946710042e-02   5.798004946968e-02   2.424995915261e-02
O        -1.2548316647      -0.0778302064      -0.8500070835  -6.387465188391e-03   1.157488097637e-02  -4.127890585515e-03
H         1.5114429094      -0.9015086349      -0.9641659177   1.295468989395e-02  -4.835483930749e-02  -5.646198159324e-03
H        -1.6566313754       0.7938084197      -1.0286212148   5.527051872171e-03  -3.332498628155e-03   1.816724762659e-03
7
Properties=species:S:1:pos:R:3:forces:R:3 energy=-6.997807545026e+02 dipole="-4.9847970475e-02 1.7843492465e-01 -1.7493760720e+00" quadrupole="-2.4601787539e+01 -3.7643005892e+00 7.9822737322e-01 -3.7643005892e+00 -2.8588964485e+01 -6.4285108066e-02 7.9822737322e-01 -6.4285108066e-02 -2.4827953231e+01" polarizability="3.7267411234e+01 -1.6688615681e+00 2.0442204752e+00 -1.6688615681e+00 3.9241599830e+01 -5.9372444247e-01 2.0442204752e+00 -5.9372444247e-01 3.8661970554e+01" charge=0 multiplicity=1 method=wB97M-V basis=def2-svpd config_type=h2so4 sample_index=178 temperature=300.0 units=atomic
S         0.0098250792       0.0423059665       0.1286305526  -3.256796519286e-02  -6.007133191321e-02   3.827034886965e-02
O         0.0227750635       1.2409669674       0.8972225336  -2.219905117794e-03   2.847916050996e-02  -3.585453916457e-03
O         0.0122840835      -1.2517059844       0.8304138178  -4.253029840911e-03   2.053740596578e-02  -1.771586225750e-02
O         1.2422303614       0.0325485896      -0.8258314070   2.103879105135e-02  -7.945292948062e-04  -3.154309384620e-02
O        -1.2820376926      -0.0988539483      -0.8700438988  -1.171712558749e-02   5.913829063676e-02  -4.198177057563e-02
H         1.3247981465      -0.8697316098      -1.2049282256   1.385414884734e-03   8.959785420719e-03   4.154063797210e-03
H        -1.5592047656       0.7458018032      -1.5061019644   2.839988194288e-02  -5.621034094051e-02   5.234266704421e-02
7
Properties=species:S:1:pos:R:3:forces:R:3 energy=-6.997914869349e+02 dipole="-3.4225550450e-02 7.9690899870e-02 -1.1768274239e+00" quadrupole="-2.4234366261e+01 -3.9822813882e+00 2.3430120327e-01 -3.9822813882e+00 -2.8319688285e+01 -3.8532027266e-01 2.3430120327e-01 -3.8532027266e-01 -2.6079274787e+01" polarizability="3.5948723877e+01 -1.4732871439e+00 -7.6320181466e-02 -1.4732871439e+00 3.9948503954e+01 -1.0722687600e+00 -7.6320181466e-02 -1.0722687600e+00 3.6309608177e+01" charge=0 multiplicity=1 method=wB97M-V basis=def2-svpd config_type=h2so4 sample_index=179 temperature=300.0 units=atomic
S        -0.0375208850      -0.0029520418       0.1899544870   4.557069283509e-02  -5.018500118248e-02  -2.028516450474e-02
O         0.0332286170       1.2799802291       0.7881006362  -1.103926415048e-02   2.807409837260e-02   2.947244960921e-02
O         0.0212653364      -1.3204111303       0.8368401836  -8.633279126767e-03   3.262855514089e-02  -8.427309036874e-03
O         1.2027850555       0.0869724119      -0.8745101422   1.642883636259e-02  -2.561171620201e-02  -1.403739258389e-03
O        -1.2027173984      -0.0448735402      -0.8639669695  -3.231767222774e-02   3.229566912107e-02  -2.551818524124e-02
H         1.6257981900      -0.7975144833      -1.0516733596  -1.489260247397e-02   2.035264663065e-02   6.596198319147e-03
H        -1.3088955809       0.8744012014      -1.2990056779   4.873264576020e-03  -3.754615045218e-02   1.954709200363e-02
7
Properties=species:S:1:pos:R:3:forces:R:3 energy=-6.997592151627e+02 dipole="-2.1307179453e-02 1.2622041876e-01 -1.6577057110e+00" quadrupole="-2.6200812274e+01 -3.3748305564e+00 -8.0515720651e-01 -3.3748305564e+00 -2.8242101996e+01 5.5144245275e-01 -8.0515720651e-01 5.5144245275e-01 -2.4433051900e+01" polarizability="3.7368498500e+01 -1.8401684760e+00 -1.7876789162e+00 -1.8401684760e+00 4.1951676643e+01 5.9097149274e-01 -1.7876789162e+00 5.9097149274e-01 4.1211028897e+01" charge=0 multiplicity=1 method=wB97M-V basis=def2-svpd config_type=h2so4 sample_index=180 temperature=300.0 units=atomic
S        -0.0078620038      -0.0002377745       0.1675350625   2.362175708179e-02  -4.845204186047e-02   1.232324342145e-02
O        -0.0312356309       1.2734460547       0.8554724401   6.071614551732e-03  -2.702817277356e-03  -7.377249343941e-03
O        -0.0090409579      -1.2838437242       0.8910758512   1.866162098517e-03   3.195822253081e-02  -1.997463236389e-02
O         1.2599484892       0.0621313269      -0.9067394213  -4.139501562399e-04  -5.944467115715e-02  -4.766976743803e-02
O        -1.2125129011      -0.0629807400      -0.8732862319  -5.213551053217e-03   8.455532600212e-02  -2.854699226304e-02
H         1.3318069419      -0.7989203007      -1.6795704591  -1.480117317768e-02   6.992147909293e-02   7.440156791209e-02
H        -1.1945873779       0.9863285844      -1.2051854772  -1.110400099975e-02  -7.585685928849e-02   1.672943378470e-02
7
Properties=species:S:1:pos:R:3:forces:R:3 energy=-6.997393929688e+02 dipole="-2.1533039201e-01 8.6451596560e-02 -1.8513347339e+00" quadrupole="-2.6974711020e+01 -2.8786069946e+00 7.9668759560e-01 -2.8786069946e+00 -2.9046465210e+01 -2.2718090627e-01 7.9668759560e-01 -2.2718090627e-01 -2.3008951453e+01" polarizability="3.8091102982e+01 -1.1075887915e+00 2.2976773314e-01 -1.1075887915e+00 4.2165528502e+01 -3.2592486787e-01 2.2976773314e-01 -3.2592486787e-01 4.2060540712e+01" charge=0 multiplicity=1 method=wB97M-V basis=def2-svpd config_type=h2so4 sample_index=181 temperature=300.0 units=atomic
S         0.0057587368       0.0007571670       0.1639411174   9.308412360883e-03   1.345361055298e-02   8.489725056591e-03
O         0.0041018340       1.2898435115       0.8332278999   1.431873289703e-03  -1.191272158470e-02  -1.352047168446e-03
O        -0.0449287963      -1.2829857991       0.8268087024   7.706741898408e-03   4.758235127081e-03   2.331372410971e-03
O         1.3086051603       0.0892308767      -0.8519761297  -5.123064609299e-02  -7.949582562166e-02  -6.490115092055e-02
O        -1.2610944099      -0.1038231625      -0.8172867686  -4.886895705820e-03   8.383119084306e-02  -7.980065873524e-02
H         1.0160401553      -0.7462091816      -1.6400797357   3.338084003507e-02   7.020759641059e-02   6.721791660739e-02
H        -1.3035539120       0.8426848898      -1.5414227664   4.335564441697e-03  -8.085546716521e-02   6.802567879034e-02
7
Properties=species:S:1:pos:R:3:forces:R:3 energy=-6.997803565051e+02 dipole="2.6433470148e-01 -3.4241386456e-02 -9.4084205710e-01" quadrupole="-2.2202224805e+01 -4.6437994939e+00 -2.9616630331e-01 -4.6437994939e+00 -2.8495938089e+01 -5.6201036054e-01 -2.9616630331e-01 -5.6201036054e-01 -2.7083225371e+01" polarizability="3.8689800544e+01 -1.7088885153e+00 3.7692532017e-01 -1.7088885153e+00 3.9515788419e+01 -5.2158873217e-01 3.7692532017e-01 -5.2158873217e-01 3.4632698123e+01" charge=0 multiplicity=1 method=wB97M-V basis=def2-svpd config_type=h2so4 sample_index=182 temperature=300.0 units=atomic
S        -0.0059233059      -0.0309343717       0.1657486233  -4.357172332745e-03   4.645373776268e-02  -3.988906644297e-02
O         0.0612705603       1.2883551667       0.7275163919  -1.997457702220e-02   1.193926277607e-02   2.835879223067e-02
O        -0.0202955052      -1.2918191845       0.7817984018   3.193502436053e-03  -4.696828224548e-02   3.298323911057e-02
O         1.2578676337       0.1151902966      -0.7870691154   4.520447237057e-02  -4.207923349688e-02  -3.060509528449e-02
O        -1.3090101669      -0.0662709197      -0.8192073552  -6.251265656871e-04   6.229935154281e-02  -8.241425545185e-03
H         1.8998891013      -0.6753141551      -0.8951284709  -3.789231900654e-02   2.857596018679e-02   7.237759429395e-03
H        -1.5541248793       0.9435161307      -1.0101678768   1.440766510411e-02  -6.019001704175e-02   1.016516215921e-02
7
Properties=species:S:1:pos:R:3:forces:R:3 energy=-6.997829500343e+02 dipole="3.6415931231e-01 7.1404665319e-02 -9.4405482493e-01" quadrupole="-2.3505774887e+01 -4.4268749160e+00 -9.4316624103e-01 -4.4268749160e+00 -2.7599543282e+01 5.4257018463e-01 -9.4316624103e-01 5.4257018463e-01 -2.8021691334e+01" polarizability="4.0132704259e+01 -1.8195361240e+00 9.9688480899e-01 -1.8195361240e+00 3.8123447343e+01 1.5186527405e-01 9.9688480899e-01 1.5186527405e-01 3.8207544273e+01" charge=0 multiplicity=1 method=wB97M-V basis=def2-svpd config_type=h2so4 sample_index=183 temperature=300.0 units=atomic
S         0.0516481804       0.0164705992       0.1435463402  -5.285393992874e-02  -4.994533530253e-02  -2.793468538525e-02
O        -0.0383814841       1.2111984273       0.8935270063   6.276979452825e-03   4.985029288871e-02   2.274087178074e-03
O        -0.0014176056      -1.2162036044       0.8836254036   1.042974379811e-02  -1.748999977259e-02  -9.110333970327e-03
O         1.2900131658       0.0273036183      -0.8900607667  -8.713880984647e-03   1.023038139323e-02   5.615343309545e-03
O        -1.3492112327      -0.0567727598      -0.9353911635   4.279186485572e-02   3.936015664594e-02   3.385539854022e-02
H         1.6114605113      -0.8729835679      -1.0523143814  -2.907174234633e-03  -3.259757224317e-03   1.718428784645e-03
H        -1.6708000016       0.8935725055      -0.8644096769   4.987892975863e-03  -2.877717856004e-02  -6.479681370129e-03
7
Properties=species:S:1:pos:R:3:forces:R:3 energy=-6.997986676588e+02 dipole="1.3484201578e-01 8.2482371694e-02 -1.1930674961e+00" quadrupole="-2.3351970833e+01 -4.1575080841e+00 -1.4657833997e-02 -4.1575080841e+00 -2.8325816779e+01 -2.4114454054e-01 -1.4657833997e-02 -2.4114454054e-01 -2.6869977787e+01" polarizability="3.5463813717e+01 -1.3992146622e+00 5.3853906443e-01 -1.3992146622e+00 3.8540716141e+01 -1.8152479922e-01 5.3853906443e-01 -1.8152479922e-01 3.5475441574e+01" charge=0 multiplicity=1 method=wB97M-V basis=def2-svpd config_type=h2so4 sample_index=184 temperature=300.0 units=atomic
S        -0.0024694751       0.0091614955       0.1600129506  -8.026790122053e-03  -2.642686031094e-02   1.183971901303e-02
O         0.0157744843       1.2719176138       0.8391530847  -6.600413402174e-03   1.068793977232e-02   3.881224027841e-03
O         0.0124176218      -1.2767576804       0.8256415150  -7.732793327376e-04   5.188233547141e-03   7.981368691805e-04
O         1.1904080065       0.0497906312      -0.8560403994   2.581704203057e-02   1.295632477891e-02  -1.811905412829e-02
O        -1.2237779004      -0.0667350197      -0.8766346441  -1.214988014003e-02   2.298607201410e-02  -3.050701182417e-03
H         1.6187169568      -0.8004629207      -0.9867667323  -5.799399636666e-04  -8.969836488951e-03   1.126852795241e-03
H        -1.4587543646       0.8574051287      -1.1409982799   2.287915930683e-03  -1.643759877502e-02   3.418813994885e-03
7
Properties=species:S:1:pos:R:3:forces:R:3 energy=-6.997694555585e+02 dipole="-1.4213505080e-01 1.4397098943e-01 -1.1429126973e+00" quadrupole="-2.5085835740e+01 -3.9648802558e+00 1.7993510500e-01 -3.9648802558e+00 -2.7528962935e+01 6.3035071653e-01 1.7993510500e-01 6.3035071653e-01 -2.7401825169e+01" polarizability="3.7242617659e+01 -2.4822889189e+00 -9.6232660976e-02 -2.4822889189e+00 4.2297122920e+01 1.9409207160e-01 -9.6232660976e-02 1.9409207160e-01 3.8092195965e+01" charge=0 multiplicity=1 method=wB97M-V basis=def2-svpd config_type=h2so4 sample_index=185 temperature=300.0 units=atomic
S        -0.0109750263       0.0374940749       0.1664587266   1.894209819482e-02  -9.773668571614e-02   1.154653857192e-02
O        -0.0389503941       1.2850624097       0.8644005077  -1.523364568086e-03   1.425943957793e-02   3.929994125953e-03
O         0.0675953568      -1.3304135227       0.8619236498  -1.232708187764e-02   7.434937062303e-02  -3.584655765980e-02
O         1.2288626978       0.0164370568      -0.8925341232   4.336505233375e-04  -9.025330113228e-02  -1.734835326625e-03
O        -1.2254943277      -0.0314926433      -0.9142975347   2.711834805934e-03  -1.204324921069e-03   1.597592522058e-02
H         1.3092618521      -1.1219000085      -1.0513977212  -1.819522730262e-03   9.460100872870e-02   1.093818926745e-02
H        -1.4697807166       0.8894538125      -1.0653795850  -6.449030169936e-03   5.910110771149e-03  -4.891416083087e-03
7
Properties=species:S:1:pos:R:3:forces:R:3 energy=-6.997917725263e+02 dipole="3.6271919503e-01 -3.7240186888e-02 -9.8945854064e-01" quadrupole="-2.4149629603e+01 -4.0640108077e+00 -8.6372791667e-01 -4.0640108077e+00 -2.7650014021e+01 3.3748225278e-01 -8.6372791667e-01 3.3748225278e-01 -2.6999928506e+01" polarizability="3.6201613158e+01 -2.3338769396e+00 -1.2729574194e-01 -2.3338769396e+00 3.8674164771e+01 2.9558453325e-01 -1.2729574194e-01 2.9558453325e-01 3.4954172774e+01" charge=0 multiplicity=1 method=wB97M-V basis=def2-svpd config_type=h2so4 sample_index=186 temperature=300.0 units=atomic
S         0.0194446014      -0.0020715920       0.1726573353  -2.600017475493e-02  -2.346557801641e-02  -3.000908467907e-02
O        -0.0613478829       1.2758051531       0.7937794183   8.767973461269e-03   2.466799782045e-02   1.883079078328e-02
O         0.0441219108      -1.2782121627       0.8062701835  -1.913200970746e-03  -1.950970530500e-02   2.047507716522e-02
O         1.2227563351       0.0166528397      -0.8434246303   4.170223259840e-02  -2.993797567174e-02  -2.652259244070e-02
O        -1.2597266416      -0.0117959037      -0.8575597102   1.629316104130e-02  -2.314428248405e-03   1.103355612132e-02
H         1.6152184033      -0.9129753483      -1.0667838882  -2.534445677711e-02   4.369791002196e-02   1.579195120604e-02
H        -1.3690509840       0.9408458823      -0.9488006615  -1.350963295300e-02   6.912865002034e-03  -9.688411715573e-03
7
Properties=species:S:1:pos:R:3:forces:R:3 energy=-6.997976591795e+02 dipole="-1.5397275226e-01 -7.8416551586e-02 -8.8722303355e-01" quadrupole="-2.2812725187e+01 -4.4038991667e+00 -8.9453763943e-02 -4.4038991667e+00 -2.8258613718e+01 1.1920086517e-02 -8.9453763943e-02 1.1920086517e-02 -2.7445864009e+01" polarizability="3.7127860032e+01 -2.0731448215e+00 -5.4831515538e-02 -2.0731448215e+00 3.9501349262e+01 9.4608911804e-02 -5.4831515538e-02 9.4608911804e-02 3.5017321084e+01" charge=0 multiplicity=1 method=wB97M-V basis=def2-svpd config_type=h2so4 sample_index=187 temperature=300.0 units=atomic
S        -0.0221121314      -0.0155151820       0.1744559616   2.694264648162e-02   3.915378304658e-02  -2.265959565145e-02
O        -0.0152621657       1.3124842809       0.7823826467  -3.984653244592e-03  -2.246814939454e-02   3.953860725376e-03
O         0.0495830391      -1.3001893370       0.7961386022  -8.947281125344e-03  -1.290011726629e-02   1.668775965000e-02
O         1.2578730560       0.0313587940      -0.8380018971  -7.835225868599e-03   1.014878763978e-02   4.020933667803e-04
O        -1.2473789392      -0.0147714499      -0.8550766957  -1.039544595572e-02  -7.067537381453e-04  -2.932738608788e-03
H         1.6496390063      -0.8384236356      -0.9819727090  -3.352252826656e-03  -5.762633336500e-03   2.595013789636e-03
H        -1.6620065629       0.8723840496      -0.8921255902   7.568823784128e-03  -7.423637638228e-03   1.928529101747e-03
7
Properties=species:S:1:pos:R:3:forces:R:3 energy=-6.997870908648e+02 dipole="1.2094633476e-01 -2.1729659162e-01 -7.2543560000e-01" quadrupole="-2.3429789853e+01 -4.0552052672e+00 -9.1182420387e-01 -4.0552052672e+00 -2.8535911894e+01 6.6228670892e-01 -9.1182420387e-01 6.6228670892e-01 -2.8453254562e+01" polarizability="3.7620663417e+01 -2.1762433632e+00 -4.6987248782e-01 -2.1762433632e+00 4.1651142260e+01 5.4898022688e-02 -4.6987248782e-01 5.4898022688e-02 3.5647114020e+01" charge=0 multiplicity=1 method=wB97M-V basis=def2-svpd config_type=h2so4 sample_index=188 temperature=300.0 units=atomic
S         0.0173841179      -0.0264412865       0.1610543591  -1.434186974669e-02   2.903335726424e-02   2.028513733267e-02
O        -0.0651821735       1.3504936562       0.7722030462   8.307883196057e-03  -5.917612104473e-02  -8.508763048821e-03
O         0.0259278254      -1.3477063177       0.8266281440   5.208736687250e-03   3.972876589937e-02  -1.291770929305e-02
O         1.2575373704       0.0433231150      -0.8560830633   6.970095478401e-03  -4.099499922165e-02   5.376661521984e-03
O        -1.2500785991       0.0101909087      -0.8590720224   7.040109690298e-03   4.691717698061e-03   1.476786927530e-02
H         1.5563130512      -0.9178515763      -0.8969392049  -1.691642367914e-03   2.899997359293e-02  -4.840817043965e-03
H        -1.6009279535       0.8621343184      -0.5288276928  -1.150602272624e-02  -2.172270721810e-03  -1.417502323721e-02
7
Properties=species:S:1:pos:R:3:forces:R:3 energy=-6.997840019250e+02 dipole="-3.9793807012e-01 -5.6772551396e-02 -1.4555746415e+00" quadrupole="-2.5174513834e+01 -3.1483897620e+00 1.4344135157e+00 -3.1483897620e+00 -2.8914742841e+01 -2.9829750446e-01 1.4344135157e+00 -2.9829750446e-01 -2.4933833811e+01" polarizability="3.5739576537e+01 -7.3557562691e-01 6.1298223925e-01 -7.3557562691e-01 3.9496122198e+01 -6.6257447626e-01 6.1298223925e-01 -6.6257447626e-01 3.6748448972e+01" charge=0 multiplicity=1 method=wB97M-V basis=def2-svpd config_type=h2so4 sample_index=189 temperature=300.0 units=atomic
S        -0.0291141149      -0.0026608448       0.1715757061   3.038868815875e-02   2.103389573753e-02   1.715922792362e-02
O         0.0335064647       1.2949676166       0.8168870884  -1.198098464483e-02  -1.399881515082e-02   7.876988220875e-03
O         0.0250687518      -1.3196271890       0.8374885403  -1.054839230520e-02   3.788958314010e-02  -2.029326200586e-02
O         1.2399095671       0.0827484793      -0.8534839193  -1.633510879393e-02   7.919368793627e-03   1.540391141719e-02
O        -1.2212811762      -0.0415213368      -0.8623164721  -2.167476095845e-02  -3.828964225348e-02   2.798385094327e-03
H         1.1921304788      -0.8174578498      -1.1222399471   1.971758312246e-02  -3.336230729370e-02  -2.504739522168e-02
H        -1.5006290396       0.6408319646      -1.4724261756   1.038400523887e-02   1.882241637452e-02   2.100859371883e-03
7
Properties=species:S:1:pos:R:3:forces:R:3 energy=-6.997625817426e+02 dipole="4.8617561584e-01 -2.0178049703e-01 -9.5247184023e-01" quadrupole="-2.1758432658e+01 -4.5792577978e+00 1.2015909263e+00 -4.5792577978e+00 -2.8345684958e+01 -1.6072627253e+00 1.2015909263e+00 -1.6072627253e+00 -2.7907578272e+01" polarizability="3.9384981749e+01 -2.6674042715e+00 9.3809555047e-01 -2.6674042715e+00 3.8161267183e+01 -4.8227473377e-01 9.3809555047e-01 -4.8227473377e-01 3.5845718005e+01" charge=0 multiplicity=1 method=wB97M-V basis=def2-svpd config_type=h2so4 sample_index=190 temperature=300.0 units=atomic
S         0.0322299441      -0.0339360358       0.1315687982  -5.432132032134e-02   1.449670674182e-01  -3.037957215844e-02
O        -0.0178387914       1.2383723469       0.8412080576   5.109636399467e-03  -4.785667089131e-03  -4.742334333146e-03
O        -0.0108964913      -1.2134080166       0.8314021986   6.894239758420e-03  -1.094825492302e-01   4.659626029782e-02
O         1.2428928391       0.0659790876      -0.8790672833   6.710224831318e-02  -8.757915927184e-02   2.503820889204e-02
O        -1.2992412149      -0.0272890949      -0.8359306132   9.198917624811e-03   3.846958872889e-03  -9.796393982617e-03
H         1.9075374412      -0.7900196252      -0.4754766345  -4.929121045412e-02   7.105119141236e-02  -4.106107974387e-02
H        -1.5812928643       0.8637227472      -1.1779422073   1.535125919140e-02  -1.805216056173e-02   1.427726552521e-02
7
Properties=species:S:1:pos:R:3:forces:R:3 energy=-6.997657584208e+02 dipole="3.6567438556e-01 8.8192357794e-02 -9.3017116681e-01" quadrupole="-2.3514349061e+01 -4.1918310660e+00 3.0592096789e-01 -4.1918310660e+00 -2.7657991183e+01 -3.3148997036e-01 3.0592096789e-01 -3.3148997036e-01 -2.7543567792e+01" polarizability="3.8231132023e+01 -2.8242782845e+00 -3.2383558585e-01 -2.8242782845e+00 3.8300773935e+01 -1.0653646593e+00 -3.2383558585e-01 -1.0653646593e+00 3.5985977991e+01" charge=0 multiplicity=1 method=wB97M-V basis=def2-svpd config_type=h2so4 sample_index=191 temperature=300.0 units=atomic
S         0.0044441513       0.0080268964       0.1577291574   6.791223018443e-05  -1.309399683247e-01  -5.408426879762e-02
O        -0.0643789166       1.2058070501       0.8080052155   3.725415804067e-03   1.190455767303e-01   6.542511207453e-02
O         0.0561655509      -1.2801623459       0.8734251710  -5.027841211220e-03   2.718922040435e-02  -2.457142661909e-02
O         1.2570571114       0.0342141628      -0.9001453056   3.150503849674e-02  -7.885419511406e-02   2.206882621300e-02
O        -1.2844027080       0.0296698661      -0.8585261557   2.486283031361e-02  -1.019692820542e-01   3.560468491782e-02
H         1.7937494882      -0.9427650267      -0.7432240970  -4.451013449881e-02   7.822937069092e-02  -1.356007353787e-02
H        -1.3747481296       0.8666045958      -1.1679454510  -1.064728003872e-02   8.733368518668e-02  -3.096167962901e-02
7
Properties=species:S:1:pos:R:3:forces:R:3 energy=-6.997680685178e+02 dipole="-4.5585457679e-01 -3.5197854863e-02 -9.2104563752e-01" quadrupole="-2.1019522112e+01 -5.1058763809e+00 -7.2796137142e-02 -5.1058763809e+00 -2.8879058673e+01 2.1245123964e-01 -7.2796137142e-02 2.1245123964e-01 -2.8162814077e+01" polarizability="4.0877685679e+01 -3.0288416961e+00 -4.8102676790e-02 -3.0288416961e+00 4.3079476152e+01 1.0824787671e-01 -4.8102676790e-02 1.0824787671e-01 3.6798684028e+01" charge=0 multiplicity=1 method=wB97M-V basis=def2-svpd config_type=h2so4 sample_index=192 temperature=300.0 units=atomic
S        -0.0542082189      -0.0131046309       0.1667222157   6.932281509851e-02   1.947115697636e-02   1.670007553836e-02
O         0.0501444731       1.3435895332       0.7899670248  -2.319974204489e-02  -5.245683702979e-02  -1.014433986241e-02
O         0.0377188089      -1.3368717962       0.8124817662  -1.300592637233e-02   3.521996216216e-02  -6.544803568080e-03
O         1.2646472362       0.0640307764      -0.8325647167   1.344994328106e-02  -4.671484418513e-02  -6.693228616765e-03
O        -1.2371207755      -0.0463704865      -0.8777806021  -6.720093929043e-02   6.968977089793e-02   6.819987051898e-04
H         1.7656124196      -0.8425569239      -0.9637723193  -3.566288240699e-02   4.623331072729e-02   1.182747050422e-02
H        -1.8830845766       0.8709718732      -0.7817572450   5.629464331426e-02  -7.136735869579e-02  -5.830357518895e-03
7
Properties=species:S:1:pos:R:3:forces:R:3 energy=-6.997758206483e+02 dipole="3.9324444159e-01 -1.5389812844e-01 -1.6620266938e+00" quadrupole="-2.5800103806e+01 -3.3723860986e+00 -3.8221118542e-01 -3.3723860986e+00 -2.9063461966e+01 -3.1464707686e-01 -3.8221118542e-01 -3.1464707686e-01 -2.4125390619e+01" polarizability="3.7159180650e+01 -6.4662580911e-01 3.0605293480e-01 -6.4662580911e-01 4.1391122662e+01 -5.4350395793e-01 3.0605293480e-01 -5.4350395793e-01 3.9822472977e+01" charge=0 multiplicity=1 method=wB97M-V basis=def2-svpd config_type=h2so4 sample_index=193 temperature=300.0 units=atomic
S         0.0289277473      -0.0119542852       0.1715420182  -4.361072109073e-02   3.373716432514e-02   1.509562875500e-02
O         0.0316068478       1.3072271571       0.8411967055   7.916432861868e-04  -4.136965606104e-02  -1.446215478829e-02
O        -0.0602530051      -1.2982652777       0.8343559707   1.448068925451e-02   1.004135483070e-02  -5.508995200305e-04
O         1.2224628832       0.1175536558      -0.8671125443   2.538135594762e-02  -4.552245668092e-02  -2.805861659966e-02
O        -1.2693852635      -0.0992172403      -0.8498585767   2.461393247703e-02   7.045382325129e-02  -5.632495346624e-02
H         1.4432163203      -0.7844673933      -1.3065983729  -1.116635990121e-02   3.791494616877e-02   2.083887460339e-02
H        -1.1601852234       0.7333342768      -1.6023592193  -1.043065097371e-02  -6.533687139359e-02   6.348255178528e-02
7
Properties=species:S:1:pos:R:3:forces:R:3 energy=-6.997673811030e+02 dipole="-4.2598971088e-01 -4.5685066439e-02 -7.5554012842e-01" quadrupole="-2.0971232221e+01 -4.8485743849e+00 7.0495418701e-01 -4.8485743849e+00 -2.8414246380e+01 -2.9002764302e-01 7.0495418701e-01 -2.9002764302e-01 -2.9211940091e+01" polarizability="3.8806459248e+01 -3.7002798229e+00 1.3069909151e-01 -3.7002798229e+00 4.0492550487e+01 -1.1565047169e-01 1.3069909151e-01 -1.1565047169e-01 3.5346683339e+01" charge=0 multiplicity=1 method=wB97M-V basis=def2-svpd config_type=h2so4 sample_index=194 temperature=300.0 units=atomic
S        -0.0585272084      -0.0072925489       0.1404268589   8.317988204388e-02   1.572921323082e-02   3.431132834892e-02
O        -0.0041666058       1.2844922705       0.8242218385  -1.690585947421e-02  -1.473298387666e-02  -1.430826770784e-03
O         0.0979629408      -1.2817713124       0.8264507982  -2.034440047040e-02   3.804058197662e-03   1.395042714050e-03
O         1.2294053064       0.0113732458      -0.8567464559   3.808969843649e-02  -8.217849368364e-02   2.008228922909e-02
O        -1.2049826696       0.0055954353      -0.8777771317  -7.638210166609e-02   4.779722889172e-02  -1.609928908989e-02
H         1.7619802374      -0.9536967206      -0.5670937375  -4.295047446498e-02   8.099835598506e-02  -2.703984647297e-02
H        -1.7893920126       0.8740236062      -0.7076216249   3.532086193760e-02  -5.146156950327e-02  -1.129913870530e-02
7
Properties=species:S:1:pos:R:3:forces:R:3 energy=-6.997880790990e+02 dipole="-3.9287046832e-01 3.7645877365e-02 -1.3019410481e+00" quadrupole="-2.3044544000e+01 -4.4131995152e+00 -1.3057663288e-01 -4.4131995152e+00 -2.8363033852e+01 3.8611251599e-01 -1.3057663288e-01 3.8611251599e-01 -2.6521764074e+01" polarizability="3.8826964404e+01 -2.7067387975e+00 -1.5582151512e-01 -2.7067387975e+00 4.0714996491e+01 4.1312699650e-01 -1.5582151512e-01 4.1312699650e-01 3.7860340636e+01" charge=0 multiplicity=1 method=wB97M-V basis=def2-svpd config_type=h2so4 sample_index=195 temperature=300.0 units=atomic
S        -0.0367283765       0.0015039360       0.1540586325   4.598626832474e-02   1.078326450592e-03   1.395003280159e-02
O        -0.0181018696       1.2994686258       0.8523914830  -2.969672252150e-03  -3.223210142118e-02  -2.159565335119e-02
O         0.0687860218      -1.2841580459       0.8435589032  -1.827855109085e-02   1.997471702084e-02  -9.873428839976e-03
O         1.2837309673       0.0031127305      -0.8543139816  -8.045179360487e-03   3.082550599930e-03  -5.313591328633e-03
O        -1.2501046998      -0.0236239139      -0.8865066921  -2.752155304403e-02   3.067570395268e-02  -8.880348470541e-03
H         1.5585816760      -0.8479088537      -1.2981760680  -1.858376852678e-02   1.675505772101e-02   2.009171999987e-02
H        -1.7333386082       0.8787786354      -1.0146292378   2.940243674142e-02  -3.938122921569e-02   1.154741377045e-02
7
Properties=species:S:1:pos:R:3:forces:R:3 energy=-6.997780019301e+02 dipole="1.1463207760e-01 -5.2030637957e-02 -1.4706963265e+00" quadrupole="-2.5402969084e+01 -3.7562194271e+00 1.7602630604e-01 -3.7562194271e+00 -2.8037948550e+01 -5.0479633180e-01 1.7602630604e-01 -5.0479633180e-01 -2.5287359085e+01" polarizability="3.6969698845e+01 -1.2699732879e+00 2.0172715312e-03 -1.2699732879e+00 3.9118720982e+01 -1.1234139715e+00 2.0172715312e-03 -1.1234139715e+00 3.7817773287e+01" charge=0 multiplicity=1 method=wB97M-V basis=def2-svpd config_type=h2so4 sample_index=196 temperature=300.0 units=atomic
S        -0.0065768454      -0.0106312676       0.1539592999   5.565769427464e-03   6.768755610563e-03  -2.341328678359e-02
O         0.0229475021       1.2298369396       0.8288616917  -3.674160193030e-03   4.189898089286e-02   1.978410736858e-02
O        -0.0191978770      -1.2447727661       0.8513093505   4.303899067930e-03  -3.602822589194e-02   1.008608106299e-02
O         1.2647794876       0.1077506807      -0.8696858183   1.218940032466e-04  -6.043653007564e-02  -9.762883938929e-03
O        -1.2729701432      -0.0716125340      -0.8369410501   8.900758389544e-03   7.573641402242e-02  -5.591609114991e-02
H         1.4971292639      -0.8629007666      -1.1398769257  -8.281234201419e-03   4.697141048405e-02   9.755208217456e-03
H        -1.2217866194       0.8705106520      -1.4518645620  -6.961013770956e-03  -7.493873764057e-02   4.938350832321e-02
7
Properties=species:S:1:pos:R:3:forces:R:3 energy=-6.997814943755e+02 dipole="-1.9033627539e-01 -2.1834136249e-01 -1.1610332224e+00" quadrupole="-2.3800137177e+01 -4.2393813692e+00 3.9828910958e-02 -4.2393813692e+00 -2.7590516818e+01 2.1401852973e-01 3.9828910958e-02 2.1401852973e-01 -2.6866764836e+01" polarizability="3.5709528266e+01 -2.7415744689e+00 -3.6005567271e-01 -2.7415744689e+00 3.9379731205e+01 1.4552938649e+00 -3.6005567271e-01 1.4552938649e+00 3.5672089897e+01" charge=0 multiplicity=1 method=wB97M-V basis=def2-svpd config_type=h2so4 sample_index=197 temperature=300.0 units=atomic
S        -0.0104536027      -0.0098507041       0.1666465360   1.372847858340e-02   1.002166869718e-01  -1.839411435403e-02
O        -0.0477417116       1.2907289670       0.8490854180   3.318703068354e-03  -2.614431695281e-02  -1.258845572249e-02
O         0.0608835710      -1.2401007065       0.8020854410  -7.993429161573e-03  -7.928018753838e-02   4.751697996231e-02
O         1.2127757568       0.0023226339      -0.8582164966   3.034626640613e-02  -6.640491068338e-02  -2.972189150635e-02
O        -1.1937243186      -0.0229041368      -0.8723430512  -3.277754890088e-02   4.425284484229e-03  -1.460963374370e-02
H         1.4144664478      -1.0386729116      -1.1459114619  -1.530073081267e-02   7.835989605654e-02   2.298639271346e-02
H        -1.5926565662       0.8664411921      -1.0031219785   8.692129615928e-03  -1.118869407774e-02   4.724456326008e-03
7
Properties=species:S:1:pos:R:3:forces:R:3 energy=-6.997891930818e+02 dipole="1.1222383440e-01 -8.3682981001e-02 -1.2882661458e+00" quadrupole="-2.3941580074e+01 -4.1309733458e+00 -2.4054707617e-01 -4.1309733458e+00 -2.8590954847e+01 -1.6793772663e-01 -2.4054707617e-01 -1.6793772663e-01 -2.5309021330e+01" polarizability="3.6223490363e+01 -1.4097591661e+00 6.0749539408e-02 -1.4097591661e+00 3.9792489809e+01 3.2513692181e-01 6.0749539408e-02 3.2513692181e-01 3.6000149044e+01" charge=0 multiplicity=1 method=wB97M-V basis=def2-svpd config_type=h2so4 sample_index=198 temperature=300.0 units=atomic
S         0.0184760972      -0.0121007304       0.1897074351  -2.131516814342e-02   6.932289248894e-02  -3.507652914956e-02
O         0.0103922813       1.3199706979       0.7963145415   1.893177897844e-03  -2.907223498377e-02   1.951484884811e-03
O        -0.0405701136      -1.2865510653       0.7747805741   8.253220962550e-03  -4.535687348042e-02   3.900396925367e-02
O         1.2163529389       0.0733401007      -0.8404553915   3.166004587714e-02  -8.827107467459e-03  -1.957802477570e-02
O        -1.2222835340      -0.0867761293      -0.8354964351  -2.755388026555e-02   4.316908942646e-02  -2.485098733133e-02
H         1.5205435014      -0.7601926459      -1.2843339256  -1.405931910196e-02   1.341345713497e-02   1.552478997783e-02
H        -1.5305300485       0.8241939002      -1.2131785442   2.114011577761e-02  -4.265284346724e-02   2.305419402616e-02
7
Properties=species:S:1:pos:R:3:forces:R:3 energy=-6.997504547598e+02 dipole="-1.5501978503e-02 2.8413277594e-01 -6.0574646100e-01" quadrupole="-2.0803726180e+01 -4.6310479502e+00 -6.9966916830e-01 -4.6310479502e+00 -2.8216394837e+01 4.5720833561e-01 -6.9966916830e-01 4.5720833561e-01 -2.8688337413e+01" polarizability="3.7385993057e+01 -3.9248481823e+00 -3.8416154733e-01 -3.9248481823e+00 3.9750170165e+01 -3.9024872824e-01 -3.8416154733e-01 -3.9024872824e-01 3.4474542680e+01" charge=0 multiplicity=1 method=wB97M-V basis=def2-svpd config_type=h2so4 sample_index=199 temperature=300.0 units=atomic
S        -0.0126114836       0.0083929500       0.1904198161   3.283318674666e-02  -9.480123366752e-02  -3.933860419521e-02
O        -0.0592980627       1.2721423935       0.7790282336   2.558889200630e-03   6.797568151850e-02   5.208321907363e-02
O         0.0574404548      -1.2983393206       0.8172458353  -6.224106959558e-03   1.090818197419e-02   1.701835076643e-02
O         1.1549640694      -0.0143604518      -0.8846388545   3.769059708813e-02   8.888254305579e-03  -1.795418613094e-02
O        -1.1356836918       0.0044400980      -0.8826634112  -9.608819920519e-02   9.402129252329e-02   1.078906678190e-02
H         1.8293032612      -0.7253143035      -0.8807549504  -1.606114264036e-02   5.517801547399e-03   1.096859133752e-02
H        -1.7060186236       1.0362579377      -0.5760937138   4.528076179219e-02  -9.249549622771e-02  -3.354436410378e-02
7
Properties=species:S:1:pos:R:3:forces:R:3 energy=-6.997721493849e+02 dipole="1.4517238179e-01 -1.8444004079e-01 -1.2788009657e+00" quadrupole="-2.3208597005e+01 -4.8595144296e+00 3.9476027959e-01 -4.8595144296e+00 -2.7870049558e+01 -5.5385909289e-01 3.9476027959e-01 -5.5385909289e-01 -2.7170277583e+01" polarizability="3.8932550484e+01 -2.4159409379e+00 8.1969076553e-01 -2.4159409379e+00 3.9808223275e+01 3.4470128687e-02 8.1969076553e-01 3.4470128687e-02 3.6249842838e+01" charge=0 multiplicity=1 method=wB97M-V basis=def2-svpd config_type=h2so4 sample_index=200 temperature=300.0 units=atomic
S         0.0267832092      -0.0163677408       0.1174468407  -4.999603577207e-02   8.834546009512e-02   1.634226459774e-02
O         0.0056232858       1.2538964198       0.8316726841  -1.498739890154e-03  -5.984995970820e-03  -9.503317862102e-03
O        -0.0157709407      -1.2331254086       0.8195981753   7.574484107284e-03  -5.844317565620e-02   1.771889800283e-02
O         1.2843162023       0.0833541780      -0.8151268605   3.023181148619e-02  -9.422732260960e-02  -2.353856916107e-02
O        -1.3200647810      -0.0662517464      -0.8285844856  -6.219313218843e-03   5.367302639546e-02  -2.192118761522e-02
H         1.5663870450      -0.9772882188      -0.8853897148  -1.206125957785e-02   7.676432880855e-02  -2.897305245963e-03
H        -1.6863302738       0.8939880918      -1.1244349305   3.198469907363e-02  -6.012943631907e-02   2.371264404243e-02
7
Properties=species:S:1:pos:R:3:forces:R:3 energy=-6.997773049077e+02 dipole="9.5788367107e-02 -2.8472282099e-01 -1.4440630408e+00" quadrupole="-2.3412843881e+01 -4.1873850916e+00 4.2467525615e-01 -4.1873850916e+00 -2.8402207827e+01 -3.3910943946e-01 4.2467525615e-01 -3.3910943946e-01 -2.6336752745e+01" polarizability="3.4884799282e+01 -1.0792934100e+00 -4.6487892795e-01 -1.0792934100e+00 3.7622940594e+01 1.3480121451e+00 -4.6487892795e-01 1.3480121451e+00 3.5341996298e+01" charge=0 multiplicity=1 method=wB97M-V basis=def2-svpd config_type=h2so4 sample_index=201 temperature=300.0 units=atomic
S         0.0184381041      -0.0070470094       0.1363922116  -7.381029212737e-03   1.393622461714e-01   2.006034654836e-02
O         0.0147598034       1.2690992643       0.8871300327   1.722830511497e-04  -2.917681456032e-02  -2.964100672799e-02
O        -0.0674235303      -1.2031524127       0.7978510059   1.438984468868e-02  -1.147009594738e-01   6.083905428356e-02
O         1.2097494636       0.0772759795      -0.8753887146   4.344818687494e-02  -6.158765042205e-02  -2.260989509969e-02
O        -1.1946341078      -0.1148399488      -0.8221524644  -2.932097628553e-02  -2.164579044106e-02  -2.076409314485e-02
H         1.5144449884      -0.9135276308      -1.0414287917  -1.377406970798e-02   5.558935393177e-02   4.949018338430e-03
H        -1.4999139405       0.6797019425      -1.2133768109  -7.482942592635e-03   3.210451644817e-02  -1.286808529712e-02
7
Properties=species:S:1:pos:R:3:forces:R:3 energy=-6.997682731709e+02 dipole="6.5955290411e-01 -4.5889747197e-02 -1.3141086895e+00" quadrupole="-2.3177249688e+01 -4.2499824304e+00 2.9653154351e-01 -4.2499824304e+00 -2.8603570004e+01 -7.5064903952e-01 2.9653154351e-01 -7.5064903952e-01 -2.5767944661e+01" polarizability="3.9988891314e+01 -8.8970932991e-01 1.7100626179e+00 -8.8970932991e-01 3.8237202568e+01 -5.5420373905e-03 1.7100626179e+00 -5.5420373905e-03 3.9618288700e+01" charge=0 multiplicity=1 method=wB97M-V basis=def2-svpd config_type=h2so4 sample_index=202 temperature=300.0 units=atomic
S         0.0475110333       0.0203315547       0.1587611306  -5.638287868957e-02   1.792028517854e-02  -5.026685884416e-02
O         0.0608837445       1.2175678239       0.9225176840  -7.150662682279e-04   3.655360561239e-02  -2.645381826198e-04
O        -0.0862234461      -1.1963095354       0.8305296404   1.305868767970e-02  -7.149956762356e-02   2.997059104481e-02
O         1.2339342424       0.0923845489      -0.9015475303   4.169352055279e-02  -4.476668903116e-02  -8.112624082955e-03
O        -1.3272356459      -0.1465860239      -0.8912522083   2.829858856570e-02   6.564210536962e-02  -2.543212473918e-02
H         1.8269113596      -0.7720298031      -0.9342634721  -3.883956019987e-02   4.517836338220e-02   4.155158771071e-03
H        -1.4468053762       0.6500727098      -1.5950172078   1.291631794081e-02  -4.907846715919e-02   4.995831093748e-02
7
Properties=species:S:1:pos:R:3:forces:R:3 energy=-6.997898259055e+02 dipole="2.1247127181e-01 4.0270833696e-02 -9.7047957074e-01" quadrupole="-2.4938117160e+01 -3.7049948338e+00 5.9877588359e-01 -3.7049948338e+00 -2.8041808696e+01 -4.0712914908e-01 5.9877588359e-01 -4.0712914908e-01 -2.6617029945e+01" polarizability="3.7320881139e+01 -1.0061891094e+00 4.0494465464e-01 -1.0061891094e+00 3.8814978525e+01 -1.5312909480e-01 4.0494465464e-01 -1.5312909480e-01 3.6478403179e+01" charge=0 multiplicity=1 method=wB97M-V basis=def2-svpd config_type=h2so4 sample_index=203 temperature=300.0 units=atomic
S         0.0374712965       0.0180614761       0.1821372693  -5.044880966141e-02  -1.898354473185e-02  -3.788445421263e-02
O        -0.0284873798       1.2788156689       0.8379911487   6.672128867702e-03   1.887256689625e-02   1.452352459068e-02
O        -0.0128622462      -1.2941349984       0.8099022111   1.094351702409e-02   1.648846163422e-02  -3.952922590027e-03
O         1.2612832287       0.0485298516      -0.8903026814  -1.457281020639e-02   9.953797904840e-04   1.978294470253e-02
O        -1.2900650819      -0.0599035130      -0.8679106863   3.573365182537e-02  -4.855660450217e-02   3.878876984830e-02
H         1.4223678610      -0.8966197899      -0.8907972750   1.694047340567e-02  -1.521097926993e-02  -1.411779848924e-02
H        -1.4954478503       0.7471819273      -1.2731718036  -5.237445167368e-03   4.632855040071e-02  -1.714854739307e-02
7
Properties=species:S:1:pos:R:3:forces:R:3 energy=-6.997575674934e+02 dipole="-1.9965485295e-01 2.3359637832e-01 -1.1041807027e+00" quadrupole="-2.2735790686e+01 -4.0645808957e+00 1.1389451844e-01 -4.0645808957e+00 -2.8438168269e+01 1.6814066624e-01 1.1389451844e-01 1.6814066624e-01 -2.7383741600e+01" polarizability="3.5420141651e+01 -5.3233544646e-01 2.1738302210e-01 -5.3233544646e-01 3.6329705043e+01 -4.2794983971e-01 2.1738302210e-01 -4.2794983971e-01 3.4891905658e+01" charge=0 multiplicity=1 method=wB97M-V basis=def2-svpd config_type=h2so4 sample_index=204 temperature=300.0 units=atomic
S        -0.0155499828       0.0216742754       0.1368101763   2.768794556037e-02  -7.576201980731e-02   4.576626587384e-03
O         0.0272432104       1.2282415403       0.8530032082  -7.953691421131e-03   5.631284683670e-02   1.507284585660e-02
O        -0.0145630362      -1.2435990595       0.8437379996   4.532512204133e-03   1.410960100365e-04  -6.934368730963e-03
O         1.2551558323       0.0504732460      -0.8658946950  -1.268364913677e-01   2.700382212116e-01   5.144875464034e-02
O        -1.2339503275      -0.0867050302      -0.8649023649  -1.232230581247e-02   1.857895571605e-02  -9.122790480991e-03
H         1.5894909438      -0.6678558889      -1.0117187310   1.169488559330e-01  -2.663409399647e-01  -5.009307827125e-02
H        -1.6344559936       0.7992550027      -0.9250645461  -2.083366930683e-03  -2.923699703143e-03  -5.038940065087e-03
7
Properties=species:S:1:pos:R:3:forces:R:3 energy=-6.997849452803e+02 dipole="-3.6879790817e-01 2.0712285993e-01 -1.6870826063e+00" quadrupole="-2.6194646238e+01 -2.9126176018e+00 7.5514203574e-01 -2.9126176018e+00 -2.8604890008e+01 -1.9316988330e-01 7.5514203574e-01 -1.9316988330e-01 -2.4111784479e+01" polarizability="3.4917532317e+01 -6.8016511357e-01 1.1488956217e+00 -6.8016511357e-01 3.8165539943e+01 -1.6678564844e-01 1.1488956217e+00 -1.6678564844e-01 3.8724456176e+01" charge=0 multiplicity=1 method=wB97M-V basis=def2-svpd config_type=h2so4 sample_index=205 temperature=300.0 units=atomic
S        -0.0201820359       0.0179811801       0.1679046387   1.916008035983e-02  -1.879361732591e-02  -4.594815517041e-03
O         0.0508687521       1.2319599310       0.8962887367  -1.073977848269e-02   3.633890631782e-02   7.645543201098e-03
O         0.0048343842      -1.2273853945       0.8684116054  -7.935584451052e-03  -2.058567793305e-02   3.762929910174e-03
O         1.2023878036       0.0637205981      -0.8696549625  -4.338703290983e-03  -2.981211903075e-02  -3.393927467016e-02
O        -1.1937145309      -0.1120624802      -0.9232304897  -2.578327908493e-02   6.021256295056e-02  -3.040473745358e-02
H         0.9755788690      -0.6845955228      -1.5225790011   1.768967796385e-02   2.805856120979e-02   2.238328872635e-02
H        -1.3575614797       0.8041606090      -1.4389766742   1.188029471428e-02  -5.533884276284e-02   3.503919991494e-02
7
Properties=species:S:1:pos:R:3:forces:R:3 energy=-6.997710674886e+02 dipole="-8.6402977675e-02 5.1609701923e-02 -1.0665623004e+00" quadrupole="-2.6218800073e+01 -3.1307271773e+00 -1.3696086534e+00 -3.1307271773e+00 -2.8091546556e+01 9.8597483761e-01 -1.3696086534e+00 9.8597483761e-01 -2.5183348062e+01" polarizability="3.6778619044e+01 -1.7248375936e+00 -4.9857209710e-01 -1.7248375936e+00 4.0170629684e+01 4.3046381383e-03 -4.9857209710e-01 4.3046381383e-03 3.8006133797e+01" charge=0 multiplicity=1 method=wB97M-V basis=def2-svpd config_type=h2so4 sample_index=206 temperature=300.0 units=atomic
S        -0.0210449468      -0.0283590437       0.2096547736   2.550202252433e-02  -6.626916884941e-02  -6.624550484594e-02
O        -0.0130314869       1.2828512527       0.7234157330  -4.899167784090e-03   4.545853369665e-02   4.750618570420e-02
O         0.0543406924      -1.3248672059       0.8650641738  -1.203906247806e-02   2.370019176740e-02  -9.615926918762e-04
O         1.2461604375       0.0762433944      -0.8285626463   2.599517076519e-03  -6.044832127789e-02  -5.638603739085e-02
O        -1.2426928345       0.0050672010      -0.9063527284   1.105158146211e-02   1.244341608203e-02   2.663226546751e-02
H         1.2757774281      -0.7077541285      -1.6073874296  -6.866533025240e-03   5.671052972563e-02   6.598141322856e-02
H        -1.3206749036       0.9879789320      -0.8465087315  -1.532575979233e-02  -1.155059604085e-02  -1.651077976360e-02
7
Properties=species:S:1:pos:R:3:forces:R:3 energy=-6.997468532238e+02 dipole="3.6397377855e-01 -1.0671720031e-01 -1.4496681143e+00" quadrupole="-2.2141554512e+01 -4.6685811969e+00 9.7918865196e-01 -4.6685811969e+00 -2.8676375766e+01 -1.1331081335e+00 9.7918865196e-01 -1.1331081335e+00 -2.5654928666e+01" polarizability="4.1671489317e+01 -2.8653445507e+00 7.1274256723e-01 -2.8653445507e+00 4.0075619827e+01 -5.1865786009e-01 7.1274256723e-01 -5.1865786009e-01 3.9878195992e+01" charge=0 multiplicity=1 method=wB97M-V basis=def2-svpd config_type=h2so4 sample_index=207 temperature=300.0 units=atomic
S         0.0236802123       0.0025827128       0.1391407948  -9.386655701428e-03   9.469632155928e-02  -2.985121641928e-02
O        -0.0072810915       1.2606442246       0.8920529885   8.962183915297e-03  -1.654492983127e-02  -2.579673239455e-02
O        -0.0607286787      -1.2107465482       0.7909577371   1.066159738244e-02  -9.509282185599e-02   4.979840484288e-02
O         1.3062080400       0.0476699680      -0.8947978423   2.631769238007e-02  -3.974123819492e-02  -1.271400015650e-03
O        -1.3118160682      -0.1015312054      -0.7929553191  -9.890770436012e-03   7.968914412933e-02  -7.648358485355e-02
H         1.9642057809      -0.8003505111      -0.9502322741  -5.509736273771e-02   5.125600078945e-02   1.188517601932e-02
H        -1.5452118025       0.7826312877      -1.5423538432   2.853196309769e-02  -7.428645986384e-02   7.166278723916e-02
7
Properties=species:S:1:pos:R:3:forces:R:3 energy=-6.997738224621e+02 dipole="1.2461136730e-01 -2.7970791824e-01 -1.2791921788e+00" quadrupole="-2.5444593654e+01 -3.2245285102e+00 -4.2861103983e-01 -3.2245285102e+00 -2.8258783420e+01 2.1714733943e-01 -4.2861103983e-01 2.1714733943e-01 -2.5904241292e+01" polarizability="3.4847030988e+01 -1.3907264448e+00 -1.1924787360e+00 -1.3907264448e+00 3.8531243024e+01 2.6002453372e-01 -1.1924787360e+00 2.6002453372e-01 3.5015148094e+01" charge=0 multiplicity=1 method=wB97M-V basis=def2-svpd config_type=h2so4 sample_index=208 temperature=300.0 units=atomic
S         0.0183718977      -0.0430060681       0.1596989120  -5.859660476259e-03   7.642590216997e-02   2.060954509425e-02
O        -0.0804265504       1.2966640238       0.7688721146   1.954395197391e-02  -2.940661985345e-02   3.946911065757e-03
O         0.0068585163      -1.2924880553       0.8414231521   4.258406893555e-03  -1.896924852846e-02   6.194154132908e-03
O         1.2565109831       0.0655701443      -0.8597506047   2.993456361757e-04  -3.696940519228e-02  -1.037020317981e-02
O        -1.2211998973       0.0170373953      -0.8081003040   4.219468514393e-04  -1.895361298164e-01   1.952827637211e-02
H         1.3260532253      -0.8471560550      -1.2695026393   5.452340797176e-03   2.477343970361e-02   7.442703593848e-03
H        -1.3011944329       0.8367278699      -1.0196470768  -2.412523319182e-02   1.738259446240e-01  -4.741830869217e-02
7
Properties=species:S:1:pos:R:3:forces:R:3 energy=-6.997603006236e+02 dipole="1.0080795941e-01 -1.2200927704e-01 -1.5443678412e+00" quadrupole="-2.6775971665e+01 -3.0869193252e+00 -4.0051421416e-01 -3.0869193252e+00 -2.8260190671e+01 -8.6818060647e-02 -4.0051421416e-01 -8.6818060647e-02 -2.3639184032e+01" polarizability="3.6330339147e+01 -1.3924676542e+00 -1.7308494204e-01 -1.3924676542e+00 4.0498832339e+01 3.6916850906e-01 -1.7308494204e-01 3.6916850906e-01 3.9296974609e+01" charge=0 multiplicity=1 method=wB97M-V basis=def2-svpd config_type=h2so4 sample_index=209 temperature=300.0 units=atomic
S         0.0012691055      -0.0204811131       0.1928200163  -7.862519927695e-03   5.216769871702e-02  -5.745522477986e-02
O         0.0097719555       1.2745258466       0.8003779656  -1.108735876816e-03   1.126270244790e-02   2.017130425227e-02
O         0.0025615041      -1.2661788401       0.8252552445  -1.935366581535e-03  -5.516280726173e-02   3.505755688462e-02
O         1.2329331374       0.0923133923      -0.8414677457   6.419950047039e-03  -8.188944924126e-02  -6.432199756099e-02
O        -1.2533749414      -0.0612557073      -0.8618005896   1.505146920378e-02   6.821284829073e-02  -4.473938033486e-02
H         1.2381693820      -0.8376066276      -1.5202763275  -9.191692148836e-05   7.729055767718e-02   6.043308397853e-02
H        -1.1503190171       0.8631975135      -1.4804412443  -1.046524273174e-02  -7.186797989477e-02   5.084714429586e-02
7
Properties=species:S:1:pos:R:3:forces:R:3 energy=-6.997502433825e+02 dipole="-5.5545945912e-01 3.4266134363e-03 -8.3922110143e-01" quadrupole="-1.9953445683e+01 -4.5152752575e+00 7.9254850778e-02 -4.5152752575e+00 -2.8438801458e+01 2.5584630230e-01 7.9254850778e-02 2.5584630230e-01 -2.9505069969e+01" polarizability="4.0793305961e+01 -3.8363314511e+00 2.0837389847e-01 -3.8363314511e+00 3.8034309887e+01 1.1957839462e+00 2.0837389847e-01 1.1957839462e+00 3.6768917894e+01" charge=0 multiplicity=1 method=wB97M-V basis=def2-svpd config_type=h2so4 sample_index=210 temperature=300.0 units=atomic
S        -0.0154453556       0.0253442865       0.1229393618   1.299126260554e-02   3.750651446323e-02   1.478834655010e-02
O        -0.0412703823       1.2325641220       0.9452686397  -2.316812914064e-03   9.403082253279e-04  -3.108362123699e-02
O         0.0721450866      -1.1829343794       0.8462668443  -5.195738789171e-03  -5.988885308820e-02   2.454261933553e-02
O         1.2374730588      -0.0574582980      -0.8968979366  -2.462250126351e-02   5.913992315849e-02  -9.370964838126e-03
O        -1.2051734433      -0.0340905799      -0.9356010221  -8.401674219722e-02   7.683087937082e-02   2.436191691511e-02
H         1.5865471117      -0.9094735937      -0.7840047058   1.957985006688e-02  -4.408301935404e-02   5.639542026603e-03
H        -2.0961110466       0.7571380161      -0.5862910799   8.356021229983e-02  -7.041174630550e-02  -2.891198554496e-02
7
Properties=species:S:1:pos:R:3:forces:R:3 energy=-6.997686494881e+02 dipole="-3.1424553979e-01 -1.7164047584e-01 -1.3277660928e+00" quadrupole="-2.5894904106e+01 -3.3516134625e+00 -1.4999583837e-01 -3.3516134625e+00 -2.7984054513e+01 4.7801584335e-01 -1.4999583837e-01 4.7801584335e-01 -2.6055858062e+01" polarizability="3.6777246245e+01 -1.2906858469e+00 -6.0766512003e-01 -1.2906858469e+00 3.9958930979e+01 8.8785172490e-01 -6.0766512003e-01 8.8785172490e-01 3.7243253872e+01" charge=0 multiplicity=1 method=wB97M-V basis=def2-svpd config_type=h2so4 sample_index=211 temperature=300.0 units=atomic
S        -0.0341409045      -0.0364185331       0.1485472492   4.892335844751e-02   4.867404566467e-02   1.574628972921e-02
O         0.0106261663       1.2691480842       0.7863613386  -1.421978354505e-02  -5.653517258299e-03   5.902644421552e-03
O         0.0411181126      -1.2707607965       0.8657627608  -1.060941041924e-02  -1.747485105162e-02  -1.269465024649e-03
O         1.2931754869       0.0983627049      -0.8194409838  -3.775464119477e-02  -1.082351673562e-01  -4.879666288794e-02
O        -1.2629443046      -0.0229649031      -0.8641492646   2.364526073794e-03  -3.221837745105e-02   3.116747597431e-04
H         1.1706544631      -0.9202152094      -1.3649793046   2.356141195170e-02   8.535892303898e-02   3.863051550740e-02
H        -1.3930782004       0.9044988276      -0.9848605257  -1.237483460086e-02   2.955334805431e-02  -1.054787383543e-02
7
Properties=species:S:1:pos:R:3:forces:R:3 energy=-6.997831432958e+02 dipole="7.3273833763e-02 -1.2637461887e-01 -6.8976211477e-01" quadrupole="-2.3861647542e+01 -4.1903448005e+00 -8.9726761798e-02 -4.1903448005e+00 -2.7488156332e+01 -2.2482526788e-01 -8.9726761798e-02 -2.2482526788e-01 -2.7238486197e+01" polarizability="3.7031859654e+01 -1.8287606051e+00 -4.2622709473e-01 -1.8287606051e+00 3.7145826055e+01 1.8079376341e-01 -4.2622709473e-01 1.8079376341e-01 3.4645225912e+01" charge=0 multiplicity=1 method=wB97M-V basis=def2-svpd config_type=h2so4 sample_index=212 temperature=300.0 units=atomic
S         0.0122969830      -0.0220731472       0.1914564448  -8.189999986449e-03   1.152005506199e-01  -1.152312571196e-01
O        -0.0629400508       1.2712729817       0.7880153077   1.137890772161e-02   1.841534776289e-02   2.105058814984e-02
O         0.0149279750      -1.2409430696       0.7856559607   4.596765486435e-03  -1.287442787986e-01   7.172994150521e-02
O         1.2896964327       0.0248682358      -0.8795995043  -4.081003796976e-02   5.866970254596e-02   2.569410045701e-02
O        -1.2698070018      -0.0169965859      -0.8394744335   8.359784381215e-03   5.831229412469e-03   3.185018900817e-03
H         1.6221172012      -0.8238459504      -0.9933272865   1.975710041239e-02  -5.621194139165e-02  -6.835792131962e-03
H        -1.5644415101       0.9177153721      -0.9224779129   4.903920361453e-03  -1.316651946128e-02   3.734706560892e-04
7
Properties=species:S:1:pos:R:3:forces:R:3 energy=-6.997564697596e+02 dipole="-9.4083370032e-03 -7.9456569101e-02 -1.3264862133e+00" quadrupole="-2.5486666346e+01 -4.0420270288e+00 -7.1326349042e-01 -4.0420270288e+00 -2.7582604882e+01 3.6005245035e-01 -7.1326349042e-01 3.6005245035e-01 -2.6078731128e+01" polarizability="3.7255098476e+01 -2.5487556922e+00 -1.2433691388e+00 -2.5487556922e+00 4.2288258555e+01 2.5164377065e-01 -1.2433691388e+00 2.5164377065e-01 3.7765576452e+01" charge=0 multiplicity=1 method=wB97M-V basis=def2-svpd config_type=h2so4 sample_index=213 temperature=300.0 units=atomic
S         0.0089201531      -0.0414287411       0.1624003951   5.017902784581e-03   5.633316458757e-02   6.846044656865e-04
O        -0.0572828302       1.2960996386       0.7794481768   1.218928763074e-02  -2.446573052088e-02   2.144433723059e-03
O        -0.0082660009      -1.2867662849       0.8577882081   7.184042167134e-03  -1.747382569304e-02   8.420466906056e-03
O         1.2682958678       0.0830607586      -0.8663078929   1.032821932316e-03  -8.205721519841e-02  -3.591576347980e-02
O        -1.2195717106      -0.0258125318      -0.8303273524  -2.742971961830e-02   9.313623013056e-02  -2.392264157159e-02
H         1.3464171601      -0.8780905065      -1.4278226291  -5.232595081216e-03   7.426557167640e-02   4.501675281355e-02
H        -1.3611782761       1.1379729523      -0.9149427955   7.245607506356e-03  -9.963335004354e-02   3.509132695495e-03
7
Properties=species:S:1:pos:R:3:forces:R:3 energy=-6.997732753295e+02 dipole="3.7575106504e-01 -2.5597318996e-03 -1.1668252637e+00" quadrupole="-2.4299659470e+01 -4.0681136604e+00 7.4150172500e-01 -4.0681136604e+00 -2.8004792087e+01 -9.4829519984e-01 7.4150172500e-01 -9.4829519984e-01 -2.6856433486e+01" polarizability="3.7380475569e+01 -2.7520684554e+00 2.0068615015e-01 -2.7520684554e+00 4.1072670586e+01 -8.7791446064e-01 2.0068615015e-01 -8.7791446064e-01 3.7483926088e+01" charge=0 multiplicity=1 method=wB97M-V basis=def2-svpd config_type=h2so4 sample_index=214 temperature=300.0 units=atomic
S         0.0173701515       0.0132983414       0.1654506367  -2.659500288712e-02  -2.318055738021e-02   3.073750481685e-03
O        -0.0471528091       1.2719272818       0.8585544203   8.002024187271e-03   5.054663752396e-03   5.164954555225e-03
O         0.0257173553      -1.2974033298       0.8375600925   3.214519638164e-03   2.777246421866e-02  -1.297732102539e-02
O         1.1980520386       0.0357353973      -0.9155033329   4.974600293781e-02  -8.940604611907e-02   2.229359679619e-02
O        -1.2355432731      -0.0276841074      -0.8590926056  -3.959308738192e-03   4.118680328569e-02  -2.712427686479e-02
H         1.6499252843      -1.0009445363      -0.7201112183  -3.242109417059e-02   8.515348634105e-02  -2.197699882319e-02
H        -1.2676124182       0.8627818445      -1.4017938763   1.992426848877e-03  -4.660647639931e-02   3.149489274970e-02
7
Properties=species:S:1:pos:R:3:forces:R:3 energy=-6.997900076032e+02 dipole="5.3932015178e-02 2.0500578260e-03 -9.3013936282e-01" quadrupole="-2.3436248302e+01 -4.3715312156e+00 -2.4846397369e-01 -4.3715312156e+00 -2.7809069028e+01 -1.7560019032e-01 -2.4846397369e-01 -1.7560019032e-01 -2.6987035287e+01" polarizability="3.6996548796e+01 -1.8311929621e+00 -2.9051244117e-01 -1.8311929621e+00 3.8878202237e+01 -6.0806101906e-01 -2.9051244117e-01 -6.0806101906e-01 3.6588966927e+01" charge=0 multiplicity=1 method=wB97M-V basis=def2-svpd config_type=h2so4 sample_index=215 temperature=300.0 units=atomic
S        -0.0005146777      -0.0207177043       0.1968523124   4.734648152638e-03   2.021682610961e-02  -7.125736394167e-02
O        -0.0110149008       1.2618515061       0.8115437004   1.142394831874e-03   2.296569782230e-02   2.038380340921e-02
O        -0.0067300605      -1.2677720120       0.8580825254   3.551494464747e-03  -3.473411425606e-02   1.880756355932e-02
O         1.2205573084       0.0722281522      -0.9139592270  -5.494884700010e-03   7.966711004703e-03   1.788034203285e-02
O        -1.2101777829      -0.0372390912      -0.8932509390  -2.201298766686e-02   5.282053215430e-02   6.256431637848e-04
H         1.6558465751      -0.7566760301      -1.1309210703  -2.443640984983e-03  -1.021645715926e-02   3.340124029044e-03
H        -1.5239859721       0.9575458157      -1.0487392611   2.058096554835e-02  -5.901047946995e-02   1.015430966375e-02
7
Properties=species:S:1:pos:R:3:forces:R:3 energy=-6.997608913172e+02 dipole="1.7095154653e-02 -2.0561719846e-01 -1.0212248699e+00" quadrupole="-2.5700280706e+01 -3.7512851370e+00 1.9071798375e-01 -3.7512851370e+00 -2.7251420766e+01 -6.6871388051e-01 1.9071798375e-01 -6.6871388051e-01 -2.5892032320e+01" polarizability="3.6441227413e+01 -1.5710854474e+00 1.0595314322e+00 -1.5710854474e+00 3.7941408464e+01 5.9747053675e-01 1.0595314322e+00 5.9747053675e-01 3.5916189869e+01" charge=0 multiplicity=1 method=wB97M-V basis=def2-svpd config_type=h2so4 sample_index=216 temperature=300.0 units=atomic
S         0.0099090450      -0.0209481592       0.1942056287  -2.456415838725e-02   2.373776567747e-01  -1.364910375270e-01
O        -0.0026744912       1.2720575541       0.8353911095  -1.545697101715e-03  -3.356062677447e-03   3.828119134283e-03
O         0.0240400814      -1.2004679970       0.7709480889  -9.223693673649e-04  -2.307232717891e-01   1.218594960083e-01
O         1.2452566973       0.0427278074      -0.8435356255  -1.725314360254e-03  -2.451138620712e-02  -6.326316921839e-03
O        -1.2782165346      -0.0748239814      -0.8826588559   9.633875075764e-03   7.234963977832e-02  -7.734554577272e-03
H         1.2978644837      -0.9031835670      -1.1396993076   8.226771517487e-03   2.008315380849e-02  -1.770576309966e-03
H        -1.4260801287       0.9345454702      -1.2463325373   1.089694563907e-02  -7.134496368998e-02   2.667974249126e-02
7
Properties=species:S:1:pos:R:3:forces:R:3 energy=-6.997852998635e+02 dipole="-1.9698585213e-01 -1.7135824674e-01 -8.3849920595e-01" quadrupole="-2.3323740795e+01 -4.3374327461e+00 3.7093356523e-01 -4.3374327461e+00 -2.7682871777e+01 -4.9450371760e-01 3.7093356523e-01 -4.9450371760e-01 -2.7853439616e+01" polarizability="3.8355631409e+01 -2.9147917912e+00 1.3337367324e+00 -2.9147917912e+00 4.0401351444e+01 -5.6900074256e-01 1.3337367324e+00 -5.6900074256e-01 3.7548088534e+01" charge=0 multiplicity=1 method=wB97M-V basis=def2-svpd config_type=h2so4 sample_index=217 temperature=300.0 units=atomic
S        -0.0328180919      -0.0358175981       0.1876270547   1.295194305632e-02   7.428654101697e-02  -3.558615820435e-02
O        -0.0142885565       1.2871973429       0.8204826714  -8.845610596967e-03  -2.733139933527e-02   1.220623883363e-03
O         0.1247944327      -1.2898944722       0.8772453211  -2.127777320321e-02  -6.444680645000e-03  -2.009447663490e-03
O         1.2151899934       0.0300777997      -0.8741490501   2.533234665846e-03  -4.765067334715e-02   9.661861749350e-03
O        -1.2509437933       0.0445470337      -0.9563582103   5.461207745814e-04  -1.168967807213e-02   1.707390857457e-02
H         1.5381825216      -0.9318695831      -0.8845992721  -5.428079029809e-03   3.618533647605e-02  -5.416171560150e-03
H        -1.6910346156       0.9300690904      -1.0796141313   1.954556009596e-02  -1.742814344389e-02   1.505320447793e-02
7
Properties=species:S:1:pos:R:3:forces:R:3 energy=-6.997516668055e+02 dipole="-9.7194704044e-02 -2.3657694952e-01 -1.2955534121e+00" quadrupole="-2.2866396785e+01 -4.2676963806e+00 -1.6992394102e+00 -4.2676963806e+00 -2.8504023856e+01 7.2352180607e-01 -1.6992394102e+00 7.2352180607e-01 -2.6329014762e+01" polarizability="3.6163572555e+01 -2.6011624225e+00 -2.8876500342e-01 -2.6011624225e+00 3.9810687604e+01 2.0094228954e+00 -2.8876500342e-01 2.0094228954e+00 3.7205487089e+01" charge=0 multiplicity=1 method=wB97M-V basis=def2-svpd config_type=h2so4 sample_index=218 temperature=300.0 units=atomic
S        -0.0084130343      -0.0372388124       0.1720184043  -1.297431073925e-02   1.264131128286e-01  -7.929953065377e-03
O         0.0301639670       1.3016931637       0.8405534539  -1.364356173474e-02  -4.738027142943e-02  -1.849687541129e-02
O         0.0242982142      -1.2337886774       0.8480596262  -5.219698573387e-03  -9.542551781604e-02   5.898960049245e-02
O         1.1268313893       0.0551988763      -0.8281643457   1.011075018631e-01  -4.412573319736e-02  -8.855520120946e-02
O        -1.1490431230      -0.0580211865      -0.9455316033  -7.403370226351e-02   8.158045249839e-02   2.337177782023e-02
H         1.4356675692      -0.7649372660      -1.4702684173  -3.140623423816e-02   5.419803301405e-02   5.392339846920e-02
H        -1.6770524574       0.9036275221      -0.7426729645   3.620544368637e-02  -7.525081244867e-02  -2.132040529065e-02
7
Properties=species:S:1:pos:R:3:forces:R:3 energy=-6.997935007449e+02 dipole="2.2244555201e-01 -2.6902943993e-02 -1.4436027377e+00" quadrupole="-2.4074631976e+01 -3.9278246208e+00 -8.0596637339e-01 -3.9278246208e+00 -2.8533800850e+01 1.0432019397e-01 -8.0596637339e-01 1.0432019397e-01 -2.6260455604e+01" polarizability="3.7208147878e+01 -1.2182637448e+00 -2.7720587392e-01 -1.2182637448e+00 3.9486103794e+01 3.5413927804e-01 -2.7720587392e-01 3.5413927804e-01 3.7688906894e+01" charge=0 multiplicity=1 method=wB97M-V basis=def2-svpd config_type=h2so4 sample_index=219 temperature=300.0 units=atomic
S        -0.0057252188      -0.0064669634       0.1410646294   6.571078162021e-03  -9.029903223024e-03   4.117691455884e-02
O         0.0153852525       1.2770487611       0.8660635755  -5.251423377300e-03  -2.723032704568e-02  -2.765886156745e-02
O         0.0022726253      -1.2711794227       0.8737998478  -9.318221184476e-04   1.715654742248e-02  -1.823718692966e-02
O         1.2419887869       0.0668693538      -0.8682902250   1.574494870852e-02  -1.078291926125e-02  -1.532363829821e-02
O        -1.2678406376      -0.0642137258      -0.8851407643   1.706465598666e-02  -9.440120189405e-03   1.540798533077e-02
H         1.6464534159      -0.7747836871      -1.2344012130  -2.173583028440e-02   1.872583579015e-02   1.751027255071e-02
H        -1.3348321708       0.8466824574      -1.1513962514  -1.148661494341e-02   2.059824081759e-02  -1.296762974878e-02
7
Properties=species:S:1:pos:R:3:forces:R:3 energy=-6.997837826677e+02 dipole="3.9198763260e-01 -7.6398473509e-02 -1.2692460644e+00" quadrupole="-2.3408136431e+01 -4.1143554884e+00 2.7410080584e-01 -4.1143554884e+00 -2.8269670496e+01 -9.2045291339e-01 2.7410080584e-01 -9.2045291339e-01 -2.5877783110e+01" polarizability="3.7471061991e+01 -2.2161249493e+00 2.8316536616e-01 -2.2161249493e+00 3.9151326285e+01 -8.0864641747e-01 2.8316536616e-01 -8.0864641747e-01 3.8006586664e+01" charge=0 multiplicity=1 method=wB97M-V basis=def2-svpd config_type=h2so4 sample_index=220 temperature=300.0 units=atomic
S         0.0135348379      -0.0132747046       0.1801038895  -1.783619347210e-02   3.978852299190e-02  -4.579199348877e-02
O        -0.0160402124       1.2522203986       0.8537851014   5.311147581731e-03   1.002885853948e-02   6.903685650544e-03
O         0.0004876851      -1.2530109000       0.8545632083   1.775176948479e-03  -3.882570730848e-02   1.634041454349e-02
O         1.1966380748       0.0588870752      -0.9163961117   3.964394314927e-02  -3.906802071701e-02  -3.059911358315e-03
O        -1.2347358760      -0.0339256393      -0.8764326236  -9.446409555387e-03   4.198152084160e-02  -3.081137621846e-02
H         1.7765387839      -0.7962276667      -1.0038375472  -3.530353438343e-02   4.087371763350e-02   9.385437443335e-03
H        -1.3563654000       0.8412247959      -1.4799375937   1.588377045763e-02  -5.481840494215e-02   4.691055572407e-02
7
Properties=species:S:1:pos:R:3:forces:R:3 energy=-6.997406760281e+02 dipole="5.1190887901e-01 1.1451127309e-01 -1.8949961726e+00" quadrupole="-2.5866365270e+01 -2.7581443755e+00 -4.2228763078e-01 -2.7581443755e+00 -2.9321310376e+01 -3.4367654672e-01 -4.2228763078e-01 -3.4367654672e-01 -2.4297708271e+01" polarizability="3.5741054571e+01 -3.9058133301e-01 9.5145613930e-01 -3.9058133301e-01 3.9765093815e+01 -1.3786834987e+00 9.5145613930e-01 -1.3786834987e+00 3.9270649101e+01" charge=0 multiplicity=1 method=wB97M-V basis=def2-svpd config_type=h2so4 sample_index=221 temperature=300.0 units=atomic
S         0.0597670696       0.0221274087       0.1245144548  -9.820069817272e-02  -3.123611285370e-02   1.028715079963e-01
O        -0.0238841827       1.2716955114       0.9019096676   1.746421281053e-02  -2.451914220054e-02  -3.400250519463e-02
O        -0.0539098202      -1.2708587857       0.8501742169   2.245612595092e-02   3.410395819258e-02  -2.328861608041e-02
O         1.2154426995       0.0526009927      -0.8681871533   1.291714001123e-02   1.817812450243e-01   5.913617483768e-02
O        -1.2727863099      -0.1022767000      -0.8335655180   3.971212016884e-02   8.613399432803e-02  -7.229019724443e-02
H         1.3431730349      -0.6766608503      -1.2696170600   3.123549919729e-02  -1.761524480871e-01  -9.385945437107e-02
H        -1.0877170540       0.7508522633      -1.5932381919  -2.548872135251e-02  -7.015974978152e-02   6.144034303460e-02
7
Properties=species:S:1:pos:R:3:forces:R:3 energy=-6.997790612816e+02 dipole="-1.3378687921e-01 4.4542795254e-02 -8.3099866740e-01" quadrupole="-2.5362969074e+01 -3.3941757924e+00 6.1660827589e-01 -3.3941757924e+00 -2.7403191901e+01 -3.6116318014e-01 6.1660827589e-01 -3.6116318014e-01 -2.6839751065e+01" polarizability="3.6013122573e+01 -2.1660232229e+00 -2.7986674013e-01 -2.1660232229e+00 3.7313281096e+01 5.7534490717e-01 -2.7986674013e-01 5.7534490717e-01 3.4383411613e+01" charge=0 multiplicity=1 method=wB97M-V basis=def2-svpd config_type=h2so4 sample_index=222 temperature=300.0 units=atomic
S         0.0041400579       0.0163358397       0.1811175619  -1.764726674507e-03   4.837312604328e-02  -5.968237936273e-02
O        -0.1070147817       1.2926176141       0.8257730048   1.598781434530e-02   7.099380975326e-03   9.457064712429e-03
O         0.0784034620      -1.2563767078       0.7438952116  -6.782019456856e-03  -6.682361821654e-02   4.897774614908e-02
O         1.2919443028      -0.0552130555      -0.8636096375  -2.955651386034e-02   1.363077652897e-01   2.351418005248e-02
O        -1.2643874139      -0.0115461814      -0.8255196760   1.042642577999e-02  -2.265632732605e-02   2.238214296252e-03
H         1.3415288789      -0.9299179763      -0.9407212486   1.900213141789e-02  -1.220722622660e-01  -1.834724705292e-02
H        -1.4537024949       0.8905896723      -1.0534690975  -7.302017627538e-03   1.974199315994e-02  -6.213922699358e-03
7
Properties=species:S:1:pos:R:3:forces:R:3 energy=-6.997780630228e+02 dipole="-3.5443679371e-01 2.3224882268e-01 -1.6192966813e+00" quadrupole="-2.2403880214e+01 -4.0450286577e+00 -2.1961066604e-01 -4.0450286577e+00 -2.9285999052e+01 1.2014839409e+00 -2.1961066604e-01 1.2014839409e+00 -2.6055134771e+01" polarizability="3.5961890091e+01 -1.4491914815e+00 9.7647156365e-03 -1.4491914815e+00 3.9189786666e+01 9.4778501071e-01 9.7647156365e-03 9.4778501071e-01 3.5479051532e+01" charge=0 multiplicity=1 method=wB97M-V basis=def2-svpd config_type=h2so4 sample_index=223 temperature=300.0 units=atomic
S        -0.0056697760       0.0548978131       0.1161677284   7.753342416883e-03  -1.001139966371e-01   8.786567160095e-02
O         0.0293071831       1.2781535712       0.8458575221  -7.266530905365e-03   2.527420672851e-02   1.821634002155e-03
O        -0.0180536171      -1.2855437221       0.7829479040   3.848652268279e-03   4.294627838767e-02  -9.049838626819e-03
O         1.2366994424       0.0276515163      -0.7810672113   4.748140632838e-02  -2.710743321824e-02  -7.086481227872e-02
O        -1.2079656495      -0.1176346664      -0.8225657470  -5.195276474827e-02   1.941880016875e-02  -4.402573635479e-02
H         1.3623325691      -0.8546786571      -1.3150100037  -1.025486160175e-02   4.325958291030e-02   3.274456020492e-02
H        -1.8120499372       0.6466632918      -0.9255623741   1.044553129440e-02  -3.667464056235e-03   1.475062810604e-03
7
Properties=species:S:1:pos:R:3:forces:R:3 energy=-6.997922028036e+02 dipole="2.5487719061e-01 -9.1343424184e-02 -1.2473087709e+00" quadrupole="-2.3552958779e+01 -4.1174658617e+00 2.7432425994e-01 -4.1174658617e+00 -2.8727961921e+01 -6.9131616349e-01 2.7432425994e-01 -6.9131616349e-01 -2.6296184954e+01" polarizability="3.5973936630e+01 -1.2464559450e+00 -3.0970875468e-01 -1.2464559450e+00 4.0125103847e+01 -5.2453000927e-01 -3.0970875468e-01 -5.2453000927e-01 3.5996545829e+01" charge=0 multiplicity=1 method=wB97M-V basis=def2-svpd config_type=h2so4 sample_index=224 temperature=300.0 units=atomic
S         0.0072254477      -0.0174724262       0.1750990945  -4.151817016172e-03   3.714987802629e-02   1.095510001606e-02
O         0.0182018749       1.3056241264       0.8036346781  -2.827327590594e-03  -2.601607078520e-02   2.465758904716e-03
O        -0.0466110741      -1.3066888500       0.8174318423   1.237102036572e-02   2.169805924211e-03   6.483482771849e-03
O         1.1931739370       0.1045119715      -0.8833219006   4.071142957589e-02  -4.493178983520e-02  -6.984370995008e-03
O        -1.2008223780      -0.0705594894      -0.8279678418  -3.294961506534e-02   3.038023946124e-02  -3.419328243181e-02
H         1.6863452952      -0.7805265119      -0.9668209865  -2.000293521053e-02   3.303498327038e-02   1.638032486335e-03
H        -1.3455032696       0.8196881772      -1.2917007816   6.879983252473e-03  -3.179616876132e-02   1.962371659454e-02
7
Properties=species:S:1:pos:R:3:forces:R:3 energy=-6.996972864763e+02 dipole="9.2085126200e-03 -1.7695576287e-01 -2.1346066824e+00" quadrupole="-2.7546123332e+01 -2.3856319999e+00 2.7954023243e-01 -2.3856319999e+00 -2.9423568138e+01 4.8584831792e-01 2.7954023243e-01 4.8584831792e-01 -2.2062548452e+01" polarizability="3.7775811009e+01 -1.0982164992e+00 -1.6022202686e+00 -1.0982164992e+00 4.3105796019e+01 8.4256439175e-01 -1.6022202686e+00 8.4256439175e-01 4.4526113355e+01" charge=0 multiplicity=1 method=wB97M-V basis=def2-svpd config_type=h2so4 sample_index=225 temperature=300.0 units=atomic
S         0.0100160996      -0.0172821680       0.1442095413   1.790568998325e-02   5.786022461720e-03   4.802119081991e-02
O        -0.0282853621       1.2710679417       0.8059309699   1.169984108513e-02  -3.291779628920e-03   7.787007488373e-03
O        -0.0502309805      -1.2938340715       0.8580937812   1.212492115022e-02   1.900498277781e-02  -1.363169978583e-02
O         1.3136336300       0.1222301495      -0.8555770394  -4.616860167628e-02  -9.953980252237e-02  -7.181007846812e-02
O        -1.2572921886      -0.0510258955      -0.7651240361   3.831208688254e-04   5.381635201424e-02  -1.263607930353e-01
H         1.0598374033      -0.8902424705      -1.6948735404   2.938801920892e-02   8.344710246245e-02   7.158751071098e-02
H        -1.0267682740       0.6731192219      -1.6931102922  -2.534176029199e-02  -5.927637012388e-02   8.439753230168e-02
7
Properties=species:S:1:pos:R:3:forces:R:3 energy=-6.997592130009e+02 dipole="-9.5076180792e-02 -2.7361162378e-02 -9.2401555124e-01" quadrupole="-2.0135976580e+01 -5.3344464523e+00 7.2188120897e-01 -5.3344464523e+00 -2.8267140498e+01 -1.4090215197e-01 7.2188120897e-01 -1.4090215197e-01 -2.8224972927e+01" polarizability="4.0488109005e+01 -4.3524721803e+00 5.8153294927e-01 -4.3524721803e+00 4.0514505878e+01 4.4971537071e-01 5.8153294927e-01 4.4971537071e-01 3.5571272901e+01" charge=0 multiplicity=1 method=wB97M-V basis=def2-svpd config_type=h2so4 sample_index=226 temperature=300.0 units=atomic
S         0.0049551444       0.0251858741       0.1527429846  -8.722483204988e-03   3.017238805019e-03  -1.076423269181e-02
O        -0.0323827567       1.2827436946       0.8435799362   3.209321005527e-03   9.837957603661e-03   5.397783954617e-03
O         0.0326498988      -1.2624690233       0.7642484855  -2.459555686003e-03  -2.679133718092e-02   2.787607476557e-02
O         1.2399099779      -0.0118620997      -0.8471430486   5.907670446241e-02  -6.724915334189e-02  -8.278177835102e-03
O        -1.2400888188      -0.0445586826      -0.8435125372  -6.237322170487e-02   5.268458027729e-02  -2.524468550576e-02
H         1.8015164819      -1.0159746755      -0.7474813923  -5.468904794288e-02   8.564252748292e-02  -5.259373263089e-03
H        -1.9580650021       0.7842862301      -0.9444839132   6.598630648473e-02  -5.718700100896e-02   1.618349734725e-02
7
Properties=species:S:1:pos:R:3:forces:R:3 energy=-6.997416505001e+02 dipole="-1.0176424222e-01 5.2903845219e-02 -1.6935040553e+00" quadrupole="-2.4311105668e+01 -4.0142058696e+00 4.4459349337e-01 -4.0142058696e+00 -2.8837943828e+01 -1.2323838274e+00 4.4459349337e-01 -1.2323838274e+00 -2.4446266976e+01" polarizability="3.7389403885e+01 -1.5553245795e+00 1.3082136617e+00 -1.5553245795e+00 4.1867524314e+01 -2.2811095951e+00 1.3082136617e+00 -2.2811095951e+00 4.0064487432e+01" charge=0 multiplicity=1 method=wB97M-V basis=def2-svpd config_type=h2so4 sample_index=227 temperature=300.0 units=atomic
S        -0.0576336925      -0.0077654601       0.1584351970   7.068734662864e-02   3.839698522725e-02   2.317282598139e-02
O         0.0969986112       1.2938786254       0.8346643791  -2.629930177249e-02  -3.100733262665e-02  -1.220269759625e-02
O         0.0011708067      -1.2810399940       0.8127991361  -7.901499885880e-03  -1.286880195995e-02   1.394325366117e-02
O         1.2256742309       0.1016136076      -0.8371335065   7.567059348153e-03   3.248509676755e-03  -1.400638580778e-02
O        -1.2378978368      -0.1120167699      -0.8357635822  -3.093325329993e-02   9.341490190461e-02  -9.007356964964e-02
H         1.6838773606      -0.6990239492      -1.1488554892  -1.322409250234e-02  -2.042555629124e-03   7.878970114860e-03
H        -1.2284074354       0.9147535316      -1.6094816094   2.675000181063e-05  -8.902999782180e-02   7.130308715258e-02
7
Properties=species:S:1:pos:R:3:forces:R:3 energy=-6.997547138114e+02 dipole="-3.0800049449e-01 -3.3573946548e-02 -8.4768643124e-01" quadrupole="-2.3895949379e+01 -4.3173976316e+00 -7.5595740392e-01 -4.3173976316e+00 -2.7740924962e+01 9.6560007855e-01 -7.5595740392e-01 9.6560007855e-01 -2.7272791014e+01" polarizability="3.9924196993e+01 -3.2058173517e+00 9.7997894677e-01 -3.2058173517e+00 4.0572840209e+01 8.2644408876e-01 9.7997894677e-01 8.2644408876e-01 3.5635260131e+01" charge=0 multiplicity=1 method=wB97M-V basis=def2-svpd config_type=h2so4 sample_index=228 temperature=300.0 units=atomic
S         0.0087650818      -0.0051002290       0.1659284896  -2.680837931574e-02   3.066196623812e-02  -4.753687563769e-02
O        -0.0137793702       1.2832038440       0.7613206523  -5.494974228484e-03   2.931872559230e-02   2.976425402886e-02
O         0.0603935453      -1.2707741718       0.7806853769  -9.823777412559e-03  -4.708449594149e-02   3.314473956461e-02
O         1.2982051888       0.0309928303      -0.7592758000  -1.021035297842e-02  -7.435166542490e-02  -5.149588780542e-02
O        -1.3187276602      -0.0331418011      -0.8840081108  -2.255744212752e-02   8.022967440597e-02   3.588873894478e-02
H         1.2132830598      -0.9655356658      -1.1757459953   2.028291748232e-02   6.682428673390e-02   2.096602520102e-02
H        -1.9016405721       0.9538510409      -0.6524238253   5.460346847352e-02  -8.559231598578e-02  -2.077971443812e-02
7
Properties=species:S:1:pos:R:3:forces:R:3 energy=-6.997863379338e+02 dipole="-3.4295065890e-01 5.1079462295e-02 -1.3498615313e+00" quadrupole="-2.5520043664e+01 -3.2746405169e+00 2.1152737674e-01 -3.2746405169e+00 -2.8288670595e+01 5.1013404939e-01 2.1152737674e-01 5.1013404939e-01 -2.6051071813e+01" polarizability="3.6072431505e+01 -1.1937143589e+00 5.5646900860e-01 -1.1937143589e+00 3.9832508523e+01 9.5741519058e-01 5.5646900860e-01 9.5741519058e-01 3.7261022538e+01" charge=0 multiplicity=1 method=wB97M-V basis=def2-svpd config_type=h2so4 sample_index=229 temperature=300.0 units=atomic
S        -0.0086980678       0.0081642301       0.1596813257   9.016969606444e-03   3.148187937950e-03   2.524634361904e-02
O         0.0027657386       1.2877971594       0.8517758321  -8.246970422427e-03  -1.210569040939e-02  -8.457141260108e-03
O         0.0387441724      -1.2753150532       0.8381735592  -9.673788740144e-03   9.714680420224e-03  -4.787433685726e-03
O         1.2452384820       0.0399235963      -0.8335545662  -2.164373650219e-02  -6.762869278503e-02  -4.611406249526e-02
O        -1.2366569439      -0.0667366915      -0.9057362517   3.533436190576e-03   3.044884873268e-03   9.290182804023e-03
H         1.0192648848      -0.8844973823      -1.3594442584   2.963034994042e-02   6.182004652874e-02   2.778392136708e-02
H        -1.5366125854       0.8444181398      -1.0423851762  -2.646195426305e-03   2.019589325256e-03  -3.046719113389e-03
7
Properties=species:S:1:pos:R:3:forces:R:3 energy=-6.997897174188e+02 dipole="2.6680050861e-01 -3.4329618122e-02 -1.4902810608e+00" quadrupole="-2.4220351177e+01 -3.8135145382e+00 -5.9856262137e-02 -3.8135145382e+00 -2.8626322696e+01 3.5242066159e-02 -5.9856262137e-02 3.5242066159e-02 -2.5312310256e+01" polarizability="3.7026218215e+01 -1.4800877346e+00 3.6719613839e-01 -1.4800877346e+00 3.9474684295e+01 3.8806373542e-01 3.6719613839e-01 3.8806373542e-01 3.8292687128e+01" charge=0 multiplicity=1 method=wB97M-V basis=def2-svpd config_type=h2so4 sample_index=230 temperature=300.0 units=atomic
S         0.0025832894       0.0175651889       0.1637106600  -1.315409194450e-02  -3.397743281801e-02   5.595253120621e-03
O         0.0141201889       1.2671030685       0.8890300152  -1.892448095617e-03  -3.183440542724e-03  -1.149948630175e-02
O         0.0183026266      -1.2782879733       0.8603119331  -5.775180828158e-03   2.876328369011e-02  -1.884378168755e-02
O         1.2055282875       0.0466193320      -0.8844240529   3.302440697624e-02  -2.879243764348e-02  -2.053064731341e-02
O        -1.2571229142      -0.0577951754      -0.9060827878   1.273931763981e-02  -4.170954846445e-02   4.445157926711e-02
H         1.6040784700      -0.8642315767      -1.1665549647  -2.753286560489e-02   4.084181302743e-02   2.038920367154e-02
H        -1.3821452548       0.6626521173      -1.4837512951   2.534867067289e-03   3.805656830946e-02  -1.966802645076e-02
7
Properties=species:S:1:pos:R:3:forces:R:3 energy=-6.997753388049e+02 dipole="4.7544331902e-01 -2.3406658759e-01 -7.5750237644e-01" quadrupole="-2.3956873408e+01 -4.1800034344e+00 4.5037410883e-01 -4.1800034344e+00 -2.8204289999e+01 -1.1143862746e+00 4.5037410883e-01 -1.1143862746e+00 -2.7371887334e+01" polarizability="3.8731793535e+01 -1.8158103018e+00 6.0758928865e-01 -1.8158103018e+00 4.0036735859e+01 8.9651760200e-02 6.0758928865e-01 8.9651760200e-02 3.5099679254e+01" charge=0 multiplicity=1 method=wB97M-V basis=def2-svpd config_type=h2so4 sample_index=231 temperature=300.0 units=atomic
S         0.0247040110      -0.0273873274       0.1756402075  -4.420225076546e-02   1.143202727946e-01  -4.651568853940e-02
O        -0.0039162552       1.3208619953       0.7747241620  -1.152404369079e-03  -3.633633232295e-02   2.469168775928e-03
O        -0.0043593949      -1.2933202291       0.7585141133   7.416028334519e-03  -6.311749830444e-02   4.259867052863e-02
O         1.2653472938       0.0765472416      -0.8371188043   3.782244761691e-02  -8.649146453364e-02   1.806408983244e-02
O        -1.3297384214      -0.0468657601      -0.8223836859   3.564961517439e-02  -1.990978245688e-02   2.004845022861e-02
H         1.7537917781      -0.8812123011      -0.6102852102  -2.789800814891e-02   6.882490160361e-02  -2.671316179684e-02
H        -1.3849299574       0.8464366494      -1.1334724635  -7.646013476906e-03   2.272884106528e-02  -9.898459812955e-03
7
Properties=species:S:1:pos:R:3:forces:R:3 energy=-6.997898901122e+02 dipole="-1.5240987754e-02 4.3243118462e-02 -1.3945452719e+00" quadrupole="-2.5064204478e+01 -3.8407846864e+00 -1.3438122112e-01 -3.8407846864e+00 -2.7916357924e+01 3.8634059131e-01 -1.3438122112e-01 3.8634059131e-01 -2.6102357829e+01" polarizability="3.8104647944e+01 -2.0774971656e+00 2.4026612763e-01 -2.0774971656e+00 3.9878622251e+01 3.5391896540e-01 2.4026612763e-01 3.5391896540e-01 3.7981741302e+01" charge=0 multiplicity=1 method=wB97M-V basis=def2-svpd config_type=h2so4 sample_index=232 temperature=300.0 units=atomic
S        -0.0046894254       0.0140847889       0.1440045180   1.038794181421e-03  -4.558223724651e-02   1.302146644779e-02
O        -0.0281897355       1.2588868612       0.8585888652   1.097782022238e-03   1.122216251506e-02  -4.685310375582e-03
O         0.0622436876      -1.2761456385       0.8608653425  -1.303876018430e-02   2.991052312564e-02  -2.467498440810e-02
O         1.2861569078       0.0219540017      -0.8471826252  -6.117819400298e-03  -4.941918644863e-02  -2.446236431363e-02
O        -1.3057456338      -0.0262683088      -0.8890690992   2.788918625553e-02  -2.836723755592e-02   2.130541810945e-02
H         1.4015886515      -0.9580043071      -1.2335462688  -7.606033035543e-03   5.832777454567e-02   2.533467293147e-02
H        -1.4823925125       0.8519755695      -1.1989441763  -3.278807100448e-03   2.384213918064e-02  -5.951276633779e-03
7
Properties=species:S:1:pos:R:3:forces:R:3 energy=-6.997730048936e+02 dipole="3.2771598337e-01 4.1118099128e-03 -1.3049065900e+00" quadrupole="-2.2213350705e+01 -4.7576437972e+00 6.3322135519e-01 -4.7576437972e+00 -2.8544038857e+01 -7.6485231343e-01 6.3322135519e-01 -7.6485231343e-01 -2.6718684462e+01" polarizability="3.9283766288e+01 -2.5675391783e+00 -2.1281844277e-01 -2.5675391783e+00 3.9855019942e+01 -4.7781387348e-01 -2.1281844277e-01 -4.7781387348e-01 3.6421170698e+01" charge=0 multiplicity=1 method=wB97M-V basis=def2-svpd config_type=h2so4 sample_index=233 temperature=300.0 units=atomic
S         0.0077715250       0.0050179615       0.1329087192   3.040122079794e-03   4.952311407478e-04   1.188963530337e-02
O         0.0041386774       1.2599506327       0.8301180085   8.038674092187e-04   1.388685964197e-02   2.300608601365e-03
O        -0.0425944218      -1.2581258209       0.7967325649   1.229974940715e-02  -2.346374823393e-02   1.423625921397e-02
O         1.2736302883       0.0713385889      -0.8609904726   5.004673104302e-02  -6.805680953749e-02  -6.463572760945e-03
O        -1.2792461139      -0.0827305522      -0.7827002700  -1.971581689765e-02   6.547638411518e-02  -5.665140455737e-02
H         1.9172020301      -0.8459096538      -0.8311363566  -5.914137278793e-02   7.039457560271e-02   8.915305385828e-04
H        -1.4653343550       0.8443704011      -1.2814282953   1.272836202216e-02  -5.874767999504e-02   3.370871123378e-02
7
Properties=species:S:1:pos:R:3:forces:R:3 energy=-6.997950742911e+02 dipole="-1.3763087437e-01 1.7555230654e-01 -1.0783737281e+00" quadrupole="-2.4292842409e+01 -3.8675713113e+00 3.7921013175e-01 -3.8675713113e+00 -2.7742488568e+01 7.2942914198e-02 3.7921013175e-01 7.2942914198e-02 -2.7190791999e+01" polarizability="3.5442750715e+01 -1.5297554538e+00 5.2662757886e-01 -1.5297554538e+00 3.7326348301e+01 -7.3773022809e-02 5.2662757886e-01 -7.3773022809e-02 3.5057035546e+01" charge=0 multiplicity=1 method=wB97M-V basis=def2-svpd config_type=h2so4 sample_index=234 temperature=300.0 units=atomic
S        -0.0080174125       0.0310769759       0.1510474511   2.343198800047e-03  -7.719664461370e-02  -1.271929577677e-02
O        -0.0139972580       1.2379223851       0.8509235600  -4.762333782514e-03   6.544764883631e-02   2.699530435432e-02
O         0.0502934002      -1.2571779597       0.8212645787  -7.426118091438e-03   4.656666007417e-03  -3.555513350976e-03
O         1.2356523432       0.0143476689      -0.8508039784   2.189822906260e-04   1.308202563501e-02  -4.338817091295e-03
O        -1.2467687596      -0.0517372942      -0.8796789001   6.506471671742e-03  -1.109999999242e-02   7.883721463660e-03
H         1.3846832722      -0.9282210089      -0.9369342866   1.153216891741e-02  -1.261705860692e-02  -8.203461966030e-03
H        -1.5302158619       0.8392350515      -1.0587079956  -8.443730748622e-03   1.771834486156e-02  -6.153106414078e-03
7
Properties=species:S:1:pos:R:3:forces:R:3 energy=-6.997872358223e+02 dipole="-9.8446702138e-02 4.1366866666e-02 -1.3239615179e+00" quadrupole="-2.4205813861e+01 -4.0681157419e+00 6.2698693470e-02 -4.0681157419e+00 -2.7831047856e+01 -1.7995830769e-01 6.2698693470e-02 -1.7995830769e-01 -2.6425132178e+01" polarizability="3.7335957674e+01 -3.1927472654e+00 4.9849349634e-01 -3.1927472654e+00 4.0974552364e+01 -8.3917173041e-01 4.9849349634e-01 -8.3917173041e-01 3.7910331466e+01" charge=0 multiplicity=1 method=wB97M-V basis=def2-svpd config_type=h2so4 sample_index=235 temperature=300.0 units=atomic
S        -0.0161865630      -0.0115173952       0.1627068827   1.437831866669e-02  -2.926363122189e-03   1.529974409578e-02
O        -0.0748160582       1.2867815010       0.8377868921   1.055009220908e-02  -2.336453177868e-02  -8.206313009959e-03
O         0.1116780592      -1.3041897439       0.8816378151  -2.201099805473e-02   3.874282667724e-02  -2.581851865432e-02
O         1.2324441166      -0.0092796242      -0.8765566078  -9.915088928629e-04   1.916900072138e-02   2.205388907564e-03
O        -1.2361338857       0.0426361989      -0.8988705350  -1.929086930381e-02   2.167672223273e-02  -1.409026131097e-02
H         1.4996269193      -0.8844545978      -1.1888413843  -5.147688042558e-03  -5.141016074053e-03   5.890579192450e-03
H        -1.5161311547       1.0006372778      -1.1995016639   2.255683409133e-02  -4.823117263973e-02   2.468183811034e-02
7
Properties=species:S:1:pos:R:3:forces:R:3 energy=-6.997830176387e+02 dipole="4.2623603037e-02 6.1015981299e-02 -1.0625439021e+00" quadrupole="-2.5226027677e+01 -3.7093240950e+00 -6.0328408336e-01 -3.7093240950e+00 -2.8067052492e+01 2.1079015831e-01 -6.0328408336e-01 2.1079015831e-01 -2.6801980524e+01" polarizability="3.6108096207e+01 -2.3895142475e-01 5.1845124828e-01 -2.3895142475e-01 3.8857495058e+01 -6.2722658486e-01 5.1845124828e-01 -6.2722658486e-01 3.6211727545e+01" charge=0 multiplicity=1 method=wB97M-V basis=def2-svpd config_type=h2so4 sample_index=236 temperature=300.0 units=atomic
S        -0.0006052420      -0.0128107691       0.1738863050  -4.621094679043e-03  -2.429211572769e-02  -1.493140618191e-02
O         0.0581667150       1.2661596715       0.8060384374  -1.535476787892e-02   1.981200366192e-02   1.610226805040e-02
O        -0.0367691836      -1.2815911674       0.8621687130   9.467267657330e-03   2.895300652270e-03  -2.324406182678e-03
O         1.2277233313       0.1260587030      -0.8592951905  -1.027182513590e-02   4.435265872837e-02   2.646631475644e-02
O        -1.2496252929      -0.0995246286      -0.9038587601   1.309109106231e-02   7.705630670795e-02   2.059000936384e-02
H         1.3746358011      -0.7111999905      -1.1854017816   1.878974225992e-02  -6.559548684351e-02  -3.283870885746e-02
H        -1.3477246038       0.9444305276      -0.9513215051  -1.109291776961e-02  -5.421561280332e-02  -1.308284476776e-02
7
Properties=species:S:1:pos:R:3:forces:R:3 energy=-6.997878249441e+02 dipole="4.8851759576e-02 -1.3456025020e-01 -1.0279882790e+00" quadrupole="-2.3640650147e+01 -4.4313534675e+00 3.6364194790e-01 -4.4313534675e+00 -2.7974423533e+01 -7.6950993346e-01 3.6364194790e-01 -7.6950993346e-01 -2.7177953885e+01" polarizability="3.8417937098e+01 -2.1978310833e+00 -4.7993478399e-01 -2.1978310833e+00 4.0982175737e+01 -1.0406830272e+00 -4.7993478399e-01 -1.0406830272e+00 3.7676219393e+01" charge=0 multiplicity=1 method=wB97M-V basis=def2-svpd config_type=h2so4 sample_index=237 temperature=300.0 units=atomic
S        -0.0059568937      -0.0433108311       0.1810172213   7.006068174569e-03   7.239130966426e-02  -2.317840748741e-02
O        -0.0251203998       1.2934755521       0.8016053069   3.532597806087e-03  -3.317349461803e-02   2.703812392006e-04
O         0.0075970709      -1.3036430023       0.8771727713   1.099042306998e-03   4.237291184559e-04  -7.480964462982e-03
O         1.2536306216       0.0889194168      -0.9192065171  -2.871948005314e-03  -4.600238693142e-02   2.238323360532e-02
O        -1.2364236068      -0.0010410855      -0.8689638784  -1.780931897989e-02   2.994634341264e-02  -1.418099275709e-02
H         1.6819155004      -0.8222335104      -0.9770464609  -1.247063362925e-02   2.926807090012e-02  -6.759617718417e-04
H        -1.4932812654       0.9724896572      -1.1599319928   2.154963716145e-02  -5.279965819350e-02   2.281659479281e-02
7
Properties=species:S:1:pos:R:3:forces:R:3 energy=-6.997882863496e+02 dipole="8.8708674180e-02 -4.6446883774e-02 -1.4021774468e+00" quadrupole="-2.4424429436e+01 -3.8396773518e+00 -2.2938405302e-02 -3.8396773518e+00 -2.8032587203e+01 -3.4411243577e-01 -2.2938405302e-02 -3.4411243577e-01 -2.6487092894e+01" polarizability="3.5117838180e+01 -1.9360903549e+00 -3.2192382264e-01 -1.9360903549e+00 3.9016130540e+01 3.7460321368e-01 -3.2192382264e-01 3.7460321368e-01 3.5941673027e+01" charge=0 multiplicity=1 method=wB97M-V basis=def2-svpd config_type=h2so4 sample_index=238 temperature=300.0 units=atomic
S         0.0077071086      -0.0031596647       0.1405996929   4.440389611112e-03   5.652504573005e-02   4.377786038061e-02
O        -0.0634307094       1.2922148791       0.8761741457   1.298896591476e-02  -3.979415429855e-02  -3.323484061336e-02
O         0.0197649012      -1.2458976723       0.8179371473   2.671897574148e-03  -3.737961465823e-02   2.096123119758e-02
O         1.2253995148       0.0032877547      -0.8814533519   5.767658787839e-03   4.491274870846e-02   5.060260679137e-04
O        -1.2076004836      -0.0486198529      -0.8331194347  -3.133148716494e-02   5.971785653487e-02  -3.986162741327e-02
H         1.4987042631      -0.8629703138      -1.1252667007   5.937382070919e-03  -3.088128769986e-02  -4.356649568978e-03
H        -1.3299737539       0.9451973600      -1.1321814420  -4.794129070729e-04  -5.302874246614e-02   1.208117690485e-02
7
Properties=species:S:1:pos:R:3:forces:R:3 energy=-6.997717677686e+02 dipole="1.6229391850e-01 -2.8391668694e-02 -1.1880623851e+00" quadrupole="-2.2958720761e+01 -4.4755240906e+00 -1.6825883003e+00 -4.4755240906e+00 -2.8592047107e+01 8.2327086402e-01 -1.6825883003e+00 8.2327086402e-01 -2.7123384584e+01" polarizability="3.7570467717e+01 -1.8269204776e+00 -2.6353126417e-01 -1.8269204776e+00 4.0411570360e+01 6.4136386120e-01 -2.6353126417e-01 6.4136386120e-01 3.6766539437e+01" charge=0 multiplicity=1 method=wB97M-V basis=def2-svpd config_type=h2so4 sample_index=239 temperature=300.0 units=atomic
S         0.0318474860      -0.0171745906       0.1507246983  -4.210324086339e-02   1.917904642974e-02   2.280564744097e-02
O         0.0112163850       1.2945085431       0.8294359450  -1.056018570632e-03  -2.987566886367e-02  -1.572497517820e-02
O        -0.0546716552      -1.2685414659       0.8553212729   1.637654261569e-02  -6.844427498784e-03   5.317621320239e-03
O         1.2112638035       0.0849339838      -0.8499064705   4.250732720435e-02  -8.371071619147e-03  -2.765626556410e-02
O        -1.2227373950      -0.0907585372      -0.8939943174  -3.267453716544e-02   1.019064394295e-01   2.897296977113e-02
H         1.5351567016      -0.7222383296      -1.3187457481  -1.271599512032e-02   9.307243971667e-03   1.335112895747e-02
H        -1.6664890031       0.9421469034      -0.6601470872   2.974383064847e-02  -8.533612525128e-02  -2.708922829257e-02
7
Properties=species:S:1:pos:R:3:forces:R:3 energy=-6.997780357196e+02 dipole="-1.6339809974e-01 -2.3147140979e-01 -1.2644697163e+00" quadrupole="-2.3189166154e+01 -4.4113244238e+00 -9.2193380106e-01 -4.4113244238e+00 -2.8468624873e+01 6.4866822712e-01 -9.2193380106e-01 6.4866822712e-01 -2.6072651964e+01" polarizability="3.8440390657e+01 -1.8135107200e+00 -1.7326606054e+00 -1.8135107200e+00 3.9617200323e+01 1.1296937456e+00 -1.7326606054e+00 1.1296937456e+00 3.7655072932e+01" charge=0 multiplicity=1 method=wB97M-V basis=def2-svpd config_type=h2so4 sample_index=240 temperature=300.0 units=atomic
S        -0.0014482562      -0.0409893288       0.1595641852   1.311568196882e-02   8.826808362980e-02  -2.890910447601e-02
O         0.0136551194       1.2731301702       0.7902474372  -2.892344837490e-03  -1.365638931651e-02   2.667513601589e-03
O        -0.0430494256      -1.2545699299       0.8565822897   6.483343092890e-03  -5.445776715005e-02   2.347579034763e-02
O         1.2880713194       0.1128817053      -0.8500001963   7.048855181882e-03  -8.128320261338e-02  -4.065813506312e-02
O        -1.2429765039      -0.0504864919      -0.8523714564  -1.791988877022e-02   8.398134912779e-03  -1.145803451809e-02
H         1.5268259254      -0.8037271897      -1.4467523819  -2.391684434746e-02   6.992016755353e-02   5.139657939684e-02
H        -1.7292827718       0.8166791387      -0.8802595099   1.807450810783e-02  -1.719864171806e-02   3.475278317144e-03
7
Properties=species:S:1:pos:R:3:forces:R:3 energy=-6.997748852986e+02 dipole="8.2940249211e-02 -2.2389037289e-01 -1.5900068663e+00" quadrupole="-2.4572631107e+01 -3.6785331170e+00 -2.3559328728e-01 -3.6785331170e+00 -2.8687216053e+01 1.0679582975e-01 -2.3559328728e-01 1.0679582975e-01 -2.5368426218e+01" polarizability="3.6046194608e+01 -2.3588867000e+00 -1.1496019906e+00 -2.3588867000e+00 4.1190898362e+01 1.4234446184e+00 -1.1496019906e+00 1.4234446184e+00 3.6961491262e+01" charge=0 multiplicity=1 method=wB97M-V basis=def2-svpd config_type=h2so4 sample_index=241 temperature=300.0 units=atomic
S        -0.0183789849      -0.0081474762       0.1514394621   3.674829920552e-02   3.609232269418e-02   5.933963227006e-02
O        -0.0439026281       1.3351300212       0.8503888862   6.467274737679e-03  -6.575935736494e-02  -3.267734757121e-02
O         0.0523100861      -1.3036863759       0.8154301720  -1.318579391738e-02   1.790081867664e-02  -2.342526208075e-03
O         1.2259826710       0.0139170997      -0.8582350733   3.396022201279e-02  -4.550115675108e-02  -3.577455074948e-02
O        -1.2153141342      -0.0167018917      -0.8319605109  -2.625998818290e-02  -8.411709350096e-02   2.090127872088e-02
H         1.5530752169      -0.9444568080      -1.2421532785  -3.083672412931e-02   6.396783100964e-02   3.440500680093e-02
H        -1.2740975142       0.7467779538      -1.3040470831  -6.930310211597e-03   7.740672994760e-02  -4.393634997098e-02
7
Properties=species:S:1:pos:R:3:forces:R:3 energy=-6.997777019781e+02 dipole="6.7865524188e-02 -1.5031780078e-01 -1.0470012679e+00" quadrupole="-2.2928117691e+01 -4.2764624326e+00 -6.1335676221e-01 -4.2764624326e+00 -2.8239802782e+01 6.3893705477e-01 -6.1335676221e-01 6.3893705477e-01 -2.7865834552e+01" polarizability="3.7969537701e+01 -2.3629843249e+00 -4.7439969201e-01 -2.3629843249e+00 4.0844429567e+01 1.5994504411e+00 -4.7439969201e-01 1.5994504411e+00 3.8199404672e+01" charge=0 multiplicity=1 method=wB97M-V basis=def2-svpd config_type=h2so4 sample_index=242 temperature=300.0 units=atomic
S         0.0100408952       0.0106961610       0.1606396654  -6.077622845640e-03   1.407849831868e-02   2.033818585656e-02
O        -0.0563701507       1.3217364670       0.9116473742   7.196360560961e-03  -5.988129439730e-02  -4.484746324278e-02
O         0.0429386928      -1.2800824325       0.8460457777  -3.999283373364e-03   1.999941540075e-02  -7.479670632446e-03
O         1.2325425161      -0.0171010597      -0.9093101128   1.917063636103e-02  -3.376926958191e-02  -5.097217375017e-03
O        -1.2359937117      -0.0317811695      -0.9254921115   6.788984224463e-02  -9.554692783077e-02   1.393248399231e-02
H         1.6063781959      -0.9815066729      -1.1066581993  -2.860202660820e-02   5.341304660633e-02   1.901392760606e-02
H        -1.6518102054       0.7474857979      -0.8846801713  -5.559261794757e-02   1.017895367277e-01   4.068289631518e-03
7
Properties=species:S:1:pos:R:3:forces:R:3 energy=-6.997851021712e+02 dipole="9.4661285925e-03 1.0886927047e-01 -1.5065969906e+00" quadrupole="-2.3240646508e+01 -4.2869178984e+00 -2.6352266355e-01 -4.2869178984e+00 -2.8329744800e+01 -2.3218845168e-01 -2.6352266355e-01 -2.3218845168e-01 -2.6143104338e+01" polarizability="3.7000651779e+01 -2.7414356637e+00 8.2295185901e-01 -2.7414356637e+00 4.0184252217e+01 -3.1599169389e-01 8.2295185901e-01 -3.1599169389e-01 3.6978915080e+01" charge=0 multiplicity=1 method=wB97M-V basis=def2-svpd config_type=h2so4 sample_index=243 temperature=300.0 units=atomic
S        -0.0273588926       0.0046695450       0.1391933645   2.031782312626e-02  -2.114467547448e-02   4.282338089830e-02
O        -0.0085492570       1.2812541156       0.8471288143  -4.837631698837e-03  -1.546956937461e-02  -1.545727462016e-02
O         0.0925759633      -1.2794956963       0.8386761958  -2.415320203949e-02   1.919195630129e-02  -9.492974057679e-03
O         1.2162295958      -0.0002832710      -0.8173794855   3.359920936954e-02   1.558138367461e-02  -3.629279488597e-02
O        -1.2567294435      -0.0193395875      -0.8792923964  -1.967697791654e-02   4.884047271444e-02  -2.207386128106e-02
H         1.6606246029      -0.8164386922      -1.1559034968  -2.152695125338e-02   8.974564285720e-03   1.643865981059e-02
H        -1.4863265367       0.9536044204      -1.2207077211   1.627292351109e-02  -5.605619322514e-02   2.395397599240e-02
7
Properties=species:S:1:pos:R:3:forces:R:3 energy=-6.997969292260e+02 dipole="1.0574275903e-01 1.9844095644e-02 -9.3729855050e-01" quadrupole="-2.3936558429e+01 -4.0773793641e+00 2.3341091094e-01 -4.0773793641e+00 -2.8034997229e+01 -2.1877306166e-01 2.3341091094e-01 -2.1877306166e-01 -2.7472560838e+01" polarizability="3.6760377493e+01 -1.7548545974e+00 -3.3299000777e-01 -1.7548545974e+00 3.8743102647e+01 -3.1685204826e-01 -3.3299000777e-01 -3.1685204826e-01 3.4541049809e+01" charge=0 multiplicity=1 method=wB97M-V basis=def2-svpd config_type=h2so4 sample_index=244 temperature=300.0 units=atomic
S         0.0042736430       0.0006270703       0.1511223235  -8.799708865573e-04  -2.285914857499e-02  -1.487847087862e-03
O        -0.0484049397       1.2823969296       0.7833449006   5.491413696088e-03   1.601113158117e-02   1.598171361253e-02
O         0.0265019331      -1.3017576015       0.7998575710   1.736385850104e-03   1.385147126670e-02  -2.544960723755e-03
O         1.2851261596       0.0359837023      -0.8465480873  -6.545767260263e-03  -1.747091221183e-02   5.417793537127e-03
O        -1.2806265189      -0.0168855700      -0.8104101461   1.346404147626e-02  -4.163367494184e-02  -8.018993421413e-04
H         1.6081657506      -0.8939982891      -0.8164102831   7.557865636132e-04   1.217099879802e-02  -5.962715534917e-03
H        -1.4687418078       0.8824435181      -0.9714830328  -1.401801424513e-02   3.993266825807e-02  -1.063936484719e-02
7
Properties=species:S:1:pos:R:3:forces:R:3 energy=-6.997795364320e+02 dipole="-2.2476498026e-01 6.0029848798e-02 -1.5257043859e+00" quadrupole="-2.5124823307e+01 -3.2915257894e+00 5.5604874679e-02 -3.2915257894e+00 -2.9015435617e+01 3.4325789672e-01 5.5604874679e-02 3.4325789672e-01 -2.4602683839e+01" polarizability="3.5552733365e+01 -3.7475156229e-01 1.9949387622e-01 -3.7475156229e-01 3.9266450399e+01 7.5446496943e-02 1.9949387622e-01 7.5446496943e-02 3.7474028638e+01" charge=0 multiplicity=1 method=wB97M-V basis=def2-svpd config_type=h2so4 sample_index=245 temperature=300.0 units=atomic
S        -0.0382839036       0.0087006222       0.1762323549   3.485868900860e-02  -5.009812032999e-02   3.901084537260e-03
O         0.0731342297       1.2776917469       0.8334494196  -1.741044997474e-02   7.168768137081e-03   9.311405693451e-03
O         0.0174228039      -1.3118024971       0.8686951370  -1.436528799721e-02   5.141071452558e-02  -2.717895878774e-02
O         1.2118786352       0.0915975204      -0.8484248831   7.800821600092e-03  -1.819710729778e-02  -1.690488983646e-02
O        -1.2200384567      -0.0699232326      -0.9123093107   1.965145186322e-02  -1.273124279715e-01   8.128174437662e-02
H         1.3218278681      -0.7222341562      -1.4078468128  -5.466726703889e-03   1.532685622056e-02   1.630479133326e-02
H        -1.4198980185       0.6447977894      -1.3655453895  -2.511565710497e-02   1.217709248542e-01  -6.671289845994e-02
7
Properties=species:S:1:pos:R:3:forces:R:3 energy=-6.997789808495e+02 dipole="-8.2792282622e-02 1.2492052992e-01 -1.3167209006e+00" quadrupole="-2.4937599556e+01 -3.7713050594e+00 -2.7120862421e-01 -3.7713050594e+00 -2.8690410747e+01 6.1214943412e-01 -2.7120862421e-01 6.1214943412e-01 -2.4594735892e+01" polarizability="3.7062579792e+01 -9.7755306384e-01 1.2058324837e-01 -9.7755306384e-01 3.9756675318e+01 5.4227986820e-01 1.2058324837e-01 5.4227986820e-01 3.6631681235e+01" charge=0 multiplicity=1 method=wB97M-V basis=def2-svpd config_type=h2so4 sample_index=246 temperature=300.0 units=atomic
S         0.0082885220       0.0147838725       0.1895180718  -1.941386073658e-02  -8.048212117954e-02  -5.417981405276e-02
O         0.0426742131       1.2876098887       0.7517539622  -7.870064752981e-03   6.422980802784e-02   5.043183843318e-02
O        -0.0280993207      -1.3132313163       0.7765276622   3.187516193788e-03   1.851803908864e-02   9.780197769315e-03
O         1.2662639093       0.0914684772      -0.7837632392   1.161452812201e-02  -6.824691502562e-02  -6.834726135380e-02
O        -1.2777573380      -0.0940051769      -0.8419105111   9.743192600014e-03  -1.990287397876e-03   5.138773472833e-03
H         1.2992516369      -0.7793084669      -1.4555398405  -2.893242415922e-03   6.321656353473e-02   5.395789136078e-02
H        -1.6087120725       0.7536376361      -1.1703961670   5.637815340161e-03   4.784205766777e-03   3.271356070486e-03
7
Properties=species:S:1:pos:R:3:forces:R:3 energy=-6.997894950762e+02 dipole="9.9767791530e-02 -6.1851713694e-02 -1.0944979720e+00" quadrupole="-2.2167624749e+01 -4.8314365994e+00 -9.7376433522e-02 -4.8314365994e+00 -2.8215539798e+01 -1.7305019862e-01 -9.7376433522e-02 -1.7305019862e-01 -2.8134484492e+01" polarizability="3.8196651711e+01 -2.4675098855e+00 2.5652608729e-01 -2.4675098855e+00 3.9686396265e+01 -1.5046789436e-01 2.5652608729e-01 -1.5046789436e-01 3.5866491689e+01" charge=0 multiplicity=1 method=wB97M-V basis=def2-svpd config_type=h2so4 sample_index=247 temperature=300.0 units=atomic
S         0.0195053566      -0.0145023253       0.1246120209  -3.347406882826e-02   4.062318713165e-02   3.768726680040e-02
O        -0.0241652360       1.2708757752       0.8323553601   3.095391595960e-03  -1.804743339120e-02  -1.393202429192e-02
O         0.0009548704      -1.2621142680       0.8450488364   7.861869953383e-03  -9.873938352275e-03  -5.314518208577e-03
O         1.2588854722       0.0530741974      -0.8498529305   2.188141315974e-02  -3.470224042009e-02  -1.204664936102e-02
O        -1.2712218194      -0.0371628383      -0.8509645194  -2.274108311122e-02   5.763477820600e-02  -6.944925655825e-03
H         1.6682340703      -0.8657231643      -0.8692819557  -1.042295327229e-02   2.703442201983e-02  -2.498811416469e-03
H        -1.7214129847       0.9344952520      -0.8668064104   3.384048565364e-02  -6.264671604028e-02   2.937728421897e-03
7
Properties=species:S:1:pos:R:3:forces:R:3 energy=-6.997885157595e+02 dipole="8.5932674856e-02 -8.0884460583e-02 -1.0682549515e+00" quadrupole="-2.4982457657e+01 -3.8010720753e+00 -1.2608473818e-01 -3.8010720753e+00 -2.7683758896e+01 -4.0952325069e-01 -1.2608473818e-01 -4.0952325069e-01 -2.6908509117e+01" polarizability="3.7941860255e+01 -2.2698093151e+00 8.1826603766e-01 -2.2698093151e+00 4.0084524627e+01 8.7042988928e-01 8.1826603766e-01 8.7042988928e-01 3.7190993964e+01" charge=0 multiplicity=1 method=wB97M-V basis=def2-svpd config_type=h2so4 sample_index=248 temperature=300.0 units=atomic
S        -0.0186394596       0.0001259960       0.1679637961   1.012394877119e-02   5.548027334296e-02  -1.572366185673e-02
O        -0.0344851975       1.3173617009       0.8751626037  -7.404312569051e-04  -5.098914163981e-02  -3.358701055944e-02
O         0.1017737850      -1.2621783007       0.7966700466  -1.716595748340e-02  -3.585443775798e-02   2.868998816279e-02
O         1.2604962477      -0.0250402002      -0.8531167551  -7.030162508558e-03   2.288059975325e-02  -3.637209599693e-03
O        -1.3062702821      -0.0309661869      -0.8999894771   3.073764646749e-02   3.282982350112e-02   1.760524846519e-02
H         1.5734691882      -0.9319673737      -1.0107590719  -6.924127004160e-03   8.953592498520e-04   5.185332330649e-03
H        -1.3237938093       0.9374387152      -1.1612916366  -8.988033324423e-03  -2.529669308507e-02   1.375985093583e-03
7
Properties=species:S:1:pos:R:3:forces:R:3 energy=-6.997660108996e+02 dipole="-1.9370657383e-01 1.4111802928e-01 -8.7440776445e-01" quadrupole="-2.3162065389e+01 -4.7770403719e+00 -1.0182389307e-01 -4.7770403719e+00 -2.7631840805e+01 2.1266805359e-01 -1.0182389307e-01 2.1266805359e-01 -2.8323436222e+01" polarizability="3.9193969575e+01 -2.9177045815e+00 6.3556685437e-01 -2.9177045815e+00 4.0006310711e+01 1.3637037250e-01 6.3556685437e-01 1.3637037250e-01 3.5511744632e+01" charge=0 multiplicity=1 method=wB97M-V basis=def2-svpd config_type=h2so4 sample_index=249 temperature=300.0 units=atomic
S         0.0063041844       0.0169262759       0.1366226939  -1.516634716975e-02  -6.827180926922e-03  -8.063581203065e-03
O        -0.0119319936       1.2650177422       0.8357507981  -3.635022381595e-03   2.026979037296e-02   4.049828327288e-03
O         0.0158483477      -1.2522809030       0.8001826619   4.751826276394e-03  -2.078733114063e-02   1.214166075640e-02
O         1.2908457822       0.0264368914      -0.8310251720  -9.867357846339e-03  -3.251328582121e-03  -1.568302014777e-03
O        -1.2877176542      -0.0786281017      -0.8622184906  -2.901025328406e-02   1.091947922409e-01   1.852092680390e-02
H         1.4725068641      -0.9251936663      -0.8693405649   1.101406931873e-02  -2.092190153856e-03  -8.249420260200e-03
H        -1.7811996839       1.0086880955      -0.7167875867   4.195392118538e-02  -9.650472424715e-02  -1.692480933186e-02
7
Properties=species:S:1:pos:R:3:forces:R:3 energy=-6.997753813761e+02 dipole="-3.5702513402e-01 1.3796440217e-01 -1.1673291202e+00" quadrupole="-2.4973900488e+01 -3.7912468336e+00 -2.7150376509e-02 -3.7912468336e+00 -2.8335974370e+01 8.4981597311e-01 -2.7150376509e-02 8.4981597311e-01 -2.5262113694e+01" polarizability="3.6173830692e+01 -1.5466800013e+00 -4.2548997643e-01 -1.5466800013e+00 4.0544779013e+01 1.4476041180e+00 -4.2548997643e-01 1.4476041180e+00 3.6257591640e+01" charge=0 multiplicity=1 method=wB97M-V basis=def2-svpd config_type=h2so4 sample_index=250 temperature=300.0 units=atomic
S        -0.0122214806       0.0305567872       0.2032140762   2.927766481764e-02  -4.109877567280e-02  -5.115657587439e-02
O         0.0100021926       1.3215758322       0.7966483498  -4.744142842154e-03   1.871666064265e-02   2.208498946389e-02
O        -0.0142846125      -1.2970086123       0.7329781995   2.658028912279e-03  -1.322797281582e-02   4.053228720829e-02
O         1.2482496773       0.0347714455      -0.8258379856   3.147727807136e-03  -5.428661563968e-02  -4.776520889311e-02
O        -1.1970220332      -0.1170205000      -0.8381254210  -4.374832736876e-02   6.031469152073e-02  -1.929436916316e-02
H         1.2302570404      -0.8793209423      -1.4480957070  -1.084836662827e-03   6.930501806416e-02   5.306546889931e-02
H        -1.5833966441       0.8144991052      -1.0107840468   1.446212030053e-02  -3.975953616307e-02   2.491688556502e-03
7
Properties=species:S:1:pos:R:3:forces:R:3 energy=-6.997827930067e+02 dipole="-1.9869735108e-01 -1.4327498764e-01 -8.0832555860e-01" quadrupole="-2.5783121104e+01 -3.4480581322e+00 -6.0885224144e-01 -3.4480581322e+00 -2.7418788284e+01 4.9244675744e-01 -6.0885224144e-01 4.9244675744e-01 -2.6899686383e+01" polarizability="3.6871831016e+01 -1.3775806929e+00 1.5125087544e-01 -1.3775806929e+00 3.7970660360e+01 3.3671674368e-01 1.5125087544e-01 3.3671674368e-01 3.5578701960e+01" charge=0 multiplicity=1 method=wB97M-V basis=def2-svpd config_type=h2so4 sample_index=251 temperature=300.0 units=atomic
S        -0.0334107528      -0.0306540031       0.1867557088   3.582923503782e-02   6.354478230056e-02  -8.003127813443e-02
O         0.0020595529       1.2698218781       0.7809297803  -1.307557525021e-02   1.698294145037e-02   1.900779389596e-02
O         0.0626817848      -1.2511259026       0.8268309564  -7.017245323325e-03  -8.254748436284e-02   4.704673672503e-02
O         1.2816265279       0.0606753923      -0.8370655001  -2.515884461911e-02  -2.684114062842e-02   2.737491776209e-03
O        -1.2767869834      -0.0244239429      -0.9002889488   2.009144554938e-02   2.298109179502e-02   2.999631665481e-02
H         1.3253737876      -0.8564952971      -1.2026827249   7.832863639528e-03   1.620097226768e-02   9.435789224481e-04
H        -1.3725774501       0.9558937147      -0.8015815088  -1.851341650904e-02  -1.033971977845e-02  -1.970126226650e-02
7
Properties=species:S:1:pos:R:3:forces:R:3 energy=-6.997772150385e+02 dipole="-1.9158415732e-01 -7.3606906513e-02 -1.1195434092e+00" quadrupole="-2.5171429107e+01 -3.5030639187e+00 -9.9316428462e-02 -3.5030639187e+00 -2.7905513509e+01 5.0569980059e-01 -9.9316428462e-02 5.0569980059e-01 -2.5409100532e+01" polarizability="3.6067350564e+01 -1.6030533421e+00 2.2594452512e-01 -1.6030533421e+00 3.8394278603e+01 9.1272583925e-01 2.2594452512e-01 9.1272583925e-01 3.7242737883e+01" charge=0 multiplicity=1 method=wB97M-V basis=def2-svpd config_type=h2so4 sample_index=252 temperature=300.0 units=atomic
S         0.0237485905      -0.0175331585       0.2048467146  -2.407674940730e-02   6.726646297319e-02  -9.460419183965e-02
O        -0.0277264453       1.2582202004       0.8115089613   4.015074317812e-03   3.456731614008e-02   2.938535729104e-02
O         0.0049720023      -1.2410214174       0.8395489056  -1.893548598603e-04  -8.528194512550e-02   4.719431691800e-02
O         1.2227122970       0.0558967933      -0.8653301912  -5.001581505109e-03  -6.919042933878e-02  -4.489439721875e-02
O        -1.2110391495      -0.0407651577      -0.9150641673  -1.007069190328e-02   1.464544702117e-02   7.732431470011e-03
H         1.0727766114      -0.8204922621      -1.5093098466   1.521752556403e-02   6.446584125081e-02   4.619217989589e-02
H        -1.6458360316       0.8560267089      -1.0429887743   2.016527832886e-02  -2.645497881702e-02   8.967811031205e-03
7
Properties=species:S:1:pos:R:3:forces:R:3 energy=-6.997795037417e+02 dipole="1.7958607381e-01 1.3064871842e-01 -1.2087031082e+00" quadrupole="-2.5259545367e+01 -3.5189410918e+00 5.4458952486e-01 -3.5189410918e+00 -2.7846463021e+01 -1.1132945552e-01 5.4458952486e-01 -1.1132945552e-01 -2.5491247042e+01" polarizability="3.5559875212e+01 -1.2065377265e+00 -1.3382998067e+00 -1.2065377265e+00 3.7847234861e+01 -1.0564702133e+00 -1.3382998067e+00 -1.0564702133e+00 3.7715765035e+01" charge=0 multiplicity=1 method=wB97M-V basis=def2-svpd config_type=h2so4 sample_index=253 temperature=300.0 units=atomic
S         0.0356934122       0.0207550162       0.1986956747  -1.073638502149e-02  -8.470198475294e-02  -7.719991651743e-02
O        -0.0769251175       1.2218451776       0.8634620834   1.662613533326e-02   9.307008017523e-02   4.770495736997e-02
O        -0.0642632012      -1.2529000121       0.8554295270   2.083085888584e-02  -9.617383392197e-03   5.878363741958e-03
O         1.2235614219       0.0525955535      -0.9907109011  -1.092589139832e-02   3.169486623673e-02   4.120159944489e-02
O        -1.1650291846      -0.0604907627      -0.8403284407  -2.986582983129e-02   4.262011718819e-02  -4.568441520282e-02
H         1.4466219369      -0.8398488899      -1.2007062575   5.999527076038e-03  -2.777031708477e-02  -5.150558507464e-03
H        -1.2642693665       0.8042346785      -1.4118655661   8.081279521410e-03  -4.529397890145e-02   3.327623348352e-02
7
Properties=species:S:1:pos:R:3:forces:R:3 energy=-6.997660760937e+02 dipole="-5.3007667346e-02 -2.0685266161e-01 -1.0716884089e+00" quadrupole="-2.5394264483e+01 -3.7431778619e+00 -9.2044068073e-01 -3.7431778619e+00 -2.7332661561e+01 3.6779600757e-01 -9.2044068073e-01 3.6779600757e-01 -2.6870610578e+01" polarizability="3.7738472805e+01 -2.5558717713e+00 1.1606128017e-01 -2.5558717713e+00 3.9489085620e+01 1.0402706958e+00 1.1606128017e-01 1.0402706958e+00 3.7102233756e+01" charge=0 multiplicity=1 method=wB97M-V basis=def2-svpd config_type=h2so4 sample_index=254 temperature=300.0 units=atomic
S         0.0043599574      -0.0436711715       0.1599266393  -1.148627563493e-02   1.621848587673e-01  -5.837260958733e-02
O        -0.0697227850       1.2872844752       0.8475304197   8.547662323693e-03  -4.428918445585e-02  -2.718337916381e-02
O         0.0622190080      -1.2137853507       0.8498164494  -1.044368210003e-03  -1.237995372747e-01   6.644230597453e-02
O         1.2784911395       0.0083031979      -0.8617371506  -1.074353230465e-02  -2.288681093963e-03   5.586027257785e-04
O        -1.2708241534      -0.0107533743      -0.9040827309   7.565481366218e-03   8.616220265302e-02   3.052208623110e-02
H         1.3254301568      -0.8440652360      -1.3455873513   3.822175557626e-04   7.890192499505e-03   5.736849206317e-03
H        -1.4625077439       1.0953165992      -0.7640721624   6.814104850990e-03  -8.585099998525e-02  -1.773519852271e-02
7
Properties=species:S:1:pos:R:3:forces:R:3 energy=-6.997816125503e+02 dipole="-4.3463267810e-02 2.1497424959e-01 -8.8137509054e-01" quadrupole="-2.4292558907e+01 -4.2929584323e+00 9.3309502069e-01 -4.2929584323e+00 -2.7658940505e+01 -4.4233709227e-01 9.3309502069e-01 -4.4233709227e-01 -2.7602094390e+01" polarizability="4.0206035864e+01 -3.3504185057e+00 -2.5377667314e-01 -3.3504185057e+00 4.2417693019e+01 -1.2674271360e-01 -2.5377667314e-01 -1.2674271360e-01 3.8120394722e+01" charge=0 multiplicity=1 method=wB97M-V basis=def2-svpd config_type=h2so4 sample_index=255 temperature=300.0 units=atomic
S         0.0082765469       0.0417751332       0.1792207408  -2.970652689812e-03  -5.790473304650e-02  -2.199324437326e-02
O        -0.1041933325       1.3211850031       0.8597234648   1.603600700744e-02  -1.494681149966e-02  -5.920732904377e-03
O         0.0648812047      -1.3319204170       0.7892012055  -6.449543365628e-03   5.887713400449e-02  -1.212083671604e-02
O         1.3111686347      -0.0481845242      -0.9146472247  -2.161913427859e-02  -1.514347332623e-02   2.970335334499e-02
O        -1.2882106404      -0.0196238719      -0.8521665721   4.276551217933e-03   4.588573673790e-02  -4.872119023320e-03
H         1.5758819072      -1.0216765081      -0.8231797845  -8.384702773681e-03   3.321731072956e-02  -3.654087879060e-03
H        -1.5773483257       0.9419464367      -1.1384714479   1.912857878027e-02  -5.003081362066e-02   1.885736941414e-02
7
Properties=species:S:1:pos:R:3:forces:R:3 energy=-6.997664864059e+02 dipole="-5.3710534512e-02 4.0303602213e-02 -1.3695401903e+00" quadrupole="-2.4688339815e+01 -4.1027686582e+00 4.6294177300e-01 -4.1027686582e+00 -2.7777265531e+01 1.9704836123e-02 4.6294177300e-01 1.9704836123e-02 -2.6473678682e+01" polarizability="3.6876048353e+01 -2.0698487567e+00 1.0066905549e+00 -2.0698487567e+00 4.0340510915e+01 -7.5243255307e-01 1.0066905549e+00 -7.5243255307e-01 3.7695795069e+01" charge=0 multiplicity=1 method=wB97M-V basis=def2-svpd config_type=h2so4 sample_index=256 temperature=300.0 units=atomic
S        -0.0166922227       0.0099487251       0.1476310738  -5.504245552599e-03  -8.180700665543e-02   7.264594146378e-03
O         0.0347370172       1.2227064003       0.8348262918  -1.329143887203e-02   6.772625679157e-02   3.751950616322e-02
O         0.0589285672      -1.2924710513       0.8986663355  -1.452671405171e-02   4.627853316146e-02  -4.285206457905e-02
O         1.2080543078       0.0894847769      -0.8437190053   2.691298237108e-02  -1.117156883905e-01  -2.863471782814e-02
O        -1.2611936461      -0.0261081015      -0.9190894221   2.016187281912e-03  -1.181320976281e-02   1.182435279957e-02
H         1.3703586854      -1.0385957369      -1.0037494762  -4.468587932933e-03   9.315964169298e-02   5.686538139167e-03
H        -1.4900305673       0.8296156100      -1.3306768010   8.813191124790e-03  -1.852364463799e-03   9.139097242425e-03
7
Properties=species:S:1:pos:R:3:forces:R:3 energy=-6.997857199724e+02 dipole="-5.0796678184e-02 -2.2327036857e-01 -1.0850991532e+00" quadrupole="-2.3610464707e+01 -4.1493946509e+00 4.7049301882e-01 -4.1493946509e+00 -2.7990670930e+01 -4.2546936960e-01 4.7049301882e-01 -4.2546936960e-01 -2.7305870139e+01" polarizability="3.4853566378e+01 -1.9918247099e+00 -5.1868391322e-01 -1.9918247099e+00 3.8350981018e+01 1.9342401112e-01 -5.1868391322e-01 1.9342401112e-01 3.3618390264e+01" charge=0 multiplicity=1 method=wB97M-V basis=def2-svpd config_type=h2so4 sample_index=257 temperature=300.0 units=atomic
S         0.0089585291      -0.0251335010       0.1449879967  -9.941550608805e-04   1.076947739852e-01   2.166180802752e-02
O        -0.0562711001       1.2890155311       0.7865052054   9.845918479715e-03  -1.722656994652e-02   5.440454186404e-03
O         0.0131662058      -1.2671911405       0.7904235039   5.982346672180e-03  -5.954157578921e-02   3.167805148407e-02
O         1.2370496645       0.0472657133      -0.8430278752   2.284874510037e-02  -6.226778414674e-02  -7.446741215460e-03
O        -1.2063661860      -0.0131987232      -0.7927294794  -4.313729332045e-02  -2.211357848606e-02  -4.097398254162e-02
H         1.4575014642      -0.9592108994      -0.8577885603   4.861715847631e-03   4.481182906141e-02  -1.135786151142e-02
H        -1.5451867459       0.8693607458      -0.9605246445   5.830762584424e-04   8.735338626057e-03   9.210193927560e-04
7
Properties=species:S:1:pos:R:3:forces:R:3 energy=-6.997708187813e+02 dipole="8.6211209345e-02 -1.1161983495e-01 -1.7797064708e+00" quadrupole="-2.5406747467e+01 -3.4060422547e+00 1.4955470066e-01 -3.4060422547e+00 -2.8746389540e+01 4.5338057267e-01 1.4955470066e-01 4.5338057267e-01 -2.3484263255e+01" polarizability="3.4874415452e+01 -1.2559734168e+00 -9.2847321011e-01 -1.2559734168e+00 3.9354308931e+01 7.6602130231e-01 -9.2847321011e-01 7.6602130231e-01 3.9091153286e+01" charge=0 multiplicity=1 method=wB97M-V basis=def2-svpd config_type=h2so4 sample_index=258 temperature=300.0 units=atomic
S         0.0011211345       0.0142466990       0.1776817684   1.609177974541e-02  -1.549003797780e-02  -7.159445505463e-03
O         0.0177305932       1.2548617946       0.8753280206   2.245436898203e-03   2.151238597383e-02   8.160720850013e-03
O        -0.0532387859      -1.2539026346       0.8374161249   8.222613646462e-03  -1.481291011816e-02   1.409676186392e-02
O         1.1773154680       0.0881235106      -0.9083203462   4.342827487171e-02  -7.023142296469e-02  -4.368544963880e-02
O        -1.1550602135      -0.0992901690      -0.8473913423  -5.597275816900e-02   3.157163032430e-02  -6.582245129627e-02
H         1.3829651092      -0.8891149896      -1.4359330003  -2.209439539322e-02   7.791342824679e-02   4.953210841627e-02
H        -1.2077685545       0.5981457903      -1.6103092166   8.048619007334e-03  -3.050425944543e-02   4.477172625849e-02
7
Properties=species:S:1:pos:R:3:forces:R:3 energy=-6.997679654512e+02 dipole="1.1124124603e-01 9.5213515202e-02 -8.1727053431e-01" quadrupole="-2.2364216495e+01 -4.8036969968e+00 7.8183443193e-01 -4.8036969968e+00 -2.7659634957e+01 -2.6353327865e-01 7.8183443193e-01 -2.6353327865e-01 -2.8045827911e+01" polarizability="3.7403253995e+01 -3.3340159374e+00 2.7554758125e-01 -3.3340159374e+00 3.9539524828e+01 -3.0662641653e-01 2.7554758125e-01 -3.0662641653e-01 3.4951271676e+01" charge=0 multiplicity=1 method=wB97M-V basis=def2-svpd config_type=h2so4 sample_index=259 temperature=300.0 units=atomic
S         0.0284386766       0.0330026325       0.1693893391  -3.392471548326e-02  -6.981366798854e-02  -4.328881963163e-02
O        -0.0609242966       1.2539308313       0.8262583855   6.503133400234e-03   7.277720425298e-02   4.490904559860e-02
O         0.0192257901      -1.2766927508       0.7847158901   6.741617552650e-03  -1.049975554501e-03   1.295707720211e-02
O         1.2061299168       0.0049817901      -0.8801030631   5.680910521501e-02  -8.571957058154e-02   1.294200592149e-02
O        -1.2155505794      -0.0355893966      -0.8461502136  -3.530791083972e-02   3.497519571080e-02  -1.805665147479e-02
H         1.6249017667      -1.0501506527      -0.6728788949  -3.100736895845e-02   8.813203175874e-02  -2.248400028096e-02
H        -1.7132399575       0.8490953166      -1.0120286559   3.018527331242e-02  -3.927656958718e-02   1.300851122463e-02
7
Properties=species:S:1:pos:R:3:forces:R:3 energy=-6.997879862783e+02 dipole="-1.4867710002e-01 -1.0396444557e-02 -1.5494063599e+00" quadrupole="-2.4123119604e+01 -3.8159338157e+00 -6.6049456657e-02 -3.8159338157e+00 -2.8905222236e+01 3.3926134094e-01 -6.6049456657e-02 3.3926134094e-01 -2.5221831698e+01" polarizability="3.6097323905e+01 -3.9117905651e-01 -1.1927105247e-01 -3.9117905651e-01 3.9071257323e+01 3.1179865352e-01 -1.1927105247e-01 3.1179865352e-01 3.8278177525e+01" charge=0 multiplicity=1 method=wB97M-V basis=def2-svpd config_type=h2so4 sample_index=260 temperature=300.0 units=atomic
S        -0.0176145227      -0.0006519157       0.1630755410   1.437859594496e-02  -1.778806003312e-02   1.533654611261e-02
O         0.0769327761       1.2597094797       0.8623921116  -1.495155686858e-02  -5.832649316169e-04  -3.728895726818e-03
O        -0.0321048827      -1.2771516347       0.8926979215  -8.271834773444e-04   2.767446174914e-02  -2.556489978098e-02
O         1.2060680246       0.1162029575      -0.8754078520   1.989161468101e-02  -4.250323820680e-02  -2.533160641612e-02
O        -1.2076213694      -0.0929688714      -0.9171105500   1.259201595471e-02  -6.668414818234e-02   3.322807432203e-02
H         1.4103652891      -0.7436547213      -1.4005153607  -1.405479597731e-02   3.649066480192e-02   2.748347743643e-02
H        -1.5404905570       0.6720120373      -1.2859304063  -1.704205726656e-02   6.343743696165e-02  -2.146277894976e-02
7
Properties=species:S:1:pos:R:3:forces:R:3 energy=-6.997931437564e+02 dipole="-2.3888092419e-01 9.8553980292e-02 -1.5550690482e+00" quadrupole="-2.4883799336e+01 -3.7181030091e+00 1.2423853054e-01 -3.7181030091e+00 -2.9067481199e+01 9.4025321590e-02 1.2423853054e-01 9.4025321590e-02 -2.5106729110e+01" polarizability="3.8195067683e+01 -1.4695306678e-01 3.8678837355e-01 -1.4695306678e-01 4.0395592728e+01 -1.5537791016e-01 3.8678837355e-01 -1.5537791016e-01 3.8661297656e+01" charge=0 multiplicity=1 method=wB97M-V basis=def2-svpd config_type=h2so4 sample_index=261 temperature=300.0 units=atomic
S        -0.0247650742       0.0059960589       0.1529322515   2.513453401568e-02  -2.082863232236e-02   2.661099158480e-02
O         0.0854629085       1.2904128855       0.8470897663  -1.886162469577e-02  -2.259805485478e-02  -1.390071882916e-02
O        -0.0316020035      -1.3025362080       0.8608567626  -6.682968423538e-04   4.545874215848e-02  -2.799021154673e-02
O         1.2873660310       0.1114873806      -0.8428893775  -1.923098077425e-02  -8.312438218246e-03   1.369023178095e-03
O        -1.2823070938      -0.1150864063      -0.8851664050   9.104908652818e-03   1.131374469037e-02   5.360119175473e-03
H         1.3756260366      -0.6882519747      -1.3896742122  -9.996227949456e-04  -3.832146970106e-04   3.097767894809e-03
H        -1.5274248927       0.7470660307      -1.2807582186   5.473910788538e-03  -4.561356998662e-03   5.484644195692e-03
7
Properties=species:S:1:pos:R:3:forces:R:3 energy=-6.997803142982e+02 dipole="-7.9220129679e-02 1.6619006022e-01 -1.2459753413e+00" quadrupole="-2.6337761563e+01 -3.2720158476e+00 1.4186368301e-01 -3.2720158476e+00 -2.7836615251e+01 5.6999245187e-01 1.4186368301e-01 5.6999245187e-01 -2.5071800610e+01" polarizability="3.6490836373e+01 -1.6085172829e+00 -1.0722473402e+00 -1.6085172829e+00 4.0791504419e+01 2.2895912014e-02 -1.0722473402e+00 2.2895912014e-02 3.9647939400e+01" charge=0 multiplicity=1 method=wB97M-V basis=def2-svpd config_type=h2so4 sample_index=262 temperature=300.0 units=atomic
S         0.0036597404       0.0259586092       0.2169546751   9.355826947086e-03  -1.011088542856e-01  -6.152008721860e-02
O        -0.0536426234       1.2720003850       0.8629754667   8.650032234442e-03   4.288457280617e-02   2.438870080690e-02
O         0.0029337138      -1.3058776038       0.8695093115   8.576406541749e-04   4.711468251644e-02  -1.541434189216e-02
O         1.2212665828       0.0362804099      -0.9602572735  -4.064019298351e-03  -4.851254858407e-02  -5.393609600368e-04
O        -1.1746603068      -0.0507166569      -0.9090013640  -1.329634772924e-02   2.202594006229e-02   1.514463542625e-03
H         1.2331812326      -0.9085717796      -1.4674098249  -5.000914931365e-03   6.119032706863e-02   3.937936902675e-02
H        -1.2826283407       0.8518869720      -1.3263570174   3.497241854476e-03  -2.358236300698e-02   1.220886515509e-02
7
Properties=species:S:1:pos:R:3:forces:R:3 energy=-6.997759736736e+02 dipole="3.4734076754e-02 -1.5660946409e-01 -9.5914167884e-01" quadrupole="-2.1854548493e+01 -4.6257500972e+00 8.6019294314e-01 -4.6257500972e+00 -2.8601388120e+01 -7.2854538387e-01 8.6019294314e-01 -7.2854538387e-01 -2.7685310816e+01" polarizability="3.9387084465e+01 -2.9062284498e+00 -5.5916314841e-01 -2.9062284498e+00 4.1521589615e+01 1.0206456444e+00 -5.5916314841e-01 1.0206456444e+00 3.7458812188e+01" charge=0 multiplicity=1 method=wB97M-V basis=def2-svpd config_type=h2so4 sample_index=263 temperature=300.0 units=atomic
S        -0.0120548775      -0.0028435776       0.1792268791   2.014214990117e-02   7.403181259660e-02  -1.083451870344e-02
O        -0.0300337820       1.3422400074       0.8761047855   1.802622195578e-03  -6.795473088217e-02  -3.124452774641e-02
O         0.0244445636      -1.2927524512       0.7961623301  -3.546491020762e-03  -1.067231863121e-02   1.656566454593e-02
O         1.2399632640       0.0052387686      -0.9216626420   3.324009810477e-02  -5.876706507392e-02   2.218259776662e-02
O        -1.2241686123      -0.0398490959      -0.8676550072   3.666763394866e-03  -3.412827945495e-02   5.949367710896e-03
H         1.8567936375      -0.9097246633      -0.8168838310  -5.326834119287e-02   6.974384038543e-02  -3.340360361672e-03
H        -1.6375095968       0.7619653210      -1.1491639757  -2.049557720301e-03   2.776677292185e-02   6.750088526044e-04
7
Properties=species:S:1:pos:R:3:forces:R:3 energy=-6.997461567363e+02 dipole="-5.0395992203e-02 -2.5088245613e-01 -7.9371911871e-01" quadrupole="-2.2336879346e+01 -4.8715789655e+00 -1.4021859590e+00 -4.8715789655e+00 -2.8328083604e+01 6.3353767828e-01 -1.4021859590e+00 6.3353767828e-01 -2.8607179819e+01" polarizability="4.1510055033e+01 -2.4110829893e+00 -6.1281587822e-01 -2.4110829893e+00 4.0596002730e+01 8.5372594096e-01 -6.1281587822e-01 8.5372594096e-01 3.6977775470e+01" charge=0 multiplicity=1 method=wB97M-V basis=def2-svpd config_type=h2so4 sample_index=264 temperature=300.0 units=atomic
S         0.0241708802      -0.0444732547       0.1310853544  -2.634518238987e-02   1.245938169729e-01  -9.821409429654e-03
O        -0.0031898935       1.2918178637       0.8221249697  -1.036743606078e-03  -4.743999114987e-02  -2.485056108839e-02
O        -0.0475400871      -1.2408787973       0.8550369595   1.552077051881e-02  -6.161640225522e-02   2.581262502737e-02
O         1.3189393222       0.0927955626      -0.8567683751  -2.624377915033e-02  -1.256875890410e-03   1.342038733122e-02
O        -1.2987320101      -0.0640534477      -0.8769169275  -2.444103502841e-02   9.296253385491e-02   4.994463130131e-02
H         1.5916359049      -0.8038053240      -1.0214311311   1.248426397258e-02  -1.943625244239e-02  -9.698573357694e-03
H        -1.8689868221       0.9439333732      -0.4069261637   5.004965974521e-02  -8.784667927841e-02  -4.481261316098e-02
7
Properties=species:S:1:pos:R:3:forces:R:3 energy=-6.997708703969e+02 dipole="2.4849817521e-01 -2.1334343349e-02 -1.4982264982e+00" quadrupole="-2.3315676726e+01 -3.9145245777e+00 -7.3399632473e-02 -3.9145245777e+00 -2.8611228295e+01 2.5199293467e-01 -7.3399632473e-02 2.5199293467e-01 -2.5812170612e+01" polarizability="3.5782798234e+01 -1.8413250455e+00 -1.3285395206e+00 -1.8413250455e+00 3.7635562989e+01 1.1403218500e+00 -1.3285395206e+00 1.1403218500e+00 3.4682048255e+01" charge=0 multiplicity=1 method=wB97M-V basis=def2-svpd config_type=h2so4 sample_index=265 temperature=300.0 units=atomic
S         0.0211912391       0.0259797329       0.1240603095   2.796828074396e-03  -2.188569433471e-02   4.436897295330e-02
O        -0.0825482148       1.2731621104       0.8486549413   2.092090754968e-02   3.299900768440e-03  -1.083270208459e-02
O        -0.0022511341      -1.2541002071       0.7720533923   6.448169638869e-03  -1.368814546707e-02   1.539721848668e-02
O         1.2765605022      -0.0150557129      -0.8472621162   2.083240271765e-02   8.799327101941e-03  -2.381598116835e-02
O        -1.2496758747      -0.0427312021      -0.7603293378   1.006545739472e-02  -1.440059907721e-01   4.079124797759e-02
H         1.6814242425      -0.8912283561      -1.1174062196  -2.335378377064e-02   1.998057932731e-02   1.722344614978e-02
H        -1.4296036342       0.6780887968      -1.1809894794  -3.765120789132e-02   1.475341997755e-01  -8.318129236877e-02
7
Properties=species:S:1:pos:R:3:forces:R:3 energy=-6.997885050515e+02 dipole="7.6164674575e-02 -5.1045734837e-02 -1.2511075285e+00" quadrupole="-2.3286149428e+01 -4.4949430736e+00 8.0291289234e-02 -4.4949430736e+00 -2.7906329263e+01 -1.4479765577e-02 8.0291289234e-02 -1.4479765577e-02 -2.6721637149e+01" polarizability="3.6649826748e+01 -2.4370274464e+00 2.1391464997e-01 -2.4370274464e+00 3.9251981521e+01 -2.6761528604e-02 2.1391464997e-01 -2.6761528604e-02 3.6428368936e+01" charge=0 multiplicity=1 method=wB97M-V basis=def2-svpd config_type=h2so4 sample_index=266 temperature=300.0 units=atomic
S         0.0032005390      -0.0015445202       0.1594684509  -1.497137724398e-02  -1.167083677994e-02  -6.871730295610e-03
O        -0.0094647765       1.2496293143       0.8344387743  -1.053371577130e-03   2.765551337107e-02   1.500580587766e-02
O         0.0286907534      -1.2662515198       0.8535117790  -4.043293543632e-03  -3.013165868090e-03  -4.834520555651e-03
O         1.2046136820       0.0544498369      -0.8629460191   4.690620018505e-02  -7.101799618309e-02  -2.579616371520e-02
O        -1.2296815782      -0.0283729646      -0.8846140472  -1.359790066780e-02   1.448447129409e-03  -4.685533046027e-03
H         1.5700773776      -0.9490136633      -1.0558279794  -2.766033735729e-02   7.058159244086e-02   1.440037584121e-02
H        -1.5800277055       0.8493737774      -1.1805286179   1.442340150004e-02  -1.400546114046e-02   1.263609831890e-02
7
Properties=species:S:1:pos:R:3:forces:R:3 energy=-6.997920258007e+02 dipole="2.8793026265e-01 1.1328869573e-01 -9.9187739588e-01" quadrupole="-2.4149419175e+01 -4.0151718987e+00 4.5703963491e-02 -4.0151718987e+00 -2.7674278561e+01 -8.0115788292e-02 4.5703963491e-02 -8.0115788292e-02 -2.6845748196e+01" polarizability="3.6628149346e+01 -2.3964290958e+00 -2.4798201978e-01 -2.3964290958e+00 3.8689501966e+01 -2.8495584673e-01 -2.4798201978e-01 -2.8495584673e-01 3.5329334550e+01" charge=0 multiplicity=1 method=wB97M-V basis=def2-svpd config_type=h2so4 sample_index=267 temperature=300.0 units=atomic
S         0.0450141470       0.0183277667       0.1745483566  -4.266689191392e-02  -4.513815865347e-02  -3.874526936629e-02
O        -0.1189103221       1.2707625976       0.8118729025   2.456506674560e-02   3.671753246780e-02   2.484259686527e-02
O         0.0247573124      -1.2848362532       0.7946583192   6.612639805206e-03   2.639221310876e-03   9.327445495416e-03
O         1.2578048368      -0.0188484443      -0.8836807267  -7.323270448753e-03   4.761230471243e-02   8.043517234388e-03
O        -1.2576350665      -0.0050446525      -0.8224828494   3.828204290748e-03   1.106493151544e-02  -1.138701224793e-02
H         1.5604799354      -0.9010206251      -1.0033132173   7.438148699761e-03  -3.150295920424e-02  -9.313694984130e-04
H        -1.4917011374       0.9229213177      -1.0936080268   7.483411928955e-03  -2.135909907659e-02   8.798337534823e-03
7
Properties=species:S:1:pos:R:3:forces:R:3 energy=-6.997324896456e+02 dipole="2.5152579396e-01 3.7949217290e-03 -1.5177973078e+00" quadrupole="-2.5982647433e+01 -2.6685441368e+00 -4.5731761354e-01 -2.6685441368e+00 -2.8894874706e+01 -7.8608388841e-01 -4.5731761354e-01 -7.8608388841e-01 -2.4322515742e+01" polarizability="3.3697608280e+01 -3.6404362767e-01 -3.1985527608e-01 -3.6404362767e-01 3.9254175187e+01 -2.7015820743e+00 -3.1985527608e-01 -2.7015820743e+00 3.6266933210e+01" charge=0 multiplicity=1 method=wB97M-V basis=def2-svpd config_type=h2so4 sample_index=268 temperature=300.0 units=atomic
S        -0.0210325555      -0.0200667277       0.1773759045   2.978661838299e-02  -1.871801607441e-02   2.355368132629e-02
O         0.0054155839       1.2769656597       0.7485923280   1.797070186089e-03   2.973457139781e-02   3.978213675938e-02
O         0.0002810687      -1.3153561781       0.8146195424   3.756521401461e-03   4.778330356956e-03   9.136384007524e-03
O         1.1940028885       0.1035271770      -0.8486508349  -2.705050415168e-02   1.294727504924e-01   3.585280894678e-02
O        -1.2005126672      -0.0366464788      -0.7827637590  -1.264561527320e-02   7.250145521856e-02  -1.168645444174e-01
H         1.4691610177      -0.6600792021      -1.1337860382   5.132127719747e-02  -1.418771195982e-01  -5.266887304888e-02
H        -0.7964889794       0.8602349011      -1.5378189330  -4.700385470667e-02  -7.586600876236e-02   6.117090041075e-02
7
Properties=species:S:1:pos:R:3:forces:R:3 energy=-6.997364026435e+02 dipole="-3.0153052969e-01 1.4656598885e-02 -6.0742671546e-01" quadrupole="-1.9715026302e+01 -5.0720478554e+00 5.9229743222e-01 -5.0720478554e+00 -2.8522284971e+01 -2.6967545551e-01 5.9229743222e-01 -2.6967545551e-01 -3.0062350695e+01" polarizability="4.2657774800e+01 -5.7513604410e+00 2.8125778712e-02 -5.7513604410e+00 4.2209119964e+01 -5.6946577087e-01 2.8125778712e-02 -5.6946577087e-01 3.7663546516e+01" charge=0 multiplicity=1 method=wB97M-V basis=def2-svpd config_type=h2so4 sample_index=269 temperature=300.0 units=atomic
S        -0.0302997479      -0.0097488383       0.1540299180   3.820996554278e-02   5.015823442108e-03   1.393560849955e-02
O        -0.0698551437       1.2766987617       0.8547064820   7.416237877238e-04  -1.774795827926e-02  -2.403505278867e-03
O         0.1065572857      -1.2900066732       0.8831996274  -1.479058126770e-02   2.720209456878e-02  -1.693357373233e-02
O         1.2119598427      -0.0221919385      -0.9320543266   4.453498611977e-02  -8.046339796189e-02   5.213575203324e-02
O        -1.1831933926       0.0548201789      -0.9243299025  -8.421067322489e-02   6.364983268239e-02   1.570525974765e-02
H         1.8587667617      -0.9285924272      -0.5094360491  -5.558572865307e-02   8.031437785487e-02  -3.952112935655e-02
H        -1.9421695623       0.9346416778      -0.6243834796   7.111896610984e-02  -7.809761345224e-02  -2.294855102873e-02
7
Properties=species:S:1:pos:R:3:forces:R:3 energy=-6.997950070956e+02 dipole="-8.3567784158e-02 1.2548548220e-01 -1.3654586312e+00" quadrupole="-2.4277331075e+01 -3.9634869877e+00 -4.3055293895e-01 -3.9634869877e+00 -2.8472148968e+01 5.8122344258e-01 -4.3055293895e-01 5.8122344258e-01 -2.5391422747e+01" polarizability="3.7178073926e+01 -1.5610482069e+00 -1.1913549363e-01 -1.5610482069e+00 3.9033891508e+01 5.6339410573e-01 -1.1913549363e-01 5.6339410573e-01 3.6197073780e+01" charge=0 multiplicity=1 method=wB97M-V basis=def2-svpd config_type=h2so4 sample_index=270 temperature=300.0 units=atomic
S         0.0039183931       0.0190046647       0.1589563678  -5.289997455129e-03  -5.109585341472e-02  -1.802530213110e-02
O        -0.0051731130       1.2802787242       0.8075957370   1.046135043409e-03   2.733835243129e-02   1.506009667739e-02
O         0.0036813834      -1.2809463232       0.7920718021  -1.474602336639e-03   5.879819565351e-03   7.140432091184e-03
O         1.2842229452       0.0346414018      -0.8084840959   8.867706337291e-03  -1.944854955124e-02  -3.426910385512e-02
O        -1.2785862317      -0.0727122472      -0.8380718878   5.095322255421e-03   6.951594319837e-03  -3.101763516765e-03
H         1.4260536752      -0.8048294090      -1.3775707269  -1.282276760451e-02   3.300539645039e-02   3.084555564879e-02
H        -1.6126946343       0.8115661854      -1.0752664519   4.618148925271e-03  -2.678441089869e-03   2.331719638156e-03
7
Properties=species:S:1:pos:R:3:forces:R:3 energy=-6.997750641000e+02 dipole="-3.6097797915e-01 -1.8786111074e-01 -9.8605188145e-01" quadrupole="-2.1603310112e+01 -4.9070616269e+00 5.1016543830e-01 -4.9070616269e+00 -2.7973056575e+01 -4.3383036413e-01 5.1016543830e-01 -4.3383036413e-01 -2.7738627419e+01" polarizability="3.9289403980e+01 -3.1725482858e+00 1.1404292081e-01 -3.1725482858e+00 3.9626018248e+01 1.0813010045e-01 1.1404292081e-01 1.0813010045e-01 3.7315533315e+01" charge=0 multiplicity=1 method=wB97M-V basis=def2-svpd config_type=h2so4 sample_index=271 temperature=300.0 units=atomic
S        -0.0417758041      -0.0336839849       0.1735002926   4.116721098536e-02   1.151013236674e-01  -4.540021821094e-02
O         0.0054171507       1.2674658307       0.8485541621  -1.012246063894e-02  -2.209630303133e-02  -8.951373954487e-03
O         0.0557623071      -1.2374461306       0.8625252507  -8.644142482232e-03  -7.309373226331e-02   3.245421902060e-02
O         1.2377877931       0.0447603183      -0.8993176086   1.103744568894e-02  -4.961144052138e-02   6.196878711613e-03
O        -1.2109547647      -0.0085527682      -0.9122892901  -5.256431412228e-02   4.072014164574e-02  -1.167643617414e-02
H         1.7231268902      -0.8723940114      -1.0000269280  -3.116711177587e-02   4.802338665559e-02   9.182530233366e-03
H        -1.8007907091       0.8904996739      -1.0312489483   5.029806219414e-02  -5.909569000165e-02   1.818910912144e-02
7
Properties=species:S:1:pos:R:3:forces:R:3 energy=-6.997909315290e+02 dipole="-2.3734250840e-01 -1.4087473620e-01 -1.0389672604e+00" quadrupole="-2.3540885721e+01 -4.2146012051e+00 1.0532825109e+00 -4.2146012051e+00 -2.8138169879e+01 -6.4721419298e-01 1.0532825109e+00 -6.4721419298e-01 -2.7068021683e+01" polarizability="3.7573460353e+01 -1.8593112828e+00 2.1833903671e-01 -1.8593112828e+00 3.9797467797e+01 4.7570076290e-01 2.1833903671e-01 4.7570076290e-01 3.7046568422e+01" charge=0 multiplicity=1 method=wB97M-V basis=def2-svpd config_type=h2so4 sample_index=272 temperature=300.0 units=atomic
S        -0.0312498171      -0.0050252468       0.1756444527   2.986980119866e-02   7.399253754134e-02  -2.187193888764e-02
O         0.0069464780       1.3021310270       0.8666973862  -9.152865632010e-03  -3.915020382678e-02  -1.816308959939e-02
O         0.0470823834      -1.2737874473       0.8198242701  -9.959030851220e-03  -2.079808139879e-02   1.180443799709e-02
O         1.2477728288       0.0341080172      -0.8946118171  -4.962230052758e-03  -4.490659825479e-02   1.826140671140e-02
O        -1.2369098070      -0.0415499941      -0.8914850677   1.142966732885e-03  -3.254431478732e-02   1.238485828835e-02
H         1.5637857867      -0.9394443541      -0.8862591777  -9.361039214176e-03   4.171784716499e-02  -4.590377623082e-03
H        -1.6069706721       0.7656099801      -1.2339906119   2.383058101699e-03   2.170598458814e-02   2.117512609211e-03
7
Properties=species:S:1:pos:R:3:forces:R:3 energy=-6.997742369640e+02 dipole="5.1452058241e-01 1.7377058063e-01 -9.4709079488e-01" quadrupole="-2.3712310429e+01 -3.9457648741e+00 1.8909602204e-01 -3.9457648741e+00 -2.8041836699e+01 -6.8314543963e-01 1.8909602204e-01 -6.8314543963e-01 -2.7422252016e+01" polarizability="3.7207180129e+01 -3.1608340636e+00 5.0575156010e-01 -3.1608340636e+00 4.1079974969e+01 -9.2309766626e-01 5.0575156010e-01 -9.2309766626e-01 3.6186324638e+01" charge=0 multiplicity=1 method=wB97M-V basis=def2-svpd config_type=h2so4 sample_index=273 temperature=300.0 units=atomic
S         0.0121450307       0.0259489529       0.1829600512  -2.440698861550e-02  -9.320660856677e-02  -9.050920257968e-03
O        -0.0677288622       1.2889704035       0.8217404642   7.894330799924e-03   2.867472753341e-02   2.466552107171e-02
O         0.0764358798      -1.3314548927       0.8123201733  -8.374759195832e-03   5.273091117932e-02  -8.184048654982e-03
O         1.1652145724      -0.0104421258      -0.8881979504   7.699288016945e-02  -5.969524934600e-02   2.022724973600e-03
O        -1.2333772691       0.0000494884      -0.8717006332   5.998005732433e-03   3.822168385349e-02  -5.620263861188e-03
H         1.7690297433      -0.9265802082      -0.6916855293  -4.910956149134e-02   7.139290100566e-02  -1.504289731380e-02
H        -1.2120493018       0.9516845461      -1.2405749007  -9.011071976129e-03  -3.815395335520e-02   1.118338597627e-02
7
Properties=species:S:1:pos:R:3:forces:R:3 energy=-6.997774539902e+02 dipole="2.1767163713e-01 -1.0979241894e-01 -1.4139358162e+00" quadrupole="-2.5933149121e+01 -3.3588944407e+00 -7.1667596963e-01 -3.3588944407e+00 -2.8546343944e+01 4.7818676630e-01 -7.1667596963e-01 4.7818676630e-01 -2.4334631552e+01" polarizability="3.5994911308e+01 -1.3017252096e+00 -7.0599861485e-01 -1.3017252096e+00 4.0576178007e+01 1.6739571841e+00 -7.0599861485e-01 1.6739571841e+00 3.7392350286e+01" charge=0 multiplicity=1 method=wB97M-V basis=def2-svpd config_type=h2so4 sample_index=274 temperature=300.0 units=atomic
S         0.0317442481      -0.0053466351       0.1943708858  -3.746939855265e-02   3.415156349133e-02  -2.726762597179e-02
O        -0.0241582471       1.3270070836       0.7974676923   9.238261511136e-03  -2.840635599466e-02   1.777770323278e-03
O        -0.0256858004      -1.2981145693       0.7799051570   7.045267080294e-03  -2.028476426126e-02   2.962041718013e-02
O         1.2304477859       0.0591358165      -0.8343913973   2.577688757669e-02  -6.208117152026e-02  -6.525778742427e-02
O        -1.2409296163      -0.0744062330      -0.8418768232   1.036433926683e-02  -2.000459499373e-02   1.329163630728e-02
H         1.2794159193      -0.8390403057      -1.5139067468  -7.753424691644e-03   6.995858313703e-02   6.053459095592e-02
H        -1.3227798106       0.7865897932      -1.2167340304  -7.189461883368e-03   2.668098311369e-02  -1.270673707364e-02
7
Properties=species:S:1:pos:R:3:forces:R:3 energy=-6.997717766814e+02 dipole="-6.1611872947e-02 -2.4567823773e-01 -1.7312298084e+00" quadrupole="-2.4226978158e+01 -4.0996932107e+00 -1.7176854846e-01 -4.0996932107e+00 -2.8244905249e+01 4.9852742757e-02 -1.7176854846e-01 4.9852742757e-02 -2.5387900741e+01" polarizability="3.7237476814e+01 -2.9925732879e+00 -5.5445257020e-01 -2.9925732879e+00 4.0727791987e+01 6.2330903309e-01 -5.5445257020e-01 6.2330903309e-01 3.7856912348e+01" charge=0 multiplicity=1 method=wB97M-V basis=def2-svpd config_type=h2so4 sample_index=275 temperature=300.0 units=atomic
S        -0.0032463805      -0.0429023451       0.1197217672  -1.624881776077e-03   7.789379095398e-02   6.035187366278e-02
O        -0.0509359579       1.2726391256       0.8062545306   9.812951727315e-03  -3.274523919332e-02  -1.245235548297e-02
O         0.0587372294      -1.2671358154       0.8762762735  -1.173721774636e-02  -9.562557562298e-03  -1.332192936586e-02
O         1.2643750396       0.0529501079      -0.8127517828   2.338680199293e-02  -8.067662660116e-02  -6.575772730583e-02
O        -1.2579030060       0.0276670268      -0.8311525943  -2.737114460538e-02  -9.070415556192e-03  -3.496404487712e-02
H         1.4171696341      -0.9256491636      -1.3573652114  -1.200901011316e-02   7.783558848350e-02   4.583328836192e-02
H        -1.5430737665       0.9213867460      -1.1925161714   1.954449630971e-02  -2.360605839020e-02   2.028677340667e-02
7
Properties=species:S:1:pos:R:3:forces:R:3 energy=-6.997634360414e+02 dipole="-2.0291476060e-01 -1.6895811281e-01 -1.2562291854e+00" quadrupole="-2.6109178353e+01 -3.5765512219e+00 -1.2647305606e-01 -3.5765512219e+00 -2.7685348340e+01 -2.3758280318e-02 -1.2647305606e-01 -2.3758280318e-02 -2.5672304444e+01" polarizability="3.6760378048e+01 -1.2805076585e+00 -4.7575578006e-01 -1.2805076585e+00 4.0119759617e+01 1.2336824009e+00 -4.7575578006e-01 1.2336824009e+00 3.8382476495e+01" charge=0 multiplicity=1 method=wB97M-V basis=def2-svpd config_type=h2so4 sample_index=276 temperature=300.0 units=atomic
S        -0.0076594715      -0.0336883984       0.1853037743   1.917598935945e-02   1.575241808513e-01  -6.747498454033e-02
O         0.0083321827       1.2860576286       0.8528645603  -5.043786527836e-03  -3.420777157492e-02  -1.637583158115e-02
O        -0.0201264244      -1.2232260867       0.8420556335   3.298429673398e-03  -1.234052122338e-01   6.690250556261e-02
O         1.2561274424       0.0867223173      -0.8910737051  -2.199210322337e-02  -7.742897186563e-02  -2.525392125223e-02
O        -1.2175642003      -0.0916017047      -0.8942403010  -1.030464028814e-02   8.945182015102e-02  -5.603134648290e-03
H         1.1814667662      -0.8415351566      -1.4700894857   9.966411457352e-03   6.814008368462e-02   4.004946550674e-02
H        -1.3617809362       0.9848086164      -1.0814055524   4.931439917945e-03  -8.006985594824e-02   7.732511136316e-03
7
Properties=species:S:1:pos:R:3:forces:R:3 energy=-6.997796074603e+02 dipole="-1.7088128713e-01 9.5505920087e-02 -1.1806093009e+00" quadrupole="-2.5136822537e+01 -3.9412067640e+00 -5.1108818739e-01 -3.9412067640e+00 -2.7637057885e+01 8.5452904746e-01 -5.1108818739e-01 8.5452904746e-01 -2.6029625606e+01" polarizability="3.8554163741e+01 -2.3384158162e+00 -1.7136909671e+00 -2.3384158162e+00 3.9476695064e+01 1.5254114788e-01 -1.7136909671e+00 1.5254114788e-01 3.7180039533e+01" charge=0 multiplicity=1 method=wB97M-V basis=def2-svpd config_type=h2so4 sample_index=277 temperature=300.0 units=atomic
S         0.0059183690      -0.0048959152       0.1606165242   1.642555551216e-02  -4.823999226352e-02  -4.399410990328e-02
O        -0.0853552561       1.2456861341       0.7871358783   1.484654687236e-02   5.985974756202e-02   3.442130274762e-02
O         0.0021781168      -1.2656983551       0.8454854957   5.447480793771e-03  -8.782897874184e-03   2.191160357061e-03
O         1.3510589961       0.0377849688      -0.8746658829  -3.238141862631e-02  -5.129418655317e-02  -1.509479315152e-02
O        -1.2686685903      -0.0162039532      -0.8163708422  -1.450182914378e-02   5.073412263062e-02  -1.667252698950e-02
H         1.3732534095      -0.8649769696      -1.4410447182  -3.159109745831e-03   5.558933179847e-02   3.931995582671e-02
H        -1.5461322128       0.9952918779      -0.8729684527   1.334439891081e-02  -5.777574653948e-02  -2.772819407688e-04
7
Properties=species:S:1:pos:R:3:forces:R:3 energy=-6.997819174283e+02 dipole="-4.0551718080e-01 3.3150897617e-02 -1.1900840844e+00" quadrupole="-2.4432267296e+01 -3.7299159841e+00 3.3309026800e-01 -3.7299159841e+00 -2.7932370897e+01 1.6680049340e-01 3.3309026800e-01 1.6680049340e-01 -2.7179056852e+01" polarizability="3.7917088812e+01 -2.9161247408e+00 7.4619903141e-01 -2.9161247408e+00 4.0392012668e+01 9.7709686851e-01 7.4619903141e-01 9.7709686851e-01 3.7350133489e+01" charge=0 multiplicity=1 method=wB97M-V basis=def2-svpd config_type=h2so4 sample_index=278 temperature=300.0 units=atomic
S        -0.0059916074       0.0122165954       0.1479972490   9.663223307345e-04   5.123912021926e-02   2.937841622418e-02
O        -0.0762403554       1.3187619719       0.9026162072   8.159821061359e-03  -5.746460746355e-02  -4.317277424898e-02
O         0.1040455661      -1.2595279848       0.8156532947  -1.810592926719e-02  -7.226930566905e-03   7.787208626315e-03
O         1.2730043173      -0.0624226856      -0.8550573003  -1.072155571886e-02   6.185060916768e-02   1.365368377600e-02
O        -1.2570677042      -0.0219840801      -0.9070059984  -1.524183262631e-02   5.091092252147e-02   6.601340609032e-03
H         1.2061959403      -0.9320350011      -1.1766387395   5.606515747437e-03  -4.496152640317e-02  -1.925955754190e-02
H        -1.7065356957       0.9312705832      -0.9488542322   2.935549058912e-02  -5.436122108866e-02   4.969072584144e-03
7
Properties=species:S:1:pos:R:3:forces:R:3 energy=-6.997778090051e+02 dipole="1.8365104262e-01 -1.5716881350e-04 -1.0913448124e+00" quadrupole="-2.5863990608e+01 -3.4215681376e+00 -5.0038472308e-01 -3.4215681376e+00 -2.8035079073e+01 6.7201785254e-01 -5.0038472308e-01 6.7201785254e-01 -2.5113278593e+01" polarizability="3.5835434521e+01 -1.2956812706e+00 -6.7504564664e-01 -1.2956812706e+00 3.9668135611e+01 5.3430695253e-01 -6.7504564664e-01 5.3430695253e-01 3.6422749308e+01" charge=0 multiplicity=1 method=wB97M-V basis=def2-svpd config_type=h2so4 sample_index=279 temperature=300.0 units=atomic
S         0.0312722167       0.0041779926       0.2178179759  -2.927632723440e-02  -5.943505616995e-02  -7.427545252490e-02
O        -0.0442445567       1.2934907554       0.7661651088   9.641567151120e-03   4.544611797402e-02   4.245379871049e-02
O        -0.0116319323      -1.3195418308       0.8028793838   6.378812767298e-03   1.632543801560e-02   1.102537273077e-02
O         1.2288681641       0.0616956275      -0.8659933886   1.273253184876e-02  -6.120264821455e-02  -2.949894653319e-02
O        -1.2303002848      -0.0386291961      -0.8595253824   2.139383908331e-02  -9.134702112406e-02   4.105376614652e-02
H         1.2911779003      -0.8797149444      -1.3929508228  -5.886194489015e-03   6.378736863654e-02   3.985882148380e-02
H        -1.3697010794       0.7937303303      -1.1611796745  -1.502239839922e-02   8.639895936755e-02  -3.064406887234e-02
7
Properties=species:S:1:pos:R:3:forces:R:3 energy=-6.997874285188e+02 dipole="-6.2003524994e-02 -1.9048368233e-01 -1.3191026565e+00" quadrupole="-2.4474810350e+01 -4.0578722637e+00 -4.3752342820e-01 -4.0578722637e+00 -2.8442640575e+01 -1.1385904531e-01 -4.3752342820e-01 -1.1385904531e-01 -2.5401436285e+01" polarizability="3.7410489853e+01 -9.4218865948e-01 -3.3364850537e-01 -9.4218865948e-01 3.9592129499e+01 5.6679023821e-01 -3.3364850537e-01 5.6679023821e-01 3.7597802041e+01" charge=0 multiplicity=1 method=wB97M-V basis=def2-svpd config_type=h2so4 sample_index=280 temperature=300.0 units=atomic
S        -0.0198990818      -0.0370311005       0.1799501304   1.905466526689e-02   9.292965056096e-02  -4.155792530060e-02
O         0.0723666219       1.2861685834       0.8009745648  -1.843930117339e-02  -2.394711826460e-02   1.338542583564e-03
O        -0.0246938295      -1.2679462073       0.8459827360  -1.424155939547e-03  -5.105277507325e-02   2.540174814040e-02
O         1.2439368303       0.1309671938      -0.8422998565   1.505729802767e-02  -6.582811311304e-02  -3.228882944010e-02
O        -1.2539290324      -0.0793529811      -0.8850816683  -1.158388406708e-04   5.501061062022e-03   5.920359794411e-03
H         1.5105133009      -0.7539231878      -1.3611510257  -2.082827165924e-02   5.168047818787e-02   3.459907025063e-02
H        -1.4803908072       0.8216139981      -1.2051788719   6.695184571175e-03  -9.203968076886e-03   6.569053076494e-03
7
Properties=species:S:1:pos:R:3:forces:R:3 energy=-6.997760823735e+02 dipole="-1.0236352272e-01 1.7308030416e-01 -8.5706032912e-01" quadrupole="-2.5284433138e+01 -3.9960786376e+00 6.7222757485e-01 -3.9960786376e+00 -2.7555031782e+01 -2.9582734906e-01 6.7222757485e-01 -2.9582734906e-01 -2.7338581526e+01" polarizability="3.8410327937e+01 -6.6773699994e-01 -8.0491898462e-01 -6.6773699994e-01 3.9221755779e+01 -9.8564761319e-01 -8.0491898462e-01 -9.8564761319e-01 3.7692820925e+01" charge=0 multiplicity=1 method=wB97M-V basis=def2-svpd config_type=h2so4 sample_index=281 temperature=300.0 units=atomic
S        -0.0008780760       0.0143988967       0.1866272061   2.680661987545e-03  -5.979666101972e-02  -6.464265173481e-02
O         0.0159442550       1.2422712663       0.8461875680  -3.832018638076e-03   6.463745033095e-02   3.305108698795e-02
O        -0.0647192176      -1.2687861802       0.8484698297   1.804871713711e-02   2.818088974195e-04  -5.684230862268e-04
O         1.3004473071       0.1057702995      -0.9498847120  -4.122203541208e-02  -1.676003996007e-02   4.393153708867e-02
O        -1.2514794263      -0.1121645138      -0.8695870130   3.820208474140e-03   8.737254700385e-02  -4.061448201751e-03
H         1.4321074944      -0.8512950848      -0.9474523542   1.735390814422e-02  -7.344660074728e-03  -1.596815217108e-02
H        -1.4087089419       0.9210606138      -1.1174050464   3.171155263580e-03  -6.843307017078e-02   8.230510935764e-03
7
Properties=species:S:1:pos:R:3:forces:R:3 energy=-6.997679524069e+02 dipole="-1.9210580241e-01 -1.8484565942e-01 -1.5937189286e+00" quadrupole="-2.3991551997e+01 -4.3160424378e+00 -2.1432468664e-01 -4.3160424378e+00 -2.7908475637e+01 -5.7620588662e-02 -2.1432468664e-01 -5.7620588662e-02 -2.6003383703e+01" polarizability="3.7337619253e+01 -3.2520589214e+00 1.8307574998e-01 -3.2520589214e+00 4.1487618828e+01 3.3721550934e-01 1.8307574998e-01 3.3721550934e-01 3.8962143887e+01" charge=0 multiplicity=1 method=wB97M-V basis=def2-svpd config_type=h2so4 sample_index=282 temperature=300.0 units=atomic
S        -0.0387748029      -0.0409365520       0.1427543709   2.984259523339e-02   6.043530377947e-02   4.444210898884e-02
O        -0.0003445742       1.2687460599       0.8400545768  -9.764516114945e-03  -3.394453621451e-02  -1.708999690743e-02
O         0.0993453816      -1.2660944546       0.9112966748  -2.332600477000e-02   8.392865980653e-04  -1.930637447816e-02
O         1.2028720009       0.0565492548      -0.8400796563   3.908685877381e-02  -8.124465449223e-02  -5.525590398379e-02
O        -1.2207951399       0.0203259019      -0.9185056409  -3.581380416558e-02   2.263950371737e-02  -1.942072522886e-02
H         1.4617067924      -0.9374469623      -1.3146606997  -2.430674702950e-02   8.012158244013e-02   4.205646255178e-02
H        -1.5249356328       0.9766583163      -1.2083891600   2.426503750585e-02  -4.885257069761e-02   2.458515250042e-02
7
Properties=species:S:1:pos:R:3:forces:R:3 energy=-6.997699133962e+02 dipole="3.5629789672e-02 7.4953371009e-02 -1.1801526274e+00" quadrupole="-2.2015049223e+01 -5.0067483015e+00 -7.7111795937e-01 -5.0067483015e+00 -2.8356344395e+01 8.9284235569e-01 -7.7111795937e-01 8.9284235569e-01 -2.7777492413e+01" polarizability="4.0400426476e+01 -2.9374739131e+00 -4.4318375064e-01 -2.9374739131e+00 4.1389764046e+01 1.0449061454e+00 -4.4318375064e-01 1.0449061454e+00 3.7408578697e+01" charge=0 multiplicity=1 method=wB97M-V basis=def2-svpd config_type=h2so4 sample_index=283 temperature=300.0 units=atomic
S         0.0388496344       0.0319314478       0.1294390650  -3.838225723568e-02  -3.459947123535e-02   3.513812361968e-02
O        -0.0368249225       1.2888717470       0.8793705852   1.087333763077e-02  -1.613696892805e-02  -2.538971829022e-02
O        -0.0464447967      -1.2659132751       0.8116106386   2.003766352886e-02   1.854779193015e-02  -5.512837991478e-03
O         1.2883472073       0.0204000244      -0.8651668260   1.939050732756e-02  -3.725460810736e-02  -1.878392947241e-02
O        -1.2655821288      -0.1021928678      -0.8488382004  -3.875899181884e-02   9.431406482049e-02   2.152939785157e-03
H         1.6036779107      -0.9451031007      -1.1397472257  -2.493130676662e-02   5.254001820632e-02   2.118803420036e-02
H        -1.8661496867       0.8550748558      -0.7568382420   5.190276079214e-02  -7.742965250114e-02  -8.787986401149e-03
7
Properties=species:S:1:pos:R:3:forces:R:3 energy=-6.997708773678e+02 dipole="4.8687072547e-01 7.0023321027e-02 -1.1920416995e+00" quadrupole="-2.3688121283e+01 -4.4991244184e+00 -1.0369149391e+00 -4.4991244184e+00 -2.7899981515e+01 5.4976103889e-01 -1.0369149391e+00 5.4976103889e-01 -2.8002220856e+01" polarizability="3.8710329394e+01 -2.5208828804e+00 8.1723253616e-01 -2.5208828804e+00 4.0918232388e+01 -4.6944321852e-01 8.1723253616e-01 -4.6944321852e-01 3.6907710931e+01" charge=0 multiplicity=1 method=wB97M-V basis=def2-svpd config_type=h2so4 sample_index=284 temperature=300.0 units=atomic
S         0.0324092107       0.0056434760       0.1160088219  -6.547036685094e-02  -8.314971658758e-02   6.473777974845e-02
O        -0.0195291452       1.2529935671       0.8189828537  -1.802141303420e-03   2.179986228036e-02   3.425154772236e-03
O         0.0285370861      -1.3004718396       0.8798571180   4.125020052181e-03   5.274283363736e-02  -4.150423183217e-02
O         1.2424977444       0.0629385483      -0.8167784362   6.604596231070e-02  -7.402417559975e-02  -4.472663312609e-02
O        -1.3281693140      -0.0297685320      -0.8842526993   3.516242678588e-02   5.953417603472e-02   2.157456143501e-02
H         1.6392198390      -0.9480120228      -0.9356220412  -2.866741058678e-02   7.095344875777e-02   7.288292839911e-03
H        -1.4479479396       1.0003208061      -0.8615636757  -9.337999489341e-03  -4.790418928317e-02  -1.090669984408e-02
7
Properties=species:S:1:pos:R:3:forces:R:3 energy=-6.997842384063e+02 dipole="-1.2528445813e-01 -1.4356194525e-01 -1.5402624156e+00" quadrupole="-2.6349568138e+01 -2.9574313149e+00 -3.1302971391e-02 -2.9574313149e+00 -2.8778432398e+01 1.2106239056e-01 -3.1302971391e-02 1.2106239056e-01 -2.4040645738e+01" polarizability="3.5126757332e+01 -3.4523358318e-01 -2.4520140824e-01 -3.4523358318e-01 3.9285734321e+01 1.8329883619e+00 -2.4520140824e-01 1.8329883619e+00 3.7935291625e+01" charge=0 multiplicity=1 method=wB97M-V basis=def2-svpd config_type=h2so4 sample_index=285 temperature=300.0 units=atomic
S        -0.0293218562       0.0064882082       0.1878224260   3.697693793500e-02   7.654800692607e-02  -1.947146104371e-02
O         0.0561845604       1.3104738156       0.8838532430  -1.364621024121e-02  -4.197068902245e-02  -2.378115999583e-02
O        -0.0132658947      -1.2503856019       0.7922615617  -2.714853559771e-03  -6.003484286792e-02   4.585958374898e-02
O         1.2151843536       0.0660378646      -0.8686942036   3.462370512270e-03  -4.344384660870e-02  -3.461005497266e-02
O        -1.2037042079      -0.1289518211      -0.8803213922  -1.564978602058e-02   4.484364028417e-03   2.205651388000e-03
H         1.2350372464      -0.8112354412      -1.4617930069  -3.018847142757e-03   5.171765969751e-02   4.025788237443e-02
H        -1.1680439603       0.6425161090      -1.4445898060  -5.483846238251e-03   1.276829529287e-02  -1.046601293431e-02
7
Properties=species:S:1:pos:R:3:forces:R:3 energy=-6.997946543797e+02 dipole="3.5664194074e-01 -9.2489543688e-02 -1.1161924314e+00" quadrupole="-2.4778802161e+01 -3.5549738002e+00 -1.0033414189e-01 -3.5549738002e+00 -2.8095995766e+01 -5.7198644195e-01 -1.0033414189e-01 -5.7198644195e-01 -2.6908976334e+01" polarizability="3.7899708252e+01 -1.6048240340e+00 -3.9384523040e-01 -1.6048240340e+00 3.9296951606e+01 -3.6969575392e-01 -3.9384523040e-01 -3.6969575392e-01 3.7992954311e+01" charge=0 multiplicity=1 method=wB97M-V basis=def2-svpd config_type=h2so4 sample_index=286 temperature=300.0 units=atomic
S         0.0041611856      -0.0147411914       0.1652064157  -6.283005539554e-03   1.400512752230e-02  -1.874824594176e-03
O        -0.0442161385       1.2680319700       0.8642327517   7.241801485825e-03  -1.820060524964e-02  -1.527354552367e-02
O         0.0255213711      -1.2743968022       0.8810833830   1.126734682140e-03   5.720724278966e-03  -1.277269520226e-02
O         1.2602319232       0.0475890297      -0.9325380611  -1.624469800571e-02  -6.812486059733e-03   2.021746183225e-02
O        -1.2819660950      -0.0128803230      -0.8837431954   2.783097415640e-02  -9.033301760411e-03   1.898576750621e-02
H         1.6819725116      -0.8348073038      -0.9563671851  -4.387451733308e-03   5.297813746298e-03   8.985542608597e-05
H        -1.1746926698       0.8606631862      -1.2745248933  -9.274254899359e-03   9.021091008471e-03  -9.485020119851e-03
7
Properties=species:S:1:pos:R:3:forces:R:3 energy=-6.997705746958e+02 dipole="-5.7750927476e-01 8.4561860271e-02 -7.8368008058e-01" quadrupole="-2.4795455439e+01 -3.9937239111e+00 5.0817798028e-01 -3.9937239111e+00 -2.7994608667e+01 -4.8413642023e-02 5.0817798028e-01 -4.8413642023e-02 -2.6901870164e+01" polarizability="3.7971605495e+01 -1.9525979515e+00 1.0755662288e+00 -1.9525979515e+00 4.1024021473e+01 2.5981720149e-01 1.0755662288e+00 2.5981720149e-01 3.4352376607e+01" charge=0 multiplicity=1 method=wB97M-V basis=def2-svpd config_type=h2so4 sample_index=287 temperature=300.0 units=atomic
S        -0.0408307535       0.0082340421       0.1919794298   3.520952341169e-02   3.859401508056e-02  -4.267710008998e-02
O         0.0364720730       1.3466024564       0.7415624991  -2.190270086598e-02  -9.987668610894e-03   2.170503772615e-02
O         0.0704106200      -1.3202209194       0.7001475798  -1.795140237961e-02  -2.320234346688e-02   3.897799241754e-02
O         1.2936919847       0.0313223058      -0.7519122343  -2.350587421377e-02  -1.513515909126e-02  -1.028774669235e-02
O        -1.2885097410      -0.0758617853      -0.8413785507  -2.670710292288e-02   7.986270404060e-02   4.571737026463e-03
H         1.2115845667      -0.9166666313      -0.9702478887   2.511125466057e-02   2.686755018206e-03  -1.380862094726e-02
H        -1.6976177604       0.9362731044      -0.8993625924   2.979351418498e-02  -7.275901413563e-02   1.451216334626e-03
7
Properties=species:S:1:pos:R:3:forces:R:3 energy=-6.997687875795e+02 dipole="1.3544184818e-01 5.4234425561e-02 -6.5280172032e-01" quadrupole="-2.1474348433e+01 -4.8367730773e+00 -7.2539174705e-01 -4.8367730773e+00 -2.8201676182e+01 6.9542038513e-01 -7.2539174705e-01 6.9542038513e-01 -2.9095845983e+01" polarizability="3.8856886516e+01 -3.7238532634e+00 6.0464214791e-01 -3.7238532634e+00 4.0434321098e+01 -3.4569844993e-02 6.0464214791e-01 -3.4569844993e-02 3.5152146255e+01" charge=0 multiplicity=1 method=wB97M-V basis=def2-svpd config_type=h2so4 sample_index=288 temperature=300.0 units=atomic
S         0.0146674914       0.0193354184       0.1521684457  -3.456601980567e-02  -8.091047881966e-02  -1.055411274921e-03
O        -0.0396781467       1.2737190971       0.8003247445  -2.106802735426e-03   4.009945650772e-02   2.808021504082e-02
O         0.0658941748      -1.3033862166       0.8162236207  -5.931004410338e-03   3.216986951120e-02  -5.061823604292e-03
O         1.2074322794       0.0026074098      -0.8274343456   7.363443632571e-02  -7.104041424968e-02  -2.038507110659e-02
O        -1.2566260866      -0.0049141580      -0.8980192587  -2.607084915848e-02   6.691415894527e-02   3.933804600412e-02
H         1.7070464273      -0.9843727535      -0.6963297627  -3.987482739885e-02   7.629266144172e-02  -1.128344358053e-02
H        -1.8050794552       0.8762724891      -0.5593964074   3.495099536443e-02  -6.358051045300e-02  -2.972998645997e-02
7
Properties=species:S:1:pos:R:3:forces:R:3 energy=-6.997857162215e+02 dipole="-1.9138710862e-01 5.4750540711e-02 -1.1251696379e+00" quadrupole="-2.3741537759e+01 -4.2680230885e+00 1.1037270348e+00 -4.2680230885e+00 -2.8201705742e+01 -4.5290305920e-01 1.1037270348e+00 -4.5290305920e-01 -2.6630666101e+01" polarizability="3.6656361687e+01 -1.6233266391e+00 -4.7483507300e-01 -1.6233266391e+00 3.9532054109e+01 -1.3540411929e+00 -4.7483507300e-01 -1.3540411929e+00 3.5922878010e+01" charge=0 multiplicity=1 method=wB97M-V basis=def2-svpd config_type=h2so4 sample_index=289 temperature=300.0 units=atomic
S         0.0015879167      -0.0050927846       0.1727208889   1.445702759952e-02  -1.627989607302e-02  -1.334316029852e-02
O        -0.0202265862       1.2695209606       0.7840263061   4.788189129252e-03   3.521329584258e-02   3.423327963468e-02
O        -0.0355703572      -1.3082260388       0.8299695461   1.256244347747e-02   2.005106613689e-02  -9.066114233194e-03
O         1.2593985657       0.0920661845      -0.8985447370  -1.332603418485e-02  -2.886137041619e-02   2.255438679048e-02
O        -1.2007853451      -0.0426769049      -0.8085725698  -6.015992255037e-02   3.160780125869e-02  -5.222948938113e-02
H         1.4849698578      -0.8574809163      -0.9518906209   1.029611256061e-02   6.064151972583e-03  -1.056371144815e-02
H        -1.5836553320       0.8560155498      -1.1912682778   3.140354690590e-02  -4.783725777528e-02   2.837563999458e-02
7
Properties=species:S:1:pos:R:3:forces:R:3 energy=-6.997778986761e+02 dipole="2.3750008451e-02 9.6553912557e-02 -1.2881220028e+00" quadrupole="-2.4055610414e+01 -4.1711722304e+00 -7.3716785897e-01 -4.1711722304e+00 -2.8166706925e+01 5.5017265811e-01 -7.3716785897e-01 5.5017265811e-01 -2.6950586092e+01" polarizability="3.7172118472e+01 -2.6900198446e+00 5.7486934431e-01 -2.6900198446e+00 4.1692601534e+01 -1.0975768636e-01 5.7486934431e-01 -1.0975768636e-01 3.7435555681e+01" charge=0 multiplicity=1 method=wB97M-V basis=def2-svpd config_type=h2so4 sample_index=290 temperature=300.0 units=atomic
S         0.0298760890      -0.0010757890       0.1550714567  -4.744838449942e-02  -8.584284146045e-03   4.485369880672e-02
O        -0.0559141794       1.3087170740       0.8485926143   1.212183535367e-02  -3.867938269968e-02  -2.167148073926e-02
O         0.0275543954      -1.3037909841       0.8652024352   1.877073997305e-03   4.002271913974e-02  -2.130259013826e-02
O         1.2092603740       0.0174250171      -0.8624427025   2.821751281644e-02   2.083964898021e-02  -1.006152291937e-02
O        -1.2234264435      -0.0325798777      -0.9062406289  -2.598760348952e-02   8.441645720340e-02   1.277143225672e-02
H         1.3523230768      -0.8305292374      -1.2863843461  -9.654065035614e-06  -1.239066728270e-02  -1.905946864941e-03
H        -1.6195503225       1.0228237808      -0.8831383774   3.128123898819e-02  -8.557100194125e-02  -2.785230204683e-03
7
Properties=species:S:1:pos:R:3:forces:R:3 energy=-6.997857852730e+02 dipole="2.3124384197e-01 7.4699290011e-02 -8.5474466376e-01" quadrupole="-2.4091637327e+01 -4.0762411367e+00 3.6743252878e-02 -4.0762411367e+00 -2.8023548232e+01 -2.7978362377e-01 3.6743252878e-02 -2.7978362377e-01 -2.7274292996e+01" polarizability="3.6295367216e+01 -1.5341838793e+00 6.3138925063e-01 -1.5341838793e+00 3.8434028426e+01 -3.0700173770e-01 6.3138925063e-01 -3.0700173770e-01 3.3167539601e+01" charge=0 multiplicity=1 method=wB97M-V basis=def2-svpd config_type=h2so4 sample_index=291 temperature=300.0 units=atomic
S        -0.0042536732       0.0085530147       0.1564074498  -1.209130507252e-02  -6.033084228136e-02  -2.057101562524e-02
O         0.0131032473       1.2802850431       0.7426916231  -1.185670825670e-02   5.829792387396e-02   4.170974052294e-02
O         0.0308966068      -1.3000221436       0.7458749636  -1.676644867998e-03  -1.022302973866e-02   2.306514515982e-02
O         1.2544802249       0.0572053714      -0.7750602090   3.807480277624e-02  -4.282337892867e-02  -2.468449865305e-02
O        -1.3084901335      -0.0561597114      -0.8048386317   1.825772938722e-02   2.698103976506e-02   2.044093607569e-04
H         1.6497516455      -0.8792557769      -0.7208706574  -1.238818324178e-02   3.620052937349e-02  -8.748277076686e-03
H        -1.3578611519       0.9092488980      -0.9740342040  -1.829225223559e-02  -8.107477249820e-03  -1.098080770467e-02
7
Properties=species:S:1:pos:R:3:forces:R:3 energy=-6.997854012701e+02 dipole="-2.1724755675e-01 -2.1473007170e-01 -1.5308297156e+00" quadrupole="-2.5867170216e+01 -3.2522186969e+00 3.5722960054e-01 -3.2522186969e+00 -2.8308441209e+01 -2.5977205762e-01 3.5722960054e-01 -2.5977205762e-01 -2.4846949557e+01" polarizability="3.6128083566e+01 -1.3685975324e+00 -5.8544267940e-01 -1.3685975324e+00 3.9865061911e+01 1.1116240360e+00 -5.8544267940e-01 1.1116240360e+00 3.9408251052e+01" charge=0 multiplicity=1 method=wB97M-V basis=def2-svpd config_type=h2so4 sample_index=292 temperature=300.0 units=atomic
S        -0.0125208722      -0.0278791812       0.1775760838   2.320154033818e-02   1.254439305496e-01  -1.376381400650e-02
O        -0.0216762616       1.2985473906       0.9031104339   2.586257073739e-03  -6.092881336519e-02  -3.850470466256e-02
O         0.0118301567      -1.2399916883       0.8746769059  -3.895891406170e-03  -5.551985952989e-02   2.271222003905e-02
O         1.2319115852       0.0484456902      -0.9277753860  -9.549728278152e-03  -3.996157843008e-02  -5.813788991079e-03
O        -1.1887030462      -0.0511759126      -0.9058736031  -2.088134357712e-02   3.582014502480e-03  -7.665349465430e-03
H         1.2189836008      -0.8250588380      -1.4820545196   2.642034030216e-04   4.126988001591e-02   2.880993534530e-02
H        -1.3514656017       0.8186866663      -1.3509882370   8.308985065639e-03  -1.387337173612e-02   1.413115036123e-02
7
Properties=species:S:1:pos:R:3:forces:R:3 energy=-6.997476778018e+02 dipole="-1.1731739545e-01 1.5734017994e-01 -1.7338503050e+00" quadrupole="-2.5487300560e+01 -3.6707016161e+00 3.4511563480e-01 -3.6707016161e+00 -2.8302044856e+01 5.7651619819e-01 3.4511563480e-01 5.7651619819e-01 -2.4012350244e+01" polarizability="3.7446945558e+01 -2.2271647889e+00 7.7496471179e-01 -2.2271647889e+00 4.0829249335e+01 5.7301773271e-01 7.7496471179e-01 5.7301773271e-01 3.9336321938e+01" charge=0 multiplicity=1 method=wB97M-V basis=def2-svpd config_type=h2so4 sample_index=293 temperature=300.0 units=atomic
S         0.0181031044       0.0261052801       0.1526478011  -2.722581885774e-02  -8.116722549959e-02  -1.237547097881e-02
O        -0.0051737158       1.2463410887       0.8213870976   1.073013525441e-03   6.989025446298e-02   3.741846664853e-02
O         0.0017907160      -1.2679391185       0.8159562239  -1.847417493933e-03   1.010630253549e-02  -2.447716982442e-03
O         1.2652830456       0.0530841867      -0.8003931913   2.585625016412e-03  -8.088968468969e-02  -8.982530050109e-02
O        -1.2709907404      -0.0797902181      -0.8427764173  -1.788301261886e-02   6.381425710598e-02  -4.372882189787e-02
H         1.1337321940      -0.9154804606      -1.5233619976   1.471458287744e-02   8.508365646138e-02   6.615915938858e-02
H        -1.5600661989       0.8484295086      -1.3613176461   2.867437271039e-02  -6.683717633796e-02   4.474656847400e-02
7
Properties=species:S:1:pos:R:3:forces:R:3 energy=-6.997674697262e+02 dipole="1.4169986516e-01 -3.1198941691e-02 -1.2076333569e+00" quadrupole="-2.5236562931e+01 -3.2681867505e+00 3.8473239071e-01 -3.2681867505e+00 -2.8138649728e+01 -7.0935803276e-01 3.8473239071e-01 -7.0935803276e-01 -2.4664126537e+01" polarizability="3.4823607529e+01 -1.3846323899e+00 7.0855644319e-01 -1.3846323899e+00 3.6280606982e+01 -9.0273385282e-01 7.0855644319e-01 -9.0273385282e-01 3.4458887747e+01" charge=0 multiplicity=1 method=wB97M-V basis=def2-svpd config_type=h2so4 sample_index=294 temperature=300.0 units=atomic
S        -0.0235761679       0.0052654193       0.1792184943   1.013207677936e-02  -3.275293214070e-03  -9.826508897645e-02
O         0.0022120826       1.2380388664       0.7723561340  -2.680897883485e-03   1.057724729614e-01   6.473540781542e-02
O         0.0623214431      -1.2412178272       0.7415485876  -9.519944875239e-03  -1.094537148103e-01   7.013094321689e-02
O         1.2392371724       0.0300926742      -0.8004373904  -4.165967963317e-03   5.446566555975e-02  -1.732712346342e-02
O        -1.2840205432      -0.0328940290      -0.7993734771   4.722386960360e-03   5.035120069016e-02  -6.593722668059e-02
H         1.5809261299      -0.8197412914      -0.9376821796   1.405055918377e-02  -4.455082461756e-02  -6.576686591751e-03
H        -1.1519074792       0.7536798756      -1.5332704255  -1.254832968354e-02  -5.335627387013e-02   5.322884308389e-02
7
Properties=species:S:1:pos:R:3:forces:R:3 energy=-6.997674557135e+02 dipole="4.0307780331e-01 5.6818694244e-02 -1.2303263127e+00" quadrupole="-2.2760374756e+01 -4.2843307815e+00 4.5818341224e-01 -4.2843307815e+00 -2.8357259526e+01 -7.8689496287e-01 4.5818341224e-01 -7.8689496287e-01 -2.7890847367e+01" polarizability="3.6489869291e+01 -2.6045114792e+00 -6.5367640186e-02 -2.6045114792e+00 3.9719961699e+01 -5.6701475107e-01 -6.5367640186e-02 -5.6701475107e-01 3.5566711868e+01" charge=0 multiplicity=1 method=wB97M-V basis=def2-svpd config_type=h2so4 sample_index=295 temperature=300.0 units=atomic
S        -0.0005915965       0.0086966623       0.1243533109   5.631129988727e-03  -3.654505269702e-02   8.302194198477e-02
O        -0.0198222182       1.2546150329       0.8589517985  -1.047066295935e-03   6.350610985354e-03  -5.150032347156e-03
O         0.0136684441      -1.2724416902       0.8457840892   4.708220157745e-03   1.839290866598e-02  -1.476033499974e-02
O         1.1757749699       0.0454839823      -0.8881769592   8.992756248355e-02  -8.119492221510e-02  -2.642263352001e-03
O        -1.2044033669      -0.0464247351      -0.8354875944  -3.295282969964e-02   4.625128560128e-02  -3.828425639983e-02
H         1.8084298366      -0.8929356116      -0.6427731416  -5.284938981310e-02   7.941291810776e-02  -2.296707309193e-02
H        -1.2402936693       0.9235415198      -1.1293738628  -1.344555291314e-02  -3.269501467085e-02   6.111005859895e-04
7
Properties=species:S:1:pos:R:3:forces:R:3 energy=-6.997748920928e+02 dipole="-2.4939942938e-02 3.8390294313e-02 -1.4273860370e+00" quadrupole="-2.5824867037e+01 -3.4866232292e+00 -5.5831878954e-01 -3.4866232292e+00 -2.8275483718e+01 7.3208110073e-01 -5.5831878954e-01 7.3208110073e-01 -2.4942283649e+01" polarizability="3.8265204744e+01 -1.0825968513e+00 -2.8236659045e-02 -1.0825968513e+00 3.9523901275e+01 1.8204656368e+00 -2.8236659045e-02 1.8204656368e+00 3.8817369121e+01" charge=0 multiplicity=1 method=wB97M-V basis=def2-svpd config_type=h2so4 sample_index=296 temperature=300.0 units=atomic
S         0.0024559409       0.0175939958       0.1635971842  -4.192519120933e-03  -2.583078231290e-02  -2.417734182683e-02
O         0.0163311275       1.2715787408       0.8555677706  -4.807910583801e-03   1.271086348681e-02  -1.418143391318e-03
O         0.0069888418      -1.2553761927       0.8223238677  -3.844569918823e-03  -9.883826028659e-03   7.986349043559e-03
O         1.2983347646       0.0476981297      -0.8270747259  -1.592097854876e-02  -6.516951967388e-02  -5.830235319201e-02
O        -1.3139744602      -0.0941686257      -0.8918566798   4.294048266896e-02  -3.992502400715e-02   3.669513027459e-02
H         1.2660136805      -0.8607981945      -1.5127520608   9.348048714780e-04   7.359312595014e-02   6.017241095825e-02
H        -1.4614493365       0.7745859398      -1.1596931583  -1.510639097942e-02   5.452984527588e-02  -2.104230698909e-02
7
Properties=species:S:1:pos:R:3:forces:R:3 energy=-6.997785777601e+02 dipole="-1.2468428574e-01 -9.3979098351e-02 -1.3909342435e+00" quadrupole="-2.4626887098e+01 -3.7597329974e+00 6.8518448903e-01 -3.7597329974e+00 -2.8015555444e+01 -1.1223431763e+00 6.8518448903e-01 -1.1223431763e+00 -2.6614738971e+01" polarizability="3.6545230994e+01 -1.2495941291e+00 -2.4608227071e-01 -1.2495941291e+00 3.8362877240e+01 -1.2016744305e+00 -2.4608227071e-01 -1.2016744305e+00 3.6996985062e+01" charge=0 multiplicity=1 method=wB97M-V basis=def2-svpd config_type=h2so4 sample_index=297 temperature=300.0 units=atomic
S        -0.0551396336      -0.0328147787       0.1265609707   7.244850790885e-02   5.980046245221e-02   3.676589630434e-02
O         0.0286217920       1.2256026266       0.8467020641  -1.470215678484e-02   3.006836512576e-03  -8.663848042001e-03
O         0.0333919679      -1.2282660773       0.8852130658  -6.686133395012e-03  -4.213093440245e-02   8.058224995580e-04
O         1.2706062060       0.0948738222      -0.8855001669  -2.634878932922e-02  -1.346668265921e-02   8.719207029777e-03
O        -1.2512977421      -0.0347017350      -0.8418401962  -2.060546769336e-02   6.375020909084e-02  -6.059619217046e-02
H         1.6260196226      -0.8016772937      -0.8957101567   7.777986422103e-03  -4.809005294011e-03  -6.152303426523e-03
H        -1.1783703669       0.9417191913      -1.3166647853  -1.198176844218e-02  -6.611818519351e-02   2.908082221169e-02
7
Properties=species:S:1:pos:R:3:forces:R:3 energy=-6.997873098537e+02 dipole="-2.1874746554e-01 -9.1227299956e-02 -1.3019781504e+00" quadrupole="-2.3181846729e+01 -4.2063097825e+00 1.1492377572e+00 -4.2063097825e+00 -2.8296550854e+01 -2.7563552137e-01 1.1492377572e+00 -2.7563552137e-01 -2.6467759673e+01" polarizability="3.6031899143e+01 -2.2970485534e+00 -2.7492007800e-01 -2.2970485534e+00 3.9615560021e+01 2.3601967484e-01 -2.7492007800e-01 2.3601967484e-01 3.6225981075e+01" charge=0 multiplicity=1 method=wB97M-V basis=def2-svpd config_type=h2so4 sample_index=298 temperature=300.0 units=atomic
S        -0.0120817946       0.0072923337       0.1639413637   2.895278522832e-02   2.407714285194e-02   1.519350663098e-02
O        -0.0329786112       1.2866910313       0.8534688865   4.022953424414e-03  -1.302721522751e-02  -3.784803064105e-03
O         0.0237707057      -1.2809438033       0.8166272934  -3.194113626954e-03   1.409493411014e-03   2.699914528252e-03
O         1.2155854164       0.0264847471      -0.8947798742   2.288654429407e-02  -5.769287758092e-02   1.140484329021e-03
O        -1.1770274872      -0.0313949448      -0.8426887195  -5.050736870724e-02  -1.695527991445e-02  -3.262934378002e-02
H         1.5185404231      -0.9806414808      -0.9850411701  -1.644721673202e-02   6.019731085059e-02   4.369033929308e-03
H        -1.6034011559       0.7347206859      -1.2699863987   1.425984636091e-02   1.996596937195e-03   1.290058258341e-02
7
Properties=species:S:1:pos:R:3:forces:R:3 energy=-6.997830664678e+02 dipole="3.2012129795e-01 -6.4026895361e-02 -1.5391930107e+00" quadrupole="-2.4772091284e+01 -3.8362561810e+00 1.3077760088e-02 -3.8362561810e+00 -2.8967142322e+01 -2.6682172335e-01 1.3077760088e-02 -2.6682172335e-01 -2.5994293416e+01" polarizability="4.0447591891e+01 -4.7819753620e-01 5.5055852634e-01 -4.7819753620e-01 4.0911286829e+01 -3.9047123265e-01 5.5055852634e-01 -3.9047123265e-01 3.9358942485e+01" charge=0 multiplicity=1 method=wB97M-V basis=def2-svpd config_type=h2so4 sample_index=299 temperature=300.0 units=atomic
S         0.0082708696       0.0004191837       0.1166473934  -1.978899301564e-02  -1.729436329819e-02   6.560225544255e-02
O         0.0527978022       1.2735351525       0.8647388113  -9.972499146678e-03  -2.894987380787e-02  -2.873931475333e-02
O        -0.0326844093      -1.2986659255       0.8794892357   8.233727168720e-03   5.099084014673e-02  -4.454328361332e-02
O         1.3192481793       0.1185313325      -0.8503754272  -8.548362279141e-03  -4.621063432797e-02  -6.122252531270e-03
O        -1.3756488707      -0.0863864270      -0.8573390248   4.629169392455e-02   8.697963180568e-03   1.189507223596e-02
H         1.6398220878      -0.8294661523      -1.0202284957  -1.019605519932e-02   3.223314242003e-02   3.141559897897e-03
H        -1.3283552184       0.7105798016      -1.4141296982  -6.043554944727e-03   5.237004704104e-04  -1.262933668749e-03
7
Properties=species:S:1:pos:R:3:forces:R:3 energy=-6.997778674479e+02 dipole="-1.5557488498e-01 7.3702439322e-02 -1.0814032012e+00" quadrupole="-2.7341404635e+01 -2.7118362166e+00 5.2005572951e-01 -2.7118362166e+00 -2.7803765158e+01 -1.9380768605e-01 5.2005572951e-01 -1.9380768605e-01 -2.4891347865e+01" polarizability="3.6805020058e+01 -1.7009895172e+00 -4.9055513519e-01 -1.7009895172e+00 4.0314525212e+01 -4.3686066688e-01 -4.9055513519e-01 -4.3686066688e-01 3.7411173054e+01" charge=0 multiplicity=1 method=wB97M-V basis=def2-svpd config_type=h2so4 sample_index=300 temperature=300.0 units=atomic
S        -0.0271880639       0.0205014068       0.2204233036   3.322169209208e-02  -4.579416023609e-02  -7.710806698256e-02
O        -0.0505881369       1.3000701401       0.8031411614   4.795632384373e-03   3.722888982084e-02   3.492715692221e-02
O         0.0655629620      -1.3087217615       0.7665002438  -1.201597575697e-02   2.428439707419e-03   2.368094157519e-02
O         1.2828785581       0.0088392984      -0.8856296063  -3.401892313980e-02  -2.395632524786e-02   1.250241584901e-02
O        -1.2518399868      -0.0336217334      -0.8399396673   1.388029810818e-02   5.591232361909e-02  -4.015098928188e-02
H         1.2187513446      -0.9521864588      -1.1848630942   1.020955922000e-02   3.111306847309e-02   5.951009414600e-03
H        -1.0899705829       0.8339610410      -1.4571156250  -1.605774158612e-02  -5.694928980688e-02   4.013368318504e-02
7
Properties=species:S:1:pos:R:3:forces:R:3 energy=-6.997840866483e+02 dipole="3.3344207913e-01 1.1079618897e-01 -1.4004485058e+00" quadrupole="-2.2632829275e+01 -3.6751953293e+00 2.3701860823e-01 -3.6751953293e+00 -2.9305141665e+01 -4.3946441165e-01 2.3701860823e-01 -4.3946441165e-01 -2.5203142652e+01" polarizability="3.6883454484e+01 -1.4461874256e+00 -5.3578395546e-01 -1.4461874256e+00 3.8845012867e+01 -5.1187612701e-01 -5.3578395546e-01 -5.1187612701e-01 3.6847768266e+01" charge=0 multiplicity=1 method=wB97M-V basis=def2-svpd config_type=h2so4 sample_index=301 temperature=300.0 units=atomic
S        -0.0154956187       0.0201924375       0.1775895379   3.391579023469e-02  -6.545385282196e-02  -1.156809688902e-02
O         0.0197152426       1.2718026380       0.8353804522  -2.131179515449e-03   3.055050711140e-02   1.947081026916e-02
O        -0.0211510601      -1.2920906460       0.8053861619   1.366006344920e-03   1.686293380249e-02   7.222508328431e-03
O         1.1998859103       0.0526374562      -0.8944052005   3.899281276666e-02  -1.162908853176e-02  -1.765774074415e-02
O        -1.2094350677      -0.0712048929      -0.8225545486  -3.160501514155e-02   2.388223599190e-02  -4.440778346057e-02
H         1.9198089269      -0.6684913089      -1.0313459690  -4.557266194728e-02   2.612782633511e-02   1.949110676734e-02
H        -1.2574322324       0.6531739767      -1.5221628802   4.955573128906e-03  -2.041583573261e-02   2.740775845748e-02
7
Properties=species:S:1:pos:R:3:forces:R:3 energy=-6.997712770344e+02 dipole="-9.7567931217e-02 -8.1240297562e-02 -1.2301880853e+00" quadrupole="-2.2123558279e+01 -4.5625122695e+00 -1.1326174954e+00 -4.5625122695e+00 -2.8192637897e+01 1.1116539305e+00 -1.1326174954e+00 1.1116539305e+00 -2.6365785862e+01" polarizability="3.7257720017e+01 -2.6965953748e+00 -6.9760344624e-01 -2.6965953748e+00 3.8326883271e+01 1.6562286800e+00 -6.9760344624e-01 1.6562286800e+00 3.6533899562e+01" charge=0 multiplicity=1 method=wB97M-V basis=def2-svpd config_type=h2so4 sample_index=302 temperature=300.0 units=atomic
S         0.0003347257       0.0066510891       0.1637580055  -8.489110287259e-03  -7.437954917868e-03  -4.733269982335e-02
O         0.0073871049       1.2411060501       0.8338510241  -3.619045791912e-03   5.225770206273e-02   2.339328270586e-02
O         0.0122138980      -1.2255180869       0.8243939993  -3.681486422357e-03  -6.212924860869e-02   3.619858991281e-02
O         1.2119831452       0.0377423948      -0.8295033529   5.785466835177e-02  -5.871363678377e-02  -6.589116306121e-02
O        -1.2159363541      -0.0579131476      -0.8964818242  -2.702974570903e-02   2.581661829823e-02  -1.983794753993e-03
H         1.5550388342      -0.9013739393      -1.3688012455  -3.906070414646e-02   7.455613324363e-02   5.300429635112e-02
H        -1.8099682695       0.7541882648      -0.8802807286   2.403040740119e-02  -2.432500925505e-02   2.473871359601e-03
7
Properties=species:S:1:pos:R:3:forces:R:3 energy=-6.997694068325e+02 dipole="1.1526846554e-01 -8.6783900389e-02 -1.5318268058e+00" quadrupole="-2.6063712592e+01 -3.3763745289e+00 1.3954523689e-01 -3.3763745289e+00 -2.8516822059e+01 -3.6135255532e-01 1.3954523689e-01 -3.6135255532e-01 -2.4721175901e+01" polarizability="3.7751167887e+01 -1.8690581203e+00 3.4745185160e-01 -1.8690581203e+00 4.2245087149e+01 2.4602323758e-01 3.4745185160e-01 2.4602323758e-01 3.9371557362e+01" charge=0 multiplicity=1 method=wB97M-V basis=def2-svpd config_type=h2so4 sample_index=303 temperature=300.0 units=atomic
S        -0.0184292339       0.0197445302       0.1686151507   1.543827772423e-02   1.613428370643e-02   1.226520560627e-02
O        -0.0058122215       1.3326058068       0.8733183826  -1.074480035907e-03  -5.081670181547e-02  -2.871322925543e-02
O         0.0480450779      -1.2963884089       0.7705465031  -1.006088064837e-02   6.405778594672e-03   1.513882402196e-02
O         1.2588820330       0.0141471343      -0.8509763531   6.059947993762e-03  -3.873253107140e-02  -1.958974804807e-02
O        -1.2867108569      -0.0768916800      -0.8408092612   2.488479120696e-02   7.786448197404e-02  -6.092784671796e-02
H         1.4704395318      -0.9783994743      -1.1360247794  -1.618664970417e-02   5.713485928645e-02   2.059536580571e-02
H        -1.1156174485       0.7709674154      -1.5864802209  -1.905818744711e-02  -6.805177523009e-02   6.119732990653e-02
7
Properties=species:S:1:pos:R:3:forces:R:3 energy=-6.997691552933e+02 dipole="-2.8669558849e-01 7.2718444362e-02 -1.5676443522e+00" quadrupole="-2.3422398949e+01 -4.4686037782e+00 3.7861399431e-02 -4.4686037782e+00 -2.8646901243e+01 3.0690953443e-01 3.7861399431e-02 3.0690953443e-01 -2.6233494891e+01" polarizability="3.8174397173e+01 -2.5291539533e+00 9.2247987312e-01 -2.5291539533e+00 4.1588077584e+01 -4.8957601793e-01 9.2247987312e-01 -4.8957601793e-01 3.7039344228e+01" charge=0 multiplicity=1 method=wB97M-V basis=def2-svpd config_type=h2so4 sample_index=304 temperature=300.0 units=atomic
S         0.0014603429      -0.0080611551       0.1206229949  -2.208279509911e-02  -4.308702760432e-03   7.669045946650e-02
O         0.0214745422       1.2822901887       0.7902702548  -8.624609150223e-03  -6.873313001513e-03   3.175526267029e-03
O         0.0109851256      -1.3060802588       0.8498483349  -2.450574867596e-03   3.886731355266e-02  -3.061825509303e-02
O         1.2624622311       0.0861393818      -0.7754899678   2.171676275638e-02  -7.125248147487e-02  -6.637681481419e-02
O        -1.2676051896      -0.0514875499      -0.8455896589  -4.604419549137e-02   6.400660058544e-02  -2.765352036193e-02
H         1.2959346435      -0.8538646651      -1.2680736144   7.755992894390e-03   5.565366176171e-02   2.551087933062e-02
H        -1.7761938214       0.9356410098      -1.0195877381   4.966541396898e-02  -7.612553408681e-02   1.919420666227e-02
7
Properties=species:S:1:pos:R:3:forces:R:3 energy=-6.997890778041e+02 dipole="1.1959060630e-01 -1.5323644253e-01 -1.0738853410e+00" quadrupole="-2.4930272659e+01 -3.7003417322e+00 -5.4454195613e-01 -3.7003417322e+00 -2.7730828631e+01 2.3947821189e-01 -5.4454195613e-01 2.3947821189e-01 -2.6405363197e+01" polarizability="3.5062849700e+01 -1.6399191579e+00 -9.7567832733e-02 -1.6399191579e+00 3.7665927788e+01 1.1183391464e+00 -9.7567832733e-02 1.1183391464e+00 3.4297090513e+01" charge=0 multiplicity=1 method=wB97M-V basis=def2-svpd config_type=h2so4 sample_index=305 temperature=300.0 units=atomic
S         0.0108422080      -0.0078811392       0.1690998206  -1.509263340965e-02   8.606917417071e-02  -3.823342232696e-02
O        -0.0443063467       1.2928426198       0.8125018461   5.923489498211e-03  -1.113601407774e-02  -1.989420760939e-03
O         0.0332836074      -1.2438982207       0.7687005125  -1.246183915676e-03  -9.867979827315e-02   6.256401615994e-02
O         1.2384172939       0.0136271331      -0.8251316476   2.162338433651e-02  -1.067676048675e-02  -2.444912388716e-02
O        -1.2503202817      -0.0450179653      -0.8430733792   1.142593892659e-02  -2.357109664575e-02   6.814808850470e-03
H         1.4113939024      -0.9090486402      -1.1623727877  -4.504339582029e-03   2.265760053776e-02   9.626458222400e-03
H        -1.3874224880       0.8742237291      -0.9628901317  -1.809964143752e-02   3.531680499892e-02  -1.435324800451e-02
7
Properties=species:S:1:pos:R:3:forces:R:3 energy=-6.997758123407e+02 dipole="1.6086044499e-02 -1.4910851518e-01 -1.3531604078e+00" quadrupole="-2.5598185565e+01 -3.7250554189e+00 3.9144689006e-01 -3.7250554189e+00 -2.7704882323e+01 -7.2450239570e-01 3.9144689006e-01 -7.2450239570e-01 -2.5891009853e+01" polarizability="3.7397839769e+01 -2.5460717529e+00 -4.5643515253e-01 -2.5460717529e+00 4.0800248860e+01 -1.4038986889e-01 -4.5643515253e-01 -1.4038986889e-01 3.7043926958e+01" charge=0 multiplicity=1 method=wB97M-V basis=def2-svpd config_type=h2so4 sample_index=306 temperature=300.0 units=atomic
S        -0.0166068846      -0.0138979082       0.1539350474   2.526461990466e-02   7.557044833064e-02  -7.180715922659e-04
O        -0.0587465598       1.2960248002       0.8276033753   9.328190439201e-03  -3.031608762043e-02  -1.230999366354e-02
O         0.0564364495      -1.2667649258       0.7954640409  -6.325785642205e-03  -4.395032733907e-02   2.669323850580e-02
O         1.2930438868       0.0208386626      -0.8594323991  -8.070211133901e-03  -5.559383872115e-02  -4.737582787957e-03
O        -1.2755136688      -0.0192644612      -0.8040773321  -7.243140724604e-04   6.713928642587e-02  -5.962418657828e-02
H         1.4966150223      -0.9985803676      -1.0454612232  -9.903209801953e-03   6.057086914964e-02   9.816052360085e-03
H        -1.2144628871       0.9525624919      -1.3389622444  -9.591177697586e-03  -7.340379844693e-02   4.080763104933e-02
7
Properties=species:S:1:pos:R:3:forces:R:3 energy=-6.997732300484e+02 dipole="1.6102054083e-01 -1.5577979711e-01 -1.1536264912e+00" quadrupole="-2.5731725492e+01 -3.7929473781e+00 3.3446375497e-01 -3.7929473781e+00 -2.7731454644e+01 -6.2138450638e-01 3.3446375497e-01 -6.2138450638e-01 -2.6346519926e+01" polarizability="3.6994680513e+01 -1.4605330169e+00 -6.7760630256e-01 -1.4605330169e+00 4.0751657084e+01 -6.8928779205e-01 -6.7760630256e-01 -6.8928779205e-01 3.6575731904e+01" charge=0 multiplicity=1 method=wB97M-V basis=def2-svpd config_type=h2so4 sample_index=307 temperature=300.0 units=atomic
S         0.0191643049      -0.0252572087       0.1735425688  -1.584094601349e-02   6.779285976156e-02  -2.342298704488e-02
O        -0.0260885523       1.2856040589       0.7885554228   6.735036600799e-03  -6.200692919442e-03   1.279262297533e-02
O        -0.0393255119      -1.2864466932       0.8163404872   1.482520628876e-02  -3.227499375837e-02   1.890583743418e-02
O         1.2711330794       0.1093602202      -0.8854360845  -7.455846054393e-03  -9.855691559009e-02   1.093900611642e-02
O        -1.2536498004      -0.0565090680      -0.8075148981   1.560779882485e-03   6.953334043536e-02  -4.292264115645e-02
H         1.4039492794      -0.9580906206      -1.0005553313   5.622074719830e-03   7.079265517250e-02  -5.782840861620e-03
H        -1.2523717971       0.9393341271      -1.2488477084  -5.399883311752e-03  -7.108669393402e-02   2.948938400845e-02
7
Properties=species:S:1:pos:R:3:forces:R:3 energy=-6.997656359059e+02 dipole="7.9740734009e-02 -7.5938578354e-02 -1.2381113412e+00" quadrupole="-2.5397565402e+01 -3.2941238760e+00 6.1397171575e-01 -3.2941238760e+00 -2.8412716606e+01 -1.2384229401e+00 6.1397171575e-01 -1.2384229401e+00 -2.5203462468e+01" polarizability="3.6526700007e+01 -1.3534331187e+00 -5.9826697434e-01 -1.3534331187e+00 4.0196721563e+01 -1.9353616143e+00 -5.9826697434e-01 -1.9353616143e+00 3.8848841146e+01" charge=0 multiplicity=1 method=wB97M-V basis=def2-svpd config_type=h2so4 sample_index=308 temperature=300.0 units=atomic
S        -0.0430583219      -0.0189774031       0.1992670319   5.140222632955e-02   3.235670604357e-02  -3.678366096214e-02
O         0.0015721437       1.2773538430       0.8192709996  -2.835288927385e-03   6.832105689298e-04   1.644751125553e-02
O         0.0234510826      -1.2939924204       0.8390650979  -3.933388517624e-03  -1.362933502950e-02   1.255652013191e-02
O         1.2255818052       0.0808020019      -0.9364219969  -1.201786670446e-02  -1.720195203165e-02   2.430038750309e-02
O        -1.2076867913      -0.0273311261      -0.8400172123  -9.802939164370e-03   6.433871692377e-02  -8.441736997831e-02
H         1.6534035464      -0.7985738330      -0.9356162744  -2.374958961919e-03   7.592276943477e-03  -2.888344463823e-03
H        -0.9791361553       0.8305045288      -1.6215541440  -2.044402153578e-02  -7.415211972862e-02   7.073748739106e-02
7
Properties=species:S:1:pos:R:3:forces:R:3 energy=-6.997840955224e+02 dipole="-5.8997481839e-02 -1.5893359006e-01 -1.5191496364e+00" quadrupole="-2.2703233237e+01 -4.5051697784e+00 -2.7269124928e-01 -4.5051697784e+00 -2.9024640953e+01 1.5556556193e-01 -2.7269124928e-01 1.5556556193e-01 -2.6727341867e+01" polarizability="3.6710743347e+01 -1.8211419788e+00 -5.9867257410e-01 -1.8211419788e+00 4.0659622485e+01 6.8266466867e-01 -5.9867257410e-01 6.8266466867e-01 3.5289492313e+01" charge=0 multiplicity=1 method=wB97M-V basis=def2-svpd config_type=h2so4 sample_index=309 temperature=300.0 units=atomic
S         0.0058386111      -0.0181064090       0.1072308221   6.436117549863e-03   5.803983156763e-02   1.048047368465e-01
O        -0.0052053640       1.3266464666       0.8086382759  -2.297747163160e-04  -5.956812615590e-02  -3.009590724779e-02
O        -0.0275794952      -1.2924245860       0.8003257025   1.062213291871e-02   3.651884958696e-03  -3.114566366554e-03
O         1.2665881839       0.0698621290      -0.7984093014   3.458675253327e-02  -4.191138068391e-02  -4.221924641740e-02
O        -1.2393731337      -0.0670807912      -0.7807275690  -5.418774280337e-02   2.684680540786e-02  -4.894736086862e-02
H         1.5518470348      -0.8580481453      -1.1290301529  -1.277062674327e-02   3.852292237488e-02   1.496752233048e-02
H        -1.6467259657       0.8414104589      -0.9189600437   1.553423459075e-02  -2.555364350185e-02   4.537593159850e-03
7
Properties=species:S:1:pos:R:3:forces:R:3 energy=-6.997952569964e+02 dipole="-8.8200428383e-02 4.7711148288e-02 -1.2218725329e+00" quadrupole="-2.4881823285e+01 -3.6870705987e+00 -5.1770632577e-01 -3.6870705987e+00 -2.8253730344e+01 4.3379658198e-01 -5.1770632577e-01 4.3379658198e-01 -2.6482829429e+01" polarizability="3.5220860099e+01 -1.5568474399e+00 4.3948822279e-01 -1.5568474399e+00 3.9834435383e+01 -1.7446011199e-01 4.3948822279e-01 -1.7446011199e-01 3.5242587967e+01" charge=0 multiplicity=1 method=wB97M-V basis=def2-svpd config_type=h2so4 sample_index=310 temperature=300.0 units=atomic
S        -0.0109035597      -0.0069494572       0.1622194589   3.087304242548e-03  -2.394980802001e-02   3.013605806773e-02
O        -0.0018344366       1.3016803225       0.7816386501  -7.264802071833e-03  -5.881977266217e-03   8.995116504824e-03
O         0.0477454009      -1.3160622989       0.8280559778  -9.663599609916e-03   3.010309913925e-02  -9.322578080615e-03
O         1.2149770050       0.0540464171      -0.8078003688   2.417242548081e-02  -8.885898705152e-03  -2.623736750952e-02
O        -1.2316594139      -0.0328535446      -0.8735054411  -1.094786471132e-02   2.618830260512e-02   1.606858249318e-03
H         1.3171918467      -0.8290741280      -1.2109165542   4.452537234048e-03   4.976214316584e-03   8.408153097177e-04
H        -1.4359905560       0.9415622841      -0.9377827924  -3.848361907387e-03  -2.254202250025e-02  -6.044299633639e-03
7
Properties=species:S:1:pos:R:3:forces:R:3 energy=-6.997773319473e+02 dipole="4.2715157611e-01 5.6751781668e-02 -9.8958560065e-01" quadrupole="-2.2229806256e+01 -4.7029216525e+00 -6.0026111869e-01 -4.7029216525e+00 -2.8592032959e+01 4.5760828428e-02 -6.0026111869e-01 4.5760828428e-02 -2.7496253399e+01" polarizability="3.7205670460e+01 -2.4042068515e+00 -4.7241012449e-01 -2.4042068515e+00 4.1044544944e+01 7.4989978122e-02 -4.7241012449e-01 7.4989978122e-02 3.4068887556e+01" charge=0 multiplicity=1 method=wB97M-V basis=def2-svpd config_type=h2so4 sample_index=311 temperature=300.0 units=atomic
S         0.0327341181       0.0028532071       0.1595409168  -3.483552115949e-02  -1.799657214264e-02   2.241394070487e-02
O        -0.0372550327       1.3304265398       0.7575775822   9.153086908026e-03  -1.395809323859e-02   8.951958380917e-03
O        -0.0371702311      -1.3228891718       0.7460194070   1.937934254170e-02   8.171481912832e-03   2.056561071135e-02
O         1.2280417709       0.0458581593      -0.8213799923   6.881055989087e-02  -3.468574701737e-02  -3.291781632318e-02
O        -1.2373221757      -0.0683639990      -0.7766988889  -3.336023042353e-02   8.310372774807e-02  -2.478120547817e-02
H         1.8086447695      -0.8155372978      -0.9099701239  -3.914856665304e-02   4.273816397661e-02   9.414552634865e-03
H        -1.5138193966       0.9641644134      -0.8312280883   1.001588778227e-02  -6.739364065177e-02  -3.699261718907e-03
7
Properties=species:S:1:pos:R:3:forces:R:3 energy=-6.997848416956e+02 dipole="2.1094595135e-01 1.8518082193e-01 -1.2820821425e+00" quadrupole="-2.4806577945e+01 -4.0516211850e+00 3.4651981402e-02 -4.0516211850e+00 -2.8108906357e+01 -4.8357028717e-02 3.4651981402e-02 -4.8357028717e-02 -2.6288231867e+01" polarizability="3.7767175890e+01 -2.2180730033e+00 4.0392315113e-01 -2.2180730033e+00 4.1159568413e+01 -3.7264779672e-01 4.0392315113e-01 -3.7264779672e-01 3.6042647917e+01" charge=0 multiplicity=1 method=wB97M-V basis=def2-svpd config_type=h2so4 sample_index=312 temperature=300.0 units=atomic
S         0.0167582375       0.0351532722       0.1476588953  -2.273043680166e-02  -8.123762643508e-02   1.689572555969e-02
O        -0.0443138101       1.3036192883       0.8082359203   8.577683907515e-03   1.178382743205e-02   5.948443327231e-03
O         0.0259065780      -1.3187660790       0.7620479025   2.922557976312e-04   4.181163994146e-02  -3.194635045674e-03
O         1.2843263409       0.0094341430      -0.8123798782   1.458245099712e-02  -1.617654124055e-02  -2.078629453550e-02
O        -1.3094743587      -0.0632181268      -0.7984008679   1.487271479116e-02   7.670881216685e-02  -3.140539119964e-02
H         1.5384678375      -0.9507936646      -1.0053506445  -1.190043681731e-02   3.217685829125e-02   9.175023148066e-03
H        -1.3760849049       0.9297093624      -1.2040352871  -3.586373657939e-03  -6.516778890388e-02   2.335773774834e-02
7
Properties=species:S:1:pos:R:3:forces:R:3 energy=-6.997827931341e+02 dipole="8.3591390808e-02 -1.3215333020e-01 -9.5037071372e-01" quadrupole="-2.1097226110e+01 -4.8707035626e+00 -5.7286121670e-01 -4.8707035626e+00 -2.8433608367e+01 2.8581902231e-01 -5.7286121670e-01 2.8581902231e-01 -2.8884172504e+01" polarizability="3.8719949161e+01 -3.2520147961e+00 4.3031290139e-02 -3.2520147961e+00 3.9977871145e+01 -4.2337451593e-01 4.3031290139e-02 -4.2337451593e-01 3.5933810320e+01" charge=0 multiplicity=1 method=wB97M-V basis=def2-svpd config_type=h2so4 sample_index=313 temperature=300.0 units=atomic
S         0.0006815100      -0.0272543281       0.1244427704  -1.398610237509e-02   1.067764887727e-02   4.650530094549e-02
O        -0.0285728764       1.2586541623       0.8049768407  -2.374044266703e-03  -4.236832571138e-03   2.176149208537e-03
O         0.0498201099      -1.2817152551       0.8868286325  -3.680829642554e-03   1.724216470915e-02  -2.458740284531e-02
O         1.2306242959       0.0526684655      -0.8463598544   5.453590246723e-02  -7.527336448046e-02  -1.653056406096e-02
O        -1.2530516964       0.0246631444      -0.8843093957  -2.445120175467e-02   2.895629269635e-02   5.101664875498e-03
H         1.7722836191      -0.8898591979      -0.8003526006  -3.951618689065e-02   6.595210032271e-02  -4.087485538858e-03
H        -1.7773875110       0.8971478220      -0.6806458541   2.949265702822e-02  -4.333155696639e-02  -8.642825787319e-03
7
Properties=species:S:1:pos:R:3:forces:R:3 energy=-6.997899196327e+02 dipole="3.1047474911e-01 5.5167228433e-02 -1.0978402753e+00" quadrupole="-2.4920568674e+01 -3.5815727396e+00 4.6651816439e-01 -3.5815727396e+00 -2.8391382932e+01 -6.8016978852e-01 4.6651816439e-01 -6.8016978852e-01 -2.6785680636e+01" polarizability="3.5802521107e+01 -1.4383468630e+00 1.7473604571e-01 -1.4383468630e+00 4.0470399766e+01 -9.2718432526e-01 1.7473604571e-01 -9.2718432526e-01 3.5655751599e+01" charge=0 multiplicity=1 method=wB97M-V basis=def2-svpd config_type=h2so4 sample_index=314 temperature=300.0 units=atomic
S         0.0234559884       0.0082082311       0.1681686368  -4.368619234627e-02  -3.166042117482e-02   2.201510040738e-02
O        -0.0347963105       1.3023338133       0.7998363906   6.332864880724e-03  -1.235516683980e-03   1.332232276193e-02
O         0.0075101110      -1.3420243836       0.8155608133   8.765926740880e-03   5.367718727971e-02  -1.894339840636e-02
O         1.2101294554       0.0597161520      -0.8729547950   2.397669363241e-02  -4.068616340538e-02   4.183227918954e-03
O        -1.2447371148      -0.0330326770      -0.8333047109   2.190722269752e-03   7.877694592075e-03  -7.034724641365e-03
H         1.4970426889      -0.8945238745      -0.7641769421   7.687548811197e-03   2.197153591898e-02  -1.738793831236e-02
H        -1.2601397304       0.8481553423      -1.2683341464  -5.251090994892e-03  -9.999415301325e-03   3.846774613565e-03
7
Properties=species:S:1:pos:R:3:forces:R:3 energy=-6.997558817481e+02 dipole="3.0556250952e-01 -4.7909976197e-02 -1.4674877709e+00" quadrupole="-2.5230362207e+01 -3.5357999606e+00 2.2911515102e-01 -3.5357999606e+00 -2.8820419604e+01 -8.9136913906e-01 2.2911515102e-01 -8.9136913906e-01 -2.4184019473e+01" polarizability="3.6245228484e+01 -6.2070791419e-01 9.2570430705e-01 -6.2070791419e-01 4.0349294560e+01 -2.4718870939e+00 9.2570430705e-01 -2.4718870939e+00 4.0230626210e+01" charge=0 multiplicity=1 method=wB97M-V basis=def2-svpd config_type=h2so4 sample_index=315 temperature=300.0 units=atomic
S         0.0018264303      -0.0098738333       0.1963214766  -1.375653150072e-02   5.004245408254e-03  -4.086292826178e-02
O         0.0691296843       1.2669014659       0.8218686766  -8.982290828986e-03   1.835007316189e-02   2.463741724915e-02
O        -0.0561672508      -1.2907204990       0.8411083407   1.008154754277e-02  -5.772062598179e-03   9.105054566547e-03
O         1.1762232807       0.1414451587      -0.8953008120   2.199995585254e-02  -1.994308846500e-02  -2.054597991760e-03
O        -1.2212634572      -0.0995646854      -0.8619346212  -1.067305558415e-03   7.526076307318e-02  -7.478457658791e-02
H         1.5672037241      -0.7265182443      -1.1013582327  -2.421643410435e-03   3.123754138863e-03  -1.313977934454e-03
H        -1.1209617870       0.7639003617      -1.7409348899  -5.832656442626e-03  -7.601734783597e-02   8.523519510193e-02
7
Properties=species:S:1:pos:R:3:forces:R:3 energy=-6.997824451317e+02 dipole="2.6676456160e-01 -1.1787690242e-01 -1.1717123655e+00" quadrupole="-2.4821566664e+01 -3.7727071979e+00 -2.7523891365e-01 -3.7727071979e+00 -2.7955263492e+01 -1.6765127995e-01 -2.7523891365e-01 -1.6765127995e-01 -2.5830243452e+01" polarizability="3.5451618527e+01 -3.5449302757e-01 2.2274122672e-01 -3.5449302757e-01 3.6084549218e+01 8.2892766387e-01 2.2274122672e-01 8.2892766387e-01 3.5328937605e+01" charge=0 multiplicity=1 method=wB97M-V basis=def2-svpd config_type=h2so4 sample_index=316 temperature=300.0 units=atomic
S         0.0350513360      -0.0019032091       0.1726078698  -3.516951823794e-02   1.048925991280e-01  -8.254799429113e-02
O         0.0167512449       1.2435151830       0.8598651132   2.172900812159e-03   2.645315349632e-02   5.176667583820e-03
O        -0.0641558053      -1.1948233431       0.7965085562   9.435403254857e-03  -1.479470284780e-01   7.930393710004e-02
O         1.2355916213       0.0770594489      -0.8699447118   4.776840989223e-03   2.232689378880e-02   6.652383959397e-03
O        -1.2594250892      -0.1199780224      -0.8626126438   2.125501516109e-02  -1.581232063022e-03   1.464479900010e-02
H         1.4343256539      -0.7892383277      -1.1906239441   6.049153457956e-03  -2.499323514696e-02  -1.086037674924e-02
H        -1.4096778549       0.7521809999      -1.2008436527  -8.483030053619e-03   2.067890201313e-02  -1.236567671343e-02
7
Properties=species:S:1:pos:R:3:forces:R:3 energy=-6.997669629096e+02 dipole="-1.0076087339e-01 3.5031523709e-02 -8.8952830628e-01" quadrupole="-2.3615249838e+01 -4.5415917495e+00 -8.4574058468e-01 -4.5415917495e+00 -2.7656196231e+01 1.0935635831e+00 -8.4574058468e-01 1.0935635831e+00 -2.7820827441e+01" polarizability="3.8572594014e+01 -3.2741962047e+00 -1.5185756525e-01 -3.2741962047e+00 4.1071755220e+01 7.9950500612e-01 -1.5185756525e-01 7.9950500612e-01 3.5878265153e+01" charge=0 multiplicity=1 method=wB97M-V basis=def2-svpd config_type=h2so4 sample_index=317 temperature=300.0 units=atomic
S         0.0247235312       0.0125726392       0.1611382968  -2.758373571843e-02  -2.342981503810e-02  -1.766891157543e-02
O        -0.0570598446       1.2880901906       0.8096795247   7.509712619587e-03   1.366348121734e-02   1.168315550781e-02
O         0.0201170998      -1.2812330410       0.8025433970   4.603337503905e-03  -1.140679002383e-03   1.125700312544e-02
O         1.2633999169       0.0156867215      -0.8378867058   1.133415047793e-02  -5.957727436348e-02  -2.280632072006e-02
O        -1.2501635006      -0.0459997634      -0.8707331526  -3.580244682674e-02   9.519385045911e-02   2.878128834377e-02
H         1.3676044325      -1.0077435479      -1.1152057043  -2.170096000677e-03   6.390169575971e-02   1.562331434349e-02
H        -1.7690887288       0.9724638258      -0.6176617828   4.215296960382e-02  -8.857692197004e-02  -2.692614675920e-02
7
Properties=species:S:1:pos:R:3:forces:R:3 energy=-6.997835183100e+02 dipole="4.1198220779e-01 -9.3054408366e-02 -8.8800827626e-01" quadrupole="-2.4388681901e+01 -3.8368814849e+00 -6.7743813078e-01 -3.8368814849e+00 -2.8294404732e+01 2.3349343238e-02 -6.7743813078e-01 2.3349343238e-02 -2.6752720701e+01" polarizability="3.7160868276e+01 -5.6563252708e-01 -6.8631816998e-01 -5.6563252708e-01 3.9314181923e+01 5.5863223598e-01 -6.8631816998e-01 5.5863223598e-01 3.6676627251e+01" charge=0 multiplicity=1 method=wB97M-V basis=def2-svpd config_type=h2so4 sample_index=318 temperature=300.0 units=atomic
S         0.0320424139      -0.0086536823       0.2035445504  -2.530002864863e-02   2.656601351573e-02  -4.820388392585e-02
O        -0.0129062716       1.3185567436       0.8284041040   6.194955436706e-03  -3.275792285243e-02  -8.858239519606e-03
O        -0.0603445742      -1.2935895521       0.8105175480   1.747516717969e-02  -1.625646441063e-02   2.258905549298e-02
O         1.2390094930       0.0754384562      -0.9177652442  -9.871824392700e-03   1.617658900479e-02   2.247786629899e-02
O        -1.2499953216      -0.0846974802      -0.8728950179   3.485843741382e-02  -7.391538935128e-02   4.196645968087e-02
H         1.6523425314      -0.7625774583      -1.1275225133  -7.648930730726e-04  -1.458657948670e-02   1.677250820308e-03
H        -1.3271777994       0.7877826008      -1.0530761216  -2.257910559403e-02   9.473789468477e-02  -3.164112696004e-02
7
Properties=species:S:1:pos:R:3:forces:R:3 energy=-6.997773593077e+02 dipole="-1.1229092599e-01 1.0999145764e-03 -1.0660682561e+00" quadrupole="-2.4209809692e+01 -3.8087119469e+00 3.1421692648e-01 -3.8087119469e+00 -2.7827093258e+01 1.0025432395e-01 3.1421692648e-01 1.0025432395e-01 -2.5827393461e+01" polarizability="3.5511892096e+01 -1.6378716549e+00 -4.3475685285e-01 -1.6378716549e+00 3.5714351827e+01 -2.9203548535e-02 -4.3475685285e-01 -2.9203548535e-02 3.3037652212e+01" charge=0 multiplicity=1 method=wB97M-V basis=def2-svpd config_type=h2so4 sample_index=319 temperature=300.0 units=atomic
S         0.0156788771       0.0021091273       0.1635599131  -2.167796522560e-03   1.546421048315e-02  -8.510612725277e-02
O        -0.0758227468       1.2423463667       0.7581246844   1.566675044502e-02   9.299492279819e-02   5.780966648645e-02
O         0.0134900610      -1.2400973234       0.7530060172   2.764450250033e-03  -9.695190069316e-02   5.563388654030e-02
O         1.3117608115       0.0118168951      -0.8170500251  -2.042633985650e-02   6.915652797203e-02   2.123861695263e-02
O        -1.2672998623      -0.0163861914      -0.7676975623  -4.873102273198e-03  -4.760890940333e-02  -2.236306120340e-02
H         1.4167135285      -0.8371690915      -1.1368527097   1.108251165540e-02  -6.297115843870e-02  -2.363619176372e-02
H        -1.6282382986       0.8048036679      -1.0495819026  -2.046347535419e-03   2.994104153304e-02  -3.573683642124e-03
7
Properties=species:S:1:pos:R:3:forces:R:3 energy=-6.997813366080e+02 dipole="4.3604692197e-01 -7.3683868967e-02 -1.4313585561e+00" quadrupole="-2.5619275026e+01 -3.3611098687e+00 4.1421560688e-01 -3.3611098687e+00 -2.8277541861e+01 -6.5325874093e-01 4.1421560688e-01 -6.5325874093e-01 -2.5643218883e+01" polarizability="3.6299310771e+01 -1.4301804433e+00 2.8809221290e-01 -1.4301804433e+00 3.9932639763e+01 -8.2044557256e-01 2.8809221290e-01 -8.2044557256e-01 3.8032616870e+01" charge=0 multiplicity=1 method=wB97M-V basis=def2-svpd config_type=h2so4 sample_index=320 temperature=300.0 units=atomic
S         0.0611895832       0.0044582456       0.1567125850  -8.180779981773e-02   2.479399812339e-02   2.738131876790e-02
O        -0.0653571711       1.2709710648       0.8665956022   2.125171084393e-02  -1.312330778111e-02  -9.391430248533e-03
O        -0.0322883851      -1.2753243740       0.8388313079   1.945604478951e-02   6.285598944370e-03  -7.861994907621e-03
O         1.2222935287       0.0547072946      -0.9071596939   1.691632906332e-02  -2.601246929410e-02   1.973994433353e-04
O        -1.2542326843      -0.0516249378      -0.8358566266   1.246625628932e-02   5.329379805562e-02  -4.671845790872e-02
H         1.3640155186      -0.9197924762      -0.9932457167   1.190428358979e-02   1.196366998826e-02  -1.212010393277e-02
H        -1.2443827885       0.8008881125      -1.4976363502  -1.559200026853e-04  -5.724185732427e-02   4.850159256163e-02
7
Properties=species:S:1:pos:R:3:forces:R:3 energy=-6.997870262101e+02 dipole="-3.3317047915e-02 -4.2372241889e-02 -6.9557959200e-01" quadrupole="-2.4431024377e+01 -3.9150866807e+00 8.4827561802e-02 -3.9150866807e+00 -2.7249423295e+01 6.6291347483e-02 8.4827561802e-02 6.6291347483e-02 -2.8118828230e+01" polarizability="3.6291058950e+01 -3.1736864119e+00 -2.0272506737e-01 -3.1736864119e+00 4.0427544305e+01 -3.1950095011e-02 -2.0272506737e-01 -3.1950095011e-02 3.6379310616e+01" charge=0 multiplicity=1 method=wB97M-V basis=def2-svpd config_type=h2so4 sample_index=321 temperature=300.0 units=atomic
S         0.0032334418      -0.0021374804       0.2026528130  -2.238347689998e-03   1.558556025032e-03  -4.243601863123e-02
O        -0.1080997629       1.2979081430       0.8253628651   1.255460233057e-02  -5.366139009094e-03   1.306405059982e-02
O         0.0985299599      -1.3071490805       0.8395736842  -1.045726246963e-02   1.551956365077e-02   2.522227678357e-03
O         1.1912379496      -0.0213895421      -0.9222912096   1.613363002122e-02  -5.606683416877e-02   2.269597229637e-02
O        -1.1828802609       0.0398732316      -0.9148662340  -1.225723640673e-02  -2.464419189075e-03   1.296761665102e-02
H         1.4201127109      -1.0443777724      -0.8971400876  -4.085344149364e-03   5.671716961903e-02  -7.796550635231e-03
H        -1.5037835282       0.9655906027      -0.9057731267   3.260312854092e-04  -9.912606686657e-03  -1.007434389432e-03
7
Properties=species:S:1:pos:R:3:forces:R:3 energy=-6.997892744777e+02 dipole="-1.1559554460e-01 -5.3581533341e-02 -1.1175601241e+00" quadrupole="-2.2382374089e+01 -4.7057738002e+00 2.2040631908e-01 -4.7057738002e+00 -2.8211804197e+01 -1.3153280524e-01 2.2040631908e-01 -1.3153280524e-01 -2.7998252806e+01" polarizability="3.6701545755e+01 -2.5396647553e+00 1.5615014045e-01 -2.5396647553e+00 3.9768721618e+01 3.7291311688e-01 1.5615014045e-01 3.7291311688e-01 3.5087104016e+01" charge=0 multiplicity=1 method=wB97M-V basis=def2-svpd config_type=h2so4 sample_index=322 temperature=300.0 units=atomic
S        -0.0154515727       0.0000128045       0.1319893280   1.934950621846e-02   2.729155252068e-02   4.987038768204e-02
O        -0.0055721618       1.2891272492       0.8394523207  -7.648658091340e-03  -2.287530563017e-02  -1.538271837751e-02
O         0.0373422961      -1.2698923574       0.8113676329  -4.364919009351e-03  -8.579595030035e-03   5.653254602514e-03
O         1.2247593155       0.0306592761      -0.8370812629   4.186563480823e-02  -5.717222172544e-02  -1.885416791601e-02
O        -1.2241421689      -0.0463744365      -0.8514114089  -4.524467875534e-02   4.458169361800e-02  -2.090620370476e-02
H         1.6239661292      -0.9471691388      -0.8424460509  -2.289189694771e-02   5.817888720242e-02  -1.342173134579e-03
H        -1.6489993804       0.8886919571      -0.8954080455   1.889123793658e-02  -4.141316888645e-02   8.298363065793e-04
7
Properties=species:S:1:pos:R:3:forces:R:3 energy=-6.997937995594e+02 dipole="-1.3231123309e-02 3.6201133359e-02 -1.5475070283e+00" quadrupole="-2.4697322699e+01 -3.7842735753e+00 -6.5094000004e-02 -3.7842735753e+00 -2.8998798428e+01 -1.9950452884e-02 -6.5094000004e-02 -1.9950452884e-02 -2.5051105585e+01" polarizability="3.7185776280e+01 4.7184133387e-01 7.0882604747e-01 4.7184133387e-01 3.9009751787e+01 2.6598156526e-01 7.0882604747e-01 2.6598156526e-01 3.8551816096e+01" charge=0 multiplicity=1 method=wB97M-V basis=def2-svpd config_type=h2so4 sample_index=323 temperature=300.0 units=atomic
S        -0.0025546809       0.0081949044       0.1595874924  -4.780074044750e-03  -1.965808551051e-03   8.583128529833e-03
O         0.1139782083       1.2671259153       0.8813653343  -1.815357282153e-02  -1.130321134157e-02  -1.427790510360e-02
O        -0.0825080793      -1.2587382530       0.8589090211   1.024335877202e-02   6.304265939210e-03  -7.624222579507e-03
O         1.2377490681       0.1358362616      -0.8649775226  -1.774345397827e-04  -1.672140821531e-04   1.664178056435e-03
O        -1.2600074533      -0.1613324847      -0.9047479295   1.086588497304e-02   2.006463024588e-02   9.474898141271e-03
H         1.4141301008      -0.6701060007      -1.3609997009  -2.062600018341e-03  -8.729180406295e-03  -2.132071754161e-03
H        -1.4785048192       0.6790615401      -1.3549973359   4.063023286888e-03  -4.160991373883e-03   4.364917976935e-03
7
Properties=species:S:1:pos:R:3:forces:R:3 energy=-6.997758866211e+02 dipole="-3.8668372502e-01 3.4472938628e-02 -8.7318856774e-01" quadrupole="-2.3197635650e+01 -4.2751080869e+00 7.4328031357e-03 -4.2751080869e+00 -2.8172371267e+01 2.1879195145e-01 7.4328031357e-03 2.1879195145e-01 -2.8217146032e+01" polarizability="3.6272258120e+01 -2.4022245132e+00 -1.4277819886e-01 -2.4022245132e+00 4.0352709852e+01 -5.1314013157e-01 -1.4277819886e-01 -5.1314013157e-01 3.5017177646e+01" charge=0 multiplicity=1 method=wB97M-V basis=def2-svpd config_type=h2so4 sample_index=324 temperature=300.0 units=atomic
S        -0.0236396100      -0.0150190078       0.1621702696   3.892722113440e-02   1.230839374114e-02   3.137696529846e-02
O        -0.0256827357       1.3064475060       0.7884552811  -5.153876305219e-03  -1.872210671158e-02   6.909620719071e-03
O         0.0441313618      -1.3175774892       0.8391712652  -4.249498130896e-03   2.760391466370e-02  -1.074801227002e-02
O         1.2197977144       0.0451608976      -0.8635016717  -1.064350297165e-02   3.332938169275e-02   1.108875167101e-02
O        -1.1750861080      -0.0113219168      -0.8694946804  -8.026786441032e-02   7.282220812839e-02  -6.553507341566e-03
H         1.4139135596      -0.8568966991      -0.9186000463   2.607781762541e-02  -5.137291603832e-02  -1.428989581927e-02
H        -1.6696658775       0.9740296300      -0.6929927756   3.529499276259e-02  -7.596601536209e-02  -1.780308650035e-02
7
Properties=species:S:1:pos:R:3:forces:R:3 energy=-6.997815283394e+02 dipole="6.2701899554e-02 -2.2288214374e-02 -9.2729718669e-01" quadrupole="-2.1998523947e+01 -4.2863176316e+00 -9.8740350829e-01 -4.2863176316e+00 -2.8552513606e+01 5.1730069843e-01 -9.8740350829e-01 5.1730069843e-01 -2.8531923422e+01" polarizability="3.7588076899e+01 -2.3798180722e+00 2.1169343759e-01 -2.3798180722e+00 3.9896789242e+01 5.8819232401e-01 2.1169343759e-01 5.8819232401e-01 3.6348279723e+01" charge=0 multiplicity=1 method=wB97M-V basis=def2-svpd config_type=h2so4 sample_index=325 temperature=300.0 units=atomic
S        -0.0377511616      -0.0060078714       0.1452018897   5.592646237952e-02  -1.933608425515e-02   3.574435536972e-02
O         0.0089141046       1.2975600119       0.8530800625  -1.762762930876e-02  -3.361352554333e-02  -2.500969844710e-02
O         0.0741980616      -1.2775300500       0.8527909793  -1.621664949035e-02   1.358329200406e-02  -3.464495461122e-03
O         1.2032462508       0.0135862578      -0.8544314173   3.775082086780e-02  -1.502777095208e-02  -2.360814988000e-02
O        -1.2300186115      -0.0280228545      -0.9234427241  -7.556329436328e-03   4.404659577925e-02   2.811049908191e-02
H         1.8202958827      -0.7970986085      -0.9450696909  -3.729890640832e-02   3.025527693808e-02   1.375798171854e-02
H        -1.5186038383       0.8984335229      -0.6526349999  -1.500575171565e-02  -1.991582999274e-02  -2.558431041612e-02
7
Properties=species:S:1:pos:R:3:forces:R:3 energy=-6.997913698598e+02 dipole="1.8101912497e-01 1.3015539389e-01 -7.5058044538e-01" quadrupole="-2.2475307020e+01 -4.2167691858e+00 -1.9635177037e-01 -4.2167691858e+00 -2.8090787248e+01 -1.4775451706e-01 -1.9635177037e-01 -1.4775451706e-01 -2.7828773542e+01" polarizability="3.6715875511e+01 -1.9065473617e+00 8.5038165212e-01 -1.9065473617e+00 3.7401579156e+01 -5.9249033824e-01 8.5038165212e-01 -5.9249033824e-01 3.4236252887e+01" charge=0 multiplicity=1 method=wB97M-V basis=def2-svpd config_type=h2so4 sample_index=326 temperature=300.0 units=atomic
S        -0.0023107917      -0.0007992447       0.1655289898  -8.999963109062e-03  -5.497727386694e-02  -4.826363542488e-02
O        -0.0185491487       1.2544836957       0.7747430257  -4.310860412350e-03   6.386606098333e-02   4.009552722488e-02
O         0.0631801446      -1.2788534168       0.8089636034  -9.302202493726e-03  -1.168163980856e-02   1.309601808837e-02
O         1.2414423365       0.0188042012      -0.8221492496  -2.062314184316e-02   5.531442672475e-02  -2.069088245085e-02
O        -1.2930045890      -0.0041250533      -0.8693644858   2.104240179125e-02  -4.911250825709e-03   1.314104355250e-02
H         1.7751747493      -0.7324405028      -0.8053798004   2.401362090791e-02  -4.819949785795e-02   4.512773047000e-03
H        -1.5936298895       0.9169976307      -0.8936735213  -1.834777522348e-03   5.819251081700e-04  -1.952503965463e-03
7
Properties=species:S:1:pos:R:3:forces:R:3 energy=-6.997443178656e+02 dipole="-6.0018282475e-02 3.5047939183e-02 -1.2247374536e+00" quadrupole="-2.4505487907e+01 -3.3804509782e+00 1.8472629511e-01 -3.3804509782e+00 -2.8177050815e+01 -3.0864044167e-01 1.8472629511e-01 -3.0864044167e-01 -2.6749978835e+01" polarizability="3.4953205137e+01 -1.6036229188e+00 9.6813537703e-02 -1.6036229188e+00 3.6873594936e+01 -6.6953298048e-01 9.6813537703e-02 -6.6953298048e-01 3.3907904407e+01" charge=0 multiplicity=1 method=wB97M-V basis=def2-svpd config_type=h2so4 sample_index=327 temperature=300.0 units=atomic
S        -0.0111236681      -0.0121067633       0.1225096011   1.666256938309e-02   1.369055350520e-03   5.082510277372e-02
O        -0.0756221799       1.2660154687       0.7934276885   1.153415628577e-02   2.972471963858e-03   2.459110038254e-03
O         0.0850146815      -1.2795177934       0.8294726780  -1.327188908534e-02   8.125248996929e-03  -1.249155879947e-02
O         1.2834025822      -0.0023803459      -0.8190376270  -8.677062143500e-02   3.279579911341e-01   4.881248952357e-02
O        -1.2750330621       0.0310061012      -0.8072716320   1.926462220325e-05  -8.135787832178e-02  -8.637484976340e-03
H         1.4674219206      -0.7587660986      -0.9590242471   8.663501509117e-02  -3.262530665016e-01  -6.344090434055e-02
H        -1.3996244117       0.9079094610      -1.0270516197  -1.481679449603e-02   6.718442858308e-02  -1.759086012974e-02
7
Properties=species:S:1:pos:R:3:forces:R:3 energy=-6.997808537107e+02 dipole="-7.6069764625e-02 -7.2271515274e-03 -8.0603087038e-01" quadrupole="-2.3478716399e+01 -4.5419652169e+00 -7.7814777565e-01 -4.5419652169e+00 -2.7803432785e+01 6.9375241059e-01 -7.7814777565e-01 6.9375241059e-01 -2.7655224050e+01" polarizability="3.7155921415e+01 -2.1409198550e+00 7.6518109999e-02 -2.1409198550e+00 3.9777336249e+01 3.5747085670e-01 7.6518109999e-02 3.5747085670e-01 3.5467528393e+01" charge=0 multiplicity=1 method=wB97M-V basis=def2-svpd config_type=h2so4 sample_index=328 temperature=300.0 units=atomic
S        -0.0127554110      -0.0029383466       0.1848116720   1.225017129982e-02  -2.639329113129e-02  -5.239669394022e-02
O         0.0287781408       1.2768966435       0.7873614178  -1.356553714624e-02   3.504955742986e-02   2.882501372201e-02
O         0.0122543232      -1.2818671719       0.8158527893  -5.538646884393e-04  -1.771605583453e-02   2.047118748742e-02
O         1.2171726419       0.0749110050      -0.8406254908   3.152638346306e-02  -6.342914481112e-02  -1.874407423238e-02
O        -1.2279899365      -0.0657589558      -0.9006470996  -2.596781383585e-02   8.031622057867e-02   2.928606934907e-02
H         1.5418763004      -0.9016538017      -1.0713927232  -2.043861167732e-02   5.810036878762e-02   1.346184380899e-02
H        -1.6167025527       0.9266344683      -0.7417560116   1.673986995963e-02  -6.585483046424e-02  -2.091905596468e-02
7
Properties=species:S:1:pos:R:3:forces:R:3 energy=-6.997280050574e+02 dipole="-1.4525314885e-01 -1.6376620492e-01 -1.6075376834e+00" quadrupole="-2.7050555194e+01 -3.0034308149e+00 7.5131077237e-02 -3.0034308149e+00 -2.8516426182e+01 1.9776480536e-01 7.5131077237e-02 1.9776480536e-01 -2.3843128691e+01" polarizability="3.8887136648e+01 -1.3532381382e+00 -7.0311997431e-01 -1.3532381382e+00 4.2851304389e+01 1.8913906746e+00 -7.0311997431e-01 1.8913906746e+00 4.2389144134e+01" charge=0 multiplicity=1 method=wB97M-V basis=def2-svpd config_type=h2so4 sample_index=329 temperature=300.0 units=atomic
S         0.0098569120      -0.0466199375       0.1729353617  -6.940654195734e-04   8.121680873838e-02  -1.516448215135e-02
O        -0.0167382666       1.2995502593       0.7751153037   1.741675465384e-03  -3.175525432476e-02   4.439601684705e-03
O        -0.0069304528      -1.2939023254       0.8654958801  -4.635294417477e-04  -1.342212800670e-02   2.573189705462e-03
O         1.3184744512       0.1137587639      -0.8288944281  -5.467992079356e-02  -9.902823785292e-02  -7.290878638372e-02
O        -1.2909075121      -0.0320822090      -0.8519909354   1.332459977356e-02   3.024589417986e-02  -1.752852217148e-02
H         0.9972821486      -0.8278793113      -1.7254881486   3.457325562621e-02   7.874706074270e-02   7.447296351064e-02
H        -1.3714452090       0.9197541205      -1.2549755384   6.151642759051e-03  -4.591399427104e-02   2.410608421531e-02
7
Properties=species:S:1:pos:R:3:forces:R:3 energy=-6.997302232700e+02 dipole="-4.6598458640e-01 -2.3161546428e-01 -1.7574151742e+00" quadrupole="-2.4541164480e+01 -3.9598883908e+00 8.5053658190e-02 -3.9598883908e+00 -2.8538906987e+01 2.9131306114e-01 8.5053658190e-02 2.9131306114e-01 -2.4442894529e+01" polarizability="3.7595785901e+01 -2.7973361459e+00 -9.2126308336e-01 -2.7973361459e+00 4.2287026302e+01 3.0678733329e+00 -9.2126308336e-01 3.0678733329e+00 4.0910030344e+01" charge=0 multiplicity=1 method=wB97M-V basis=def2-svpd config_type=h2so4 sample_index=330 temperature=300.0 units=atomic
S        -0.0229884962      -0.0392274319       0.1482535535   3.344279771756e-02   1.390178870219e-01   1.564788912538e-02
O         0.0086608507       1.3049937753       0.8279474807  -7.709481365967e-03  -5.330877390575e-02  -2.101962362875e-02
O         0.0234803107      -1.2463527619       0.8386374221  -8.612244517574e-03  -6.891574352161e-02   3.421481721339e-02
O         1.2538406418       0.0688293716      -0.8083134116  -3.041786949574e-04  -8.562678737124e-02  -9.053612166462e-02
O        -1.2110986391      -0.0500232886      -0.8601700295  -6.146951348883e-02   4.598187485214e-02  -4.281308524034e-02
H         1.1855782339      -0.8895555403      -1.6692021660   6.619384840282e-03   8.357962120619e-02   7.906781494506e-02
H        -1.6447867151       0.8959885890      -1.1318601663   3.795300825932e-02  -6.069618635398e-02   2.538673828063e-02
7
Properties=species:S:1:pos:R:3:forces:R:3 energy=-6.997460245052e+02 dipole="2.1760187285e-01 -2.1024777323e-01 -6.9254719803e-01" quadrupole="-2.1953976446e+01 -5.2131931186e+00 2.2704890807e-01 -5.2131931186e+00 -2.7427128068e+01 -6.3084869647e-01 2.2704890807e-01 -6.3084869647e-01 -2.8668824645e+01" polarizability="4.0573565103e+01 -4.6386834968e+00 5.6921644350e-01 -4.6386834968e+00 4.1331688574e+01 6.6565239973e-02 5.6921644350e-01 6.6565239973e-02 3.6886964117e+01" charge=0 multiplicity=1 method=wB97M-V basis=def2-svpd config_type=h2so4 sample_index=331 temperature=300.0 units=atomic
S         0.0016686701      -0.0246155286       0.1829251072  -1.529908221091e-02   8.832112186632e-02  -6.439376653870e-02
O        -0.0235410557       1.2704727043       0.8361676653  -2.704255392680e-03  -6.359615220024e-03   5.656837397488e-03
O         0.0553142612      -1.2529881507       0.8415307776  -3.623491342543e-03  -6.560992840068e-02   3.508314536490e-02
O         1.1947054911       0.0392988182      -0.8989242046   6.540758359831e-02  -1.015440955200e-01   2.152456111658e-02
O        -1.2412300487      -0.0039238083      -0.9223066056  -1.536716200113e-02   4.734449804797e-02   1.627396876996e-02
H         1.8370596591      -1.0230542452      -0.6940024384  -5.756658424437e-02   9.647396306176e-02  -2.044291150566e-02
H        -1.6580356377       0.9674957246      -0.9584914246   2.915028737229e-02  -5.867957893843e-02   6.232950696764e-03
7
Properties=species:S:1:pos:R:3:forces:R:3 energy=-6.997869055935e+02 dipole="4.2111540936e-02 -1.0701165638e-01 -1.4506305863e+00" quadrupole="-2.4018937507e+01 -3.7892202000e+00 7.6682813280e-01 -3.7892202000e+00 -2.8144760677e+01 -6.9933115413e-01 7.6682813280e-01 -6.9933115413e-01 -2.7272570090e+01" polarizability="3.5993695757e+01 -1.8865282453e+00 -7.3004589766e-01 -1.8865282453e+00 3.8287752479e+01 -9.9336784505e-02 -7.3004589766e-01 -9.9336784505e-02 3.7186173863e+01" charge=0 multiplicity=1 method=wB97M-V basis=def2-svpd config_type=h2so4 sample_index=332 temperature=300.0 units=atomic
S         0.0021008353      -0.0093887456       0.1062123827   8.586873146057e-03   4.132974527265e-02   8.872326522136e-02
O        -0.0713685218       1.2354709194       0.9100774848   1.154574528058e-02  -2.196917536088e-02  -3.656321988163e-02
O         0.0313210589      -1.2336860338       0.9039337483   1.620908226133e-03   1.631308783786e-03  -3.240304433987e-02
O         1.2518456829       0.0245988865      -0.9268905732  -6.957833312706e-03  -2.137766799883e-02   1.200137436753e-02
O        -1.2246501054      -0.0020460526      -0.8490684894  -1.471940927236e-02  -5.534649285888e-02  -7.382246711028e-03
H         1.5274612768      -0.9207399467      -0.8716081343   7.368125963050e-03   1.161976730884e-02  -8.692766693139e-03
H        -1.3924785862       0.8361968008      -1.2120332270  -7.489758539460e-03   4.411814505262e-02  -1.574126102144e-02
7
Properties=species:S:1:pos:R:3:forces:R:3 energy=-6.997844731433e+02 dipole="1.1097308480e-01 -1.3968626663e-01 -1.0893925154e+00" quadrupole="-2.3632930383e+01 -4.4717573378e+00 4.0516819891e-01 -4.4717573378e+00 -2.7892853885e+01 -7.4042489606e-01 4.0516819891e-01 -7.4042489606e-01 -2.7194855089e+01" polarizability="3.7384813727e+01 -1.9819512699e+00 -9.0460207697e-01 -1.9819512699e+00 3.9473738066e+01 -9.8194942435e-01 -9.0460207697e-01 -9.8194942435e-01 3.5630907816e+01" charge=0 multiplicity=1 method=wB97M-V basis=def2-svpd config_type=h2so4 sample_index=333 temperature=300.0 units=atomic
S         0.0131283102      -0.0418602150       0.1520477123  -5.122793666770e-04   8.433440339513e-02  -1.026377700589e-02
O        -0.0434999328       1.2681646020       0.7763187413   1.180540050832e-02  -4.221125760992e-03   1.213625794629e-02
O        -0.0346793138      -1.2726225913       0.8412016655   1.367381358564e-02  -4.104184697066e-02   1.431031027795e-02
O         1.2829056532       0.0987349000      -0.8894561956  -3.874212873784e-03  -5.020309264870e-02   1.623989163916e-02
O        -1.2427288226      -0.0196579703      -0.7909715176  -3.463186744015e-02   4.861164180531e-02  -4.586567123741e-02
H         1.6556029364      -0.8340789180      -0.9130702659  -4.311749667546e-03   2.754479264650e-02  -6.583348061653e-03
H        -1.4717236935       0.9866882744      -1.0647499353   1.787079440896e-02  -6.497769928767e-02   1.998646949833e-02
7
Properties=species:S:1:pos:R:3:forces:R:3 energy=-6.997730353485e+02 dipole="4.2216967902e-01 -2.3998295131e-02 -7.3818020287e-01" quadrupole="-2.3331305960e+01 -4.6528794025e+00 -7.9060766244e-01 -4.6528794025e+00 -2.7888296711e+01 5.9968483887e-01 -7.9060766244e-01 5.9968483887e-01 -2.7762176698e+01" polarizability="4.0342897494e+01 -2.5015480984e+00 -1.9477040146e+00 -2.5015480984e+00 4.0991527788e+01 -4.9868956216e-01 -1.9477040146e+00 -4.9868956216e-01 3.6167349169e+01" charge=0 multiplicity=1 method=wB97M-V basis=def2-svpd config_type=h2so4 sample_index=334 temperature=300.0 units=atomic
S         0.0413536907      -0.0086299275       0.1756235920  -2.580929697647e-02  -6.962383770849e-02  -4.461126270921e-02
O        -0.0924658705       1.2837143290       0.7345717285   2.050860906326e-02   4.081310327954e-02   3.827433206354e-02
O        -0.0403168462      -1.3345392191       0.8216984585   2.101827004652e-02   3.875066899760e-02  -1.094835786559e-02
O         1.3327180529       0.0705861589      -0.8908279028   1.021497971124e-02  -7.672071737646e-02   1.642943577995e-02
O        -1.2993804461      -0.0019240223      -0.7913369216   2.459625114875e-02  -2.201988300539e-02  -2.988246673512e-03
H         1.8054861708      -0.9235368516      -0.9848979929  -4.049155779917e-02   7.350586255466e-02   9.515233200713e-03
H        -1.5360166663       0.9214853133      -0.7651020829  -1.003082133762e-02   1.526914668272e-02  -5.715088312223e-03
7
Properties=species:S:1:pos:R:3:forces:R:3 energy=-6.997915445107e+02 dipole="3.9336466044e-02 -1.0384936318e-01 -1.4763815072e+00" quadrupole="-2.4312423523e+01 -3.9675771862e+00 2.5837291714e-01 -3.9675771862e+00 -2.8416341869e+01 -1.7044812701e-01 2.5837291714e-01 -1.7044812701e-01 -2.6672195310e+01" polarizability="3.5808649411e+01 -8.6701504578e-01 2.6473135632e-01 -8.6701504578e-01 3.9402428636e+01 6.7016456109e-01 2.6473135632e-01 6.7016456109e-01 3.7214858819e+01" charge=0 multiplicity=1 method=wB97M-V basis=def2-svpd config_type=h2so4 sample_index=335 temperature=300.0 units=atomic
S         0.0192665357       0.0015217986       0.1313875013  -3.208494744112e-02   4.799901935530e-02   7.054035521063e-02
O         0.0171534534       1.2793778671       0.9048297681  -2.501539427035e-03  -4.000748026901e-02  -3.910308284005e-02
O        -0.0363684635      -1.2493381605       0.8565668231   1.151512800116e-02  -3.627450773177e-03  -1.025786627410e-02
O         1.2131447089       0.0767658199      -0.8806743065   2.283690881978e-02  -4.380728101106e-02  -1.648899087182e-02
O        -1.2232882721      -0.1023886567      -0.8811468770  -6.401888014558e-03   8.430103408442e-03  -3.332999053598e-03
H         1.3533272134      -0.9031239142      -1.0909904887   5.386927313222e-03   3.176802880835e-02  -2.042172010319e-03
H        -1.4955697217       0.7795357055      -1.1865700908   1.298415188375e-03  -7.233024778666e-04   6.235443122575e-04
7
Properties=species:S:1:pos:R:3:forces:R:3 energy=-6.997743536225e+02 dipole="-4.8859355656e-01 1.4074112159e-01 -6.8452603850e-01" quadrupole="-2.3117366929e+01 -4.6277624599e+00 8.4520947543e-01 -4.6277624599e+00 -2.7669857540e+01 -4.5270978747e-01 8.4520947543e-01 -4.5270978747e-01 -2.8348981973e+01" polarizability="3.8888517596e+01 -3.2935628096e+00 1.6144953273e-01 -3.2935628096e+00 4.1203133519e+01 -5.2508707485e-01 1.6144953273e-01 -5.2508707485e-01 3.6444832765e+01" charge=0 multiplicity=1 method=wB97M-V basis=def2-svpd config_type=h2so4 sample_index=336 temperature=300.0 units=atomic
S        -0.0472000679       0.0008379508       0.1864376859   5.423779032113e-02   4.021871456116e-03  -3.279896087655e-02
O        -0.0266462285       1.3059272964       0.8151978077  -6.970520634408e-03  -9.396847358733e-03   7.971477543165e-03
O         0.0841942135      -1.3063882460       0.8113086689  -1.508297864541e-02   1.322260351190e-02   4.595366985184e-03
O         1.2654772474       0.0043585174      -0.8913722696  -3.038114347652e-02   7.060220465216e-03   2.388816484273e-02
O        -1.2205547078      -0.0132657467      -0.8859650152  -5.424734583790e-02   7.999318988112e-02   6.266844666705e-04
H         1.5689153772      -0.8992870975      -0.7784867033   1.026556048975e-02  -8.870518550860e-03  -5.042278090283e-03
H        -1.7040184104       1.0232388864      -0.8840326661   4.221861942725e-02  -8.607013035830e-02   7.230416963080e-04
7
Properties=species:S:1:pos:R:3:forces:R:3 energy=-6.997588520385e+02 dipole="-4.3329104671e-01 2.0495154053e-02 -1.3780984968e+00" quadrupole="-2.2017200806e+01 -4.7571628099e+00 -4.6254540218e-02 -4.7571628099e+00 -2.8422073019e+01 5.4349317844e-01 -4.6254540218e-02 5.4349317844e-01 -2.6932228124e+01" polarizability="3.9753875624e+01 -2.9057750875e+00 9.1856009674e-01 -2.9057750875e+00 3.9392940762e+01 -8.7373176475e-02 9.1856009674e-01 -8.7373176475e-02 3.6138195899e+01" charge=0 multiplicity=1 method=wB97M-V basis=def2-svpd config_type=h2so4 sample_index=337 temperature=300.0 units=atomic
S         0.0033833336      -0.0031397282       0.1121704529  -2.196746820660e-02   7.845316247818e-03   3.244401791001e-02
O         0.0307497942       1.2314481200       0.8078577328  -9.063679474487e-03   4.198955604002e-02   1.887533503887e-02
O        -0.0070358902      -1.2379783456       0.8390698655   2.258757056575e-03  -2.477802696296e-02  -2.044857783924e-03
O         1.2907401746       0.0818357364      -0.7772494806   8.005299863139e-03  -6.784360946322e-02  -5.418486577201e-02
O        -1.2791840505      -0.0684928485      -0.8478831784  -6.238441193034e-02   6.895611867505e-02  -1.942028333632e-02
H         1.3370458073      -0.8734613389      -1.2022674420   8.687346212346e-03   5.068947748548e-02   1.699440264168e-02
H        -2.0028200734       0.8585025142      -0.8657052303   7.442799366648e-02  -7.689178350178e-02   7.207706612654e-03
7
Properties=species:S:1:pos:R:3:forces:R:3 energy=-6.997687023086e+02 dipole="-3.8965356960e-01 -3.4699745481e-02 -6.5969157988e-01" quadrupole="-2.2529109749e+01 -4.3983961162e+00 -2.8423172422e-01 -4.3983961162e+00 -2.7836838420e+01 8.1747782168e-01 -2.8423172422e-01 8.1747782168e-01 -2.8842572521e+01" polarizability="3.9813925209e+01 -3.5830000962e+00 -5.8218827951e-01 -3.5830000962e+00 4.0638045629e+01 1.1719806403e+00 -5.8218827951e-01 1.1719806403e+00 3.6571114405e+01" charge=0 multiplicity=1 method=wB97M-V basis=def2-svpd config_type=h2so4 sample_index=338 temperature=300.0 units=atomic
S         0.0026993535       0.0246624910       0.1683723309   5.391449351802e-03   9.892773952895e-04  -2.826013802678e-02
O        -0.0666413994       1.2916326061       0.8663186834   4.974603962467e-03  -5.043826960133e-03  -4.225106613864e-03
O         0.0468050108      -1.2653661846       0.8036727820  -9.707423383004e-04  -1.015339581458e-02   1.665468995307e-02
O         1.2660309200      -0.0248575145      -0.8924771214  -9.175358592783e-03  -5.594810312102e-02   1.500961696673e-02
O        -1.2186853357      -0.0352645204      -0.9032819672  -5.833719126164e-02   7.972564323449e-02   3.516741693942e-02
H         1.4065760752      -1.0756176999      -0.9149339282  -1.222379127434e-03   6.294138466582e-02  -3.192104179176e-03
H        -1.9239023697       0.8176762210      -0.5675019981   5.936599102424e-02  -7.246567617272e-02  -3.122687314946e-02
7
Properties=species:S:1:pos:R:3:forces:R:3 energy=-6.997807567780e+02 dipole="-7.5301467887e-02 1.5503957562e-01 -1.1400048003e+00" quadrupole="-2.4662911930e+01 -4.0744398210e+00 9.6454125452e-01 -4.0744398210e+00 -2.8073739580e+01 -6.4911950412e-01 9.6454125452e-01 -6.4911950412e-01 -2.6500752518e+01" polarizability="3.8340455585e+01 -1.9400516430e+00 -2.0452265131e-01 -1.9400516430e+00 4.1663029659e+01 -2.0787373519e-01 -2.0452265131e-01 -2.0787373519e-01 3.9245899845e+01" charge=0 multiplicity=1 method=wB97M-V basis=def2-svpd config_type=h2so4 sample_index=339 temperature=300.0 units=atomic
S        -0.0226161407       0.0360246930       0.1880729708   3.313660665121e-02  -3.129541218258e-02  -1.500354891402e-02
O        -0.0092724727       1.3100736049       0.9038351484  -1.630917029742e-03  -2.380247078148e-02  -1.956591370770e-02
O         0.0052847084      -1.2957089793       0.8042061569   4.759171286972e-05   2.812049905517e-02   9.115156183306e-04
O         1.2552407045       0.0166692118      -0.9465657150  -1.167683379489e-02  -1.157927648746e-02   2.687025054430e-02
O        -1.2229941505      -0.0993447611      -0.8704841433  -1.489274869826e-02   8.307765041845e-02  -3.418284521398e-02
H         1.6098819094      -0.9198119153      -0.9660720200  -1.305104078614e-02   2.521203197844e-02   3.101868058885e-03
H        -1.3425260767       0.8613242106      -1.3876372831   7.989256505347e-03  -6.975163311617e-02   3.783295523813e-02
7
Properties=species:S:1:pos:R:3:forces:R:3 energy=-6.997659990369e+02 dipole="-3.7488086049e-01 -2.1868165692e-02 -1.3953895542e+00" quadrupole="-2.5771494630e+01 -3.2010790138e+00 6.4625380801e-01 -3.2010790138e+00 -2.8220868242e+01 2.5716608663e-01 6.4625380801e-01 2.5716608663e-01 -2.5360545994e+01" polarizability="3.5989050615e+01 -1.7223553970e+00 -1.1946896963e+00 -1.7223553970e+00 3.9704959567e+01 3.7194431160e-01 -1.1946896963e+00 3.7194431160e-01 3.5985090327e+01" charge=0 multiplicity=1 method=wB97M-V basis=def2-svpd config_type=h2so4 sample_index=340 temperature=300.0 units=atomic
S         0.0076318718      -0.0214831133       0.1563862097   3.470076102297e-02   4.402502101986e-02   1.739681563955e-02
O        -0.0912728181       1.2809862048       0.7552917593   1.901985485166e-02   1.423451546760e-02   2.767422686030e-02
O        -0.0000298393      -1.2851530047       0.8105820219   4.834376941182e-03  -2.202296949237e-02   1.307078665034e-02
O         1.3179655889       0.0515699436      -0.8417731283  -5.370727408089e-02  -8.534586564883e-02  -4.008012540993e-02
O        -1.2120231486      -0.0084680473      -0.7663408560  -5.901025591738e-02   1.317304062128e-02  -6.549869875405e-02
H         1.0143454529      -0.8714785354      -1.4187498107   4.061943488687e-02   7.012548003406e-02   3.559289664950e-02
H        -1.4879986270       0.9334490188      -1.0187582492   1.349334499257e-02  -3.404668684329e-02   1.174782744178e-02
7
Properties=species:S:1:pos:R:3:forces:R:3 energy=-6.997818416260e+02 dipole="4.2751903716e-01 -3.0435660153e-02 -1.0441576609e+00" quadrupole="-2.4126630965e+01 -3.7783014550e+00 1.4864211474e-02 -3.7783014550e+00 -2.8102737685e+01 -7.5687515700e-01 1.4864211474e-02 -7.5687515700e-01 -2.7637879025e+01" polarizability="3.6084115950e+01 -1.2102151015e+00 9.8102252769e-01 -1.2102151015e+00 3.7919270082e+01 -4.2643605183e-01 9.8102252769e-01 -4.2643605183e-01 3.4443793330e+01" charge=0 multiplicity=1 method=wB97M-V basis=def2-svpd config_type=h2so4 sample_index=341 temperature=300.0 units=atomic
S         0.0100130186      -0.0109359538       0.1259812878  -4.636158606830e-02   1.227214936942e-02   3.223385746761e-02
O         0.0150859029       1.2517653253       0.8105192195  -1.033937096440e-02   1.729281087641e-02   6.625893718148e-03
O         0.0167811213      -1.2534360792       0.8158819691   5.806457999442e-03  -3.412668158683e-02   1.427022140641e-02
O         1.2269677049       0.0740630875      -0.8149758013   4.595572353503e-02  -3.975762774741e-02  -2.731517676265e-02
O        -1.3061608189      -0.0577456861      -0.8393358028   3.268892297099e-02   5.677853691043e-02  -3.522011500616e-03
H         1.6547051400      -0.8191298949      -0.6579586631  -1.347862897755e-03   2.295251991315e-02  -1.558663904300e-02
H        -1.2228784695       0.9404536390      -1.0506276488  -2.640664027214e-02  -3.542356890591e-02  -6.815187038906e-03
7
Properties=species:S:1:pos:R:3:forces:R:3 energy=-6.997745455834e+02 dipole="-1.7847874909e-01 1.9520289735e-01 -1.1827443912e+00" quadrupole="-2.5329358164e+01 -3.2049775777e+00 -5.0455060553e-01 -3.2049775777e+00 -2.7962138852e+01 7.3154302022e-01 -5.0455060553e-01 7.3154302022e-01 -2.6495969523e+01" polarizability="3.4211581214e+01 -4.0139628162e-01 6.6209279179e-01 -4.0139628162e-01 3.6080563759e+01 6.3507925024e-01 6.6209279179e-01 6.3507925024e-01 3.6109822783e+01" charge=0 multiplicity=1 method=wB97M-V basis=def2-svpd config_type=h2so4 sample_index=342 temperature=300.0 units=atomic
S        -0.0154874648       0.0296732839       0.1627178402   2.351367159892e-02  -6.682995024450e-02  -1.896338742066e-02
O         0.0353482558       1.2219689331       0.9096797292  -1.078498317633e-02   5.435142417164e-02   4.296864443768e-03
O         0.0081130361      -1.2047043439       0.8604916051  -2.114718601549e-03  -3.754882446430e-02   1.677111769705e-02
O         1.1927751072       0.0351400733      -0.8828059910   1.292033525809e-02   9.585476104748e-02   4.704551026597e-02
O        -1.1949438825      -0.1175006940      -0.9503336706   5.002865931752e-03   1.497275409015e-02   2.546389839320e-02
H         1.2044022158      -0.7351914754      -1.3351208689   1.892354365635e-03  -8.502496614521e-02  -4.937834992535e-02
H        -1.3648088205       0.8188535537      -0.9154752142  -3.049287313422e-02   2.428088334265e-02  -2.535042229641e-02
7
Properties=species:S:1:pos:R:3:forces:R:3 energy=-6.997895126434e+02 dipole="1.6884010499e-01 -1.4412067940e-02 -1.3936890253e+00" quadrupole="-2.4707371880e+01 -3.9249315856e+00 -5.0523480564e-01 -3.9249315856e+00 -2.8000376389e+01 -2.0111262016e-01 -5.0523480564e-01 -2.0111262016e-01 -2.5695457086e+01" polarizability="3.8107282786e+01 -2.0523695947e+00 4.9141787043e-01 -2.0523695947e+00 3.9953073818e+01 -4.4051036341e-01 4.9141787043e-01 -4.4051036341e-01 3.9190508690e+01" charge=0 multiplicity=1 method=wB97M-V basis=def2-svpd config_type=h2so4 sample_index=343 temperature=300.0 units=atomic
S        -0.0103490466      -0.0115972120       0.1680680707   2.134358790264e-03  -6.078756127042e-03  -1.672573801746e-02
O         0.0012240406       1.2526997372       0.8621093523  -2.414392370631e-03   1.911268954757e-03  -6.079897755107e-03
O         0.0494364509      -1.2644244628       0.8958241300  -1.079060252346e-02   5.241606740547e-03  -1.458320324350e-02
O         1.2338535850       0.0545713330      -0.8838453865   1.340897178658e-02  -2.470263581803e-02  -1.257369786876e-02
O        -1.2791202519      -0.0252192204      -0.9257410025   1.577457649520e-02   3.572868982427e-02   2.738934768336e-03
H         1.5907955505      -0.8226677824      -1.2682749029  -2.408399654895e-02   3.250280811939e-02   2.309439365865e-02
H        -1.3508076045       0.9156463041      -1.3518810090   5.951390560338e-03  -4.465641358809e-02   2.401079655506e-02
7
Properties=species:S:1:pos:R:3:forces:R:3 energy=-6.997817189500e+02 dipole="5.5550691919e-01 -7.9198746183e-02 -1.2134446774e+00" quadrupole="-2.3996881819e+01 -3.8625089674e+00 -8.3729013629e-01 -3.8625089674e+00 -2.8543621272e+01 -1.6108612511e-01 -8.3729013629e-01 -1.6108612511e-01 -2.7053399828e+01" polarizability="3.6509893023e+01 -8.5601250425e-01 3.4733656988e-01 -8.5601250425e-01 3.9519270504e+01 5.6480426737e-01 3.4733656988e-01 5.6480426737e-01 3.6280900156e+01" charge=0 multiplicity=1 method=wB97M-V basis=def2-svpd config_type=h2so4 sample_index=344 temperature=300.0 units=atomic
S         0.0128074717      -0.0009802811       0.1524678111  -3.258999045948e-02  -7.030002323053e-03   4.566613924090e-02
O         0.0446694695       1.2925809824       0.8528394594  -1.134031999753e-02  -2.584602195919e-02  -1.888797201518e-02
O        -0.0288195867      -1.2765179942       0.8275492275   1.119671195021e-02  -4.448872260987e-04   5.260130178520e-03
O         1.1867608337       0.0905864234      -0.8556336348   6.404120320534e-02  -4.713266820702e-02  -3.267363824780e-02
O        -1.2622847235      -0.1056725272      -0.8801324610   2.656651015358e-02   2.773979094228e-02   1.683694964149e-02
H         1.6999666821      -0.8103973748      -0.9695566918  -3.141586580249e-02   4.582829911427e-02   6.340914406432e-03
H        -1.1573902279       0.8283582350      -1.1201906893  -2.642866487657e-02   6.889408208013e-03  -2.258771612992e-02
7
Properties=species:S:1:pos:R:3:forces:R:3 energy=-6.997526387175e+02 dipole="3.5551177010e-02 7.3013343993e-02 -1.8957230142e+00" quadrupole="-2.5677918975e+01 -3.6620020998e+00 -5.0215222802e-01 -3.6620020998e+00 -2.8601246969e+01 9.2442401954e-02 -5.0215222802e-01 9.2442401954e-02 -2.4738351019e+01" polarizability="3.7064193847e+01 -1.1291821479e+00 -8.2352180414e-02 -1.1291821479e+00 4.1116156909e+01 -9.0716850806e-02 -8.2352180414e-02 -9.0716850806e-02 3.9410862383e+01" charge=0 multiplicity=1 method=wB97M-V basis=def2-svpd config_type=h2so4 sample_index=345 temperature=300.0 units=atomic
S         0.0031079712      -0.0099908563       0.1143060491  -1.212278023360e-02  -1.562071983313e-02   7.460501263138e-02
O         0.0561487804       1.2450055692       0.8310846981  -1.188184297437e-02   8.594747682046e-03  -3.278348305349e-03
O        -0.0494082005      -1.2550506751       0.8741800830   9.047172860657e-03   7.067872859469e-03  -1.884905578131e-02
O         1.2615635083       0.1339777776      -0.8059869507   1.518268357840e-02  -8.754207637452e-02  -8.736802830142e-02
O        -1.2738369771      -0.1154748314      -0.8372082506   4.116026015335e-03   1.036070600091e-01  -4.957763327808e-02
H         1.2779328974      -0.7770248670      -1.4886210290   3.497333966380e-03   7.282618670032e-02   5.477873575900e-02
H        -1.2881726718       0.9613387418      -1.2572755870  -7.884282826040e-03  -8.899313724039e-02   2.968349083727e-02
7
Properties=species:S:1:pos:R:3:forces:R:3 energy=-6.997839070283e+02 dipole="-3.1029396762e-01 1.5778679417e-01 -1.0398962640e+00" quadrupole="-2.3478408683e+01 -4.1155614071e+00 3.6116293497e-01 -4.1155614071e+00 -2.8219863143e+01 3.4147966805e-01 3.6116293497e-01 3.4147966805e-01 -2.7476214245e+01" polarizability="3.7202911258e+01 -1.9754604262e+00 4.5296619567e-01 -1.9754604262e+00 3.9699620307e+01 -4.1279990304e-01 4.5296619567e-01 -4.1279990304e-01 3.6025873651e+01" charge=0 multiplicity=1 method=wB97M-V basis=def2-svpd config_type=h2so4 sample_index=346 temperature=300.0 units=atomic
S         0.0157939885       0.0202339119       0.1629789533  -2.164072678782e-02  -3.508705630479e-02   8.837145060640e-03
O        -0.0186602356       1.2787137701       0.8342406931   1.215467366238e-03   1.780854850199e-02   1.189871113438e-02
O        -0.0057317470      -1.2953448985       0.8299294374   8.489615062905e-03   3.097991646605e-02  -1.363204239873e-02
O         1.2413089148       0.0434643156      -0.8694445278  -5.254597443507e-03   1.901139280003e-02   1.269121845862e-02
O        -1.2147175352      -0.0661307040      -0.8793926874  -4.666758676439e-02   6.539070392883e-02  -4.893037157869e-03
H         1.2568060136      -0.8806979209      -1.0503354243   1.773221906001e-02  -3.341857242835e-02  -1.937915168464e-02
H        -1.7899086795       0.8573472557      -0.9099943720   4.616573337873e-02  -6.471377348987e-02   4.421032688081e-03
7
Properties=species:S:1:pos:R:3:forces:R:3 energy=-6.997576186919e+02 dipole="-7.2062253985e-01 -8.8041055719e-02 -1.4589186167e+00" quadrupole="-2.2038791420e+01 -4.5068550684e+00 -3.6236233013e-01 -4.5068550684e+00 -2.8947521350e+01 5.8646771289e-01 -3.6236233013e-01 5.8646771289e-01 -2.6085500747e+01" polarizability="3.7584846749e+01 -1.8568138982e+00 -1.4147511950e+00 -1.8568138982e+00 3.8817120456e+01 8.6613276417e-01 -1.4147511950e+00 8.6613276417e-01 3.6180008675e+01" charge=0 multiplicity=1 method=wB97M-V basis=def2-svpd config_type=h2so4 sample_index=347 temperature=300.0 units=atomic
S        -0.0561186172      -0.0270388555       0.1317625797   1.189098184148e-01   7.433928898615e-02   4.474445243306e-02
O         0.0751930952       1.2595628304       0.7914911347  -2.368729535194e-02  -3.977406309268e-04   4.388854953387e-03
O        -0.0384175345      -1.2360260740       0.8322767699   2.548398830361e-03  -6.471919932715e-02   3.344195187321e-02
O         1.2739582060       0.1165389943      -0.8103486868   1.038172041893e-02  -6.457254694191e-02  -5.096306110994e-02
O        -1.1791330013      -0.0910399784      -0.8190611698  -1.381856206553e-01   6.503921407917e-02  -7.539849673201e-02
H         1.5005048519      -0.7252870558      -1.4344237238  -1.996175159199e-02   5.288771577567e-02   4.550676128900e-02
H        -1.8127981718       0.8009485037      -0.8095458284   4.988694215243e-02  -6.252476323919e-02  -1.795649831939e-03
7
Properties=species:S:1:pos:R:3:forces:R:3 energy=-6.997568974075e+02 dipole="2.8969319739e-01 -1.7349228837e-01 -1.1419409972e+00" quadrupole="-2.3063831771e+01 -4.6318220589e+00 7.9379496328e-01 -4.6318220589e+00 -2.8095999417e+01 -1.0106981692e+00 7.9379496328e-01 -1.0106981692e+00 -2.7209704649e+01" polarizability="3.9660039615e+01 -2.9789459026e+00 -7.2448543740e-02 -2.9789459026e+00 4.0470037345e+01 -1.1962378691e+00 -7.2448543740e-02 -1.1962378691e+00 3.7040647968e+01" charge=0 multiplicity=1 method=wB97M-V basis=def2-svpd config_type=h2so4 sample_index=348 temperature=300.0 units=atomic
S        -0.0096700011      -0.0325209528       0.1453710029   3.789769491907e-03   1.980163847100e-02  -6.937306677701e-03
O         0.0206982860       1.2330568902       0.8033019458  -8.290696031505e-03   2.570667029031e-02   2.223492916924e-02
O         0.0064306138      -1.2757074244       0.8844352522  -7.662440085302e-04  -2.434432132294e-03  -1.632759182437e-02
O         1.2415726057       0.1237545366      -0.8832023534   5.070199644623e-02  -1.193882158967e-01   1.850820131268e-02
O        -1.2778531306      -0.0104359791      -0.8517387568  -1.799077754292e-03  -5.342078190135e-03  -8.768224118445e-03
H         1.8462234894      -0.9339342409      -0.6961327443  -5.150565687674e-02   9.458498467399e-02  -2.191800224722e-02
H        -1.4027637606       0.8582699659      -1.3073187071   7.824751743270e-03  -1.298392489123e-02   1.313968431639e-02
7
Properties=species:S:1:pos:R:3:forces:R:3 energy=-6.997919806965e+02 dipole="-1.5861327173e-01 -8.6133892718e-02 -8.1467064995e-01" quadrupole="-2.3379649865e+01 -4.3399383986e+00 1.7432202277e-01 -4.3399383986e+00 -2.7936046269e+01 2.2130443704e-01 1.7432202277e-01 2.2130443704e-01 -2.7565459548e+01" polarizability="3.8483077682e+01 -1.9495534389e+00 3.4233009868e-01 -1.9495534389e+00 3.9646542455e+01 8.8986750825e-01 3.4233009868e-01 8.8986750825e-01 3.5856120213e+01" charge=0 multiplicity=1 method=wB97M-V basis=def2-svpd config_type=h2so4 sample_index=349 temperature=300.0 units=atomic
S         0.0053406142       0.0136415430       0.1761877299  -1.143229019843e-02   3.215593091840e-02  -4.395789658476e-02
O        -0.0164057307       1.3049150508       0.8282254614  -9.120734946116e-04  -9.461216700618e-03   7.565239419574e-04
O         0.0289059805      -1.2784134489       0.7701040077  -2.358136194799e-03  -2.471910110326e-02   2.380024007143e-02
O         1.2880588203       0.0173710868      -0.8420691677  -8.515183402444e-03  -4.882977790338e-02   2.237741781125e-03
O        -1.2900369552      -0.0564645232      -0.8739650887   2.394358202873e-02  -1.082101443946e-02   1.239261291670e-02
H         1.4645885979      -0.9993671615      -0.9508113426  -3.540215996517e-03   5.089408253625e-02   1.077488599294e-03
H        -1.7982732897       0.7574795024      -0.9289855665   2.836767840471e-03   1.075382970050e-02   3.649272865564e-03
7
Properties=species:S:1:pos:R:3:forces:R:3 energy=-6.997826697991e+02 dipole="2.0692843584e-01 1.2949167197e-02 -1.5680898188e+00" quadrupole="-2.4243822392e+01 -3.4735554684e+00 1.1376061380e-01 -3.4735554684e+00 -2.8825383190e+01 -6.1489576636e-01 1.1376061380e-01 -6.1489576636e-01 -2.4820444437e+01" polarizability="3.5470270229e+01 -8.5806268925e-01 -7.2088069422e-02 -8.5806268925e-01 3.8003624929e+01 -1.7948419328e+00 -7.2088069422e-02 -1.7948419328e+00 3.8096248191e+01" charge=0 multiplicity=1 method=wB97M-V basis=def2-svpd config_type=h2so4 sample_index=350 temperature=300.0 units=atomic
S        -0.0232348300      -0.0112528953       0.1636943841   2.890691351833e-02  -4.200860197913e-02  -7.173252291071e-03
O         0.0406128963       1.2164619822       0.8397229982  -5.441518454755e-03   5.345648618317e-02   2.822419351508e-02
O        -0.0150029294      -1.2614434726       0.8965102955  -9.380814508136e-04   2.583551374673e-03  -1.447243535805e-02
O         1.1909824142       0.1118175578      -0.9094877062   3.134521670734e-03   8.949220065837e-03   2.063105301335e-04
O        -1.2057350012      -0.0480733259      -0.8629826105  -2.331323816504e-02   4.621851925113e-02  -6.459623712552e-02
H         1.6925742139      -0.6740502819      -1.1214714669  -1.246775757004e-04  -1.502620692253e-02   2.223751838735e-03
H        -1.1355827576       0.7472615198      -1.5974214894  -2.248394097869e-03  -5.418438814628e-02   5.547431780770e-02
7
Properties=species:S:1:pos:R:3:forces:R:3 energy=-6.997899059026e+02 dipole="8.8037017817e-02 -5.4486620433e-02 -1.3292191210e+00" quadrupole="-2.4443876429e+01 -3.8275434869e+00 5.4772720987e-02 -3.8275434869e+00 -2.8511801990e+01 1.0881436195e-01 5.4772720987e-02 1.0881436195e-01 -2.5476592520e+01" polarizability="3.7065740992e+01 -9.8684867613e-01 -1.0346543727e+00 -9.8684867613e-01 3.7656515542e+01 7.3192176179e-02 -1.0346543727e+00 7.3192176179e-02 3.4579839809e+01" charge=0 multiplicity=1 method=wB97M-V basis=def2-svpd config_type=h2so4 sample_index=351 temperature=300.0 units=atomic
S         0.0196659667      -0.0035569598       0.1421128109  -4.038113645500e-03   5.925590107884e-03  -1.320208639895e-02
O        -0.0398225392       1.2708951170       0.7694720330   1.355262092078e-02   2.673215846871e-02   1.932355224675e-02
O        -0.0437870815      -1.2727845509       0.7751451846   1.424495056552e-02  -2.817608515037e-02   1.876592313269e-02
O         1.3421898128       0.0654952079      -0.8230168210  -2.167967002832e-02   7.431320822333e-03   5.117830993953e-03
O        -1.3005235583      -0.0526953785      -0.7441549055   8.918689719192e-03  -6.018245042665e-02  -2.579148378681e-03
H         1.5376071444      -0.8055568419      -1.1810317421   8.684014456957e-04  -9.435461751157e-03  -1.575751768317e-03
H        -1.4938350343       0.7460200192      -1.1476251119  -1.182751738605e-02   5.772938371379e-02  -2.587086727147e-02
7
Properties=species:S:1:pos:R:3:forces:R:3 energy=-6.997837607192e+02 dipole="-3.9988007184e-01 1.3052427159e-01 -8.9856952119e-01" quadrupole="-2.4690474219e+01 -3.9741472577e+00 -3.6861160328e-02 -3.9741472577e+00 -2.7755045488e+01 3.5221683606e-01 -3.6861160328e-02 3.5221683606e-01 -2.6792395163e+01" polarizability="3.6814300126e+01 -2.0395244753e+00 -1.2060758455e-02 -2.0395244753e+00 3.9720442078e+01 -5.2462720936e-01 -1.2060758455e-02 -5.2462720936e-01 3.5782098582e+01" charge=0 multiplicity=1 method=wB97M-V basis=def2-svpd config_type=h2so4 sample_index=352 temperature=300.0 units=atomic
S        -0.0301450364      -0.0029175704       0.1971265019   4.081536838682e-02  -2.602481185109e-02  -5.141922688131e-02
O        -0.0165454352       1.2925317089       0.7839842938  -3.744588941372e-03   2.097833633063e-02   2.479044070232e-02
O         0.0468638908      -1.3023412582       0.8185867413  -9.144084403736e-03   5.313743753522e-03   9.354051982150e-03
O         1.2603514550       0.0364714002      -0.8641637005  -2.392406302098e-02   6.052754474806e-02   4.014859058219e-02
O        -1.2167240688      -0.0324573985      -0.8822105393  -3.475881168085e-02   6.974115137565e-02   4.758351180230e-03
H         1.3518735265      -0.8051660543      -1.2112400563   8.756320778446e-03  -5.997909476910e-02  -2.432784623982e-02
H        -1.5716313942       0.9896762819      -0.8941937263   2.202146269309e-02  -7.055175696352e-02  -3.321796268927e-03
7
Properties=species:S:1:pos:R:3:forces:R:3 energy=-6.997907186348e+02 dipole="9.0902645896e-02 1.0020803224e-02 -9.1991485625e-01" quadrupole="-2.4189334806e+01 -4.1047515720e+00 2.1663390986e-01 -4.1047515720e+00 -2.7793039401e+01 -4.5657507388e-01 2.1663390986e-01 -4.5657507388e-01 -2.8170032354e+01" polarizability="3.7933187268e+01 -2.3826062285e+00 8.4742282216e-01 -2.3826062285e+00 4.0794029537e+01 -4.4536403252e-01 8.4742282216e-01 -4.4536403252e-01 3.7335989765e+01" charge=0 multiplicity=1 method=wB97M-V basis=def2-svpd config_type=h2so4 sample_index=353 temperature=300.0 units=atomic
S        -0.0092881291      -0.0033850244       0.1593830196  -3.704222761348e-03  -3.134237747522e-03   1.356296838503e-02
O        -0.0247946005       1.2904064236       0.8507724040  -4.408689258503e-03  -2.417703740541e-02  -1.261673329865e-02
O         0.0800917061      -1.3052711890       0.8663150716  -1.075653564899e-02   3.680295705520e-02  -2.394953535418e-02
O         1.2306699067       0.0272988494      -0.8835813319   1.067236330397e-02  -5.422129705927e-02   1.503480965783e-02
O        -1.2753631154      -0.0064787050      -0.9211436209   1.869707374876e-02   1.349141471103e-02   2.289783279632e-02
H         1.5702450885      -0.9436588959      -0.7621541489  -7.727768116329e-03   4.591268341795e-02  -1.351474029690e-02
H        -1.4472403777       0.9606881059      -1.0310303732  -2.794535512933e-03  -1.474408539017e-02  -1.483257490605e-03
7
Properties=species:S:1:pos:R:3:forces:R:3 energy=-6.997536736181e+02 dipole="7.1660987676e-02 6.6358398626e-02 -1.0256628093e+00" quadrupole="-2.0479086089e+01 -5.5150135674e+00 -4.8973127042e-01 -5.5150135674e+00 -2.8013978581e+01 1.3325869418e-01 -4.8973127042e-01 1.3325869418e-01 -2.8167690528e+01" polarizability="4.1309961565e+01 -4.3170712658e+00 4.6723891774e-01 -4.3170712658e+00 4.0380950377e+01 -1.1108390622e+00 4.6723891774e-01 -1.1108390622e+00 3.6522102777e+01" charge=0 multiplicity=1 method=wB97M-V basis=def2-svpd config_type=h2so4 sample_index=354 temperature=300.0 units=atomic
S         0.0021626987      -0.0212575572       0.1378636652  -1.778611665544e-02  -4.311514970891e-02  -1.380426394781e-02
O         0.0011717847       1.2193075092       0.7801107505  -4.694476892927e-03   6.935514214834e-02   4.102775806517e-02
O         0.0270869427      -1.2651629867       0.8837666268  -2.522248593489e-03  -5.875352817952e-05  -1.527943362159e-02
O         1.2515874183       0.0764432882      -0.8317728441   5.625055262038e-02  -6.758511729389e-02  -2.821391400433e-02
O        -1.2834592522       0.0000256010      -0.8787225827  -4.018728204879e-02   6.767238097361e-02   6.503690660917e-04
H         1.8680048743      -0.8184833911      -0.9366602118  -5.323139914255e-02   6.153141312423e-02   1.142674141437e-02
H        -1.8821762036       1.0144027130      -0.8535855929   6.213614985380e-02  -8.781863492624e-02   4.112671892427e-03
7
Properties=species:S:1:pos:R:3:forces:R:3 energy=-6.997832973955e+02 dipole="-1.2526937716e-01 -1.7364953058e-01 -1.0628262797e+00" quadrupole="-2.3593641016e+01 -3.9661265130e+00 1.2597812560e-01 -3.9661265130e+00 -2.8427267045e+01 -1.2663917398e-01 1.2597812560e-01 -1.2663917398e-01 -2.6948142788e+01" polarizability="3.7203180135e+01 -1.0009049329e+00 6.3019357353e-01 -1.0009049329e+00 3.8769486839e+01 -7.3141803397e-01 6.3019357353e-01 -7.3141803397e-01 3.6205893002e+01" charge=0 multiplicity=1 method=wB97M-V basis=def2-svpd config_type=h2so4 sample_index=355 temperature=300.0 units=atomic
S        -0.0050349080      -0.0352129567       0.1610915099  -1.345024356533e-02   5.672059837847e-02  -1.292058146256e-04
O         0.0155412520       1.2791340106       0.7850534681  -8.222782800163e-03  -1.492893742198e-02   8.300535441371e-03
O         0.0312866421      -1.3014173575       0.8729506187  -5.552645950826e-03   1.213962526621e-02  -1.990137964306e-02
O         1.2643031015       0.0930563164      -0.8376266281  -2.443262975817e-02   2.584444721328e-02   1.426694880434e-02
O        -1.2841728804       0.0005584869      -0.8928676014   5.326955954347e-02  -1.021584375334e-01   2.366667057506e-02
H         1.4415927746      -0.7891630232      -1.0389478370   2.332611244402e-02  -5.331670071314e-02  -2.222827530650e-02
H        -1.7141659121       0.7775994061      -1.0667764870  -2.499276596170e-02   7.571530397103e-02  -3.999166317441e-03
7
Properties=species:S:1:pos:R:3:forces:R:3 energy=-6.997426101141e+02 dipole="3.0188420488e-01 2.5216388982e-01 -9.5805424693e-01" quadrupole="-2.0957774722e+01 -4.6966222215e+00 8.1683715726e-01 -4.6966222215e+00 -2.8329612868e+01 -4.5598896125e-01 8.1683715726e-01 -4.5598896125e-01 -2.8330229724e+01" polarizability="3.7875736865e+01 -4.0398151124e+00 -2.5280842217e-02 -4.0398151124e+00 3.8752033305e+01 -1.0447874687e+00 -2.5280842217e-02 -1.0447874687e+00 3.3503675575e+01" charge=0 multiplicity=1 method=wB97M-V basis=def2-svpd config_type=h2so4 sample_index=356 temperature=300.0 units=atomic
S        -0.0130515016       0.0262231166       0.1210572123   4.736728029972e-02  -1.507817011642e-01   3.743141846552e-02
O        -0.0805211226       1.2327398297       0.7784011263   6.042299237424e-03   1.063452574377e-01   6.384840497343e-02
O         0.0853327544      -1.2970945168       0.8009862476  -1.520072050457e-02   3.678619880556e-02  -1.039705317279e-02
O         1.2172540359      -0.0216035432      -0.8356233764   9.517657584082e-02  -6.200660226627e-02  -5.539546540133e-03
O        -1.2290895947       0.0322182747      -0.7810272235  -4.398588825138e-02  -3.258751693893e-02  -5.045949803900e-02
H         1.9862483300      -0.9032816425      -0.4857213892  -7.704662971977e-02   7.863975056538e-02  -2.838931773432e-02
H        -1.4654307096       0.9360332274      -0.9279350079  -1.238033230765e-02   2.354587897838e-02  -6.563668663086e-03
7
Properties=species:S:1:pos:R:3:forces:R:3 energy=-6.997869693569e+02 dipole="-1.2233785848e-01 1.2767663489e-02 -9.4757944814e-01" quadrupole="-2.5265918877e+01 -3.8521724938e+00 8.1399390231e-01 -3.8521724938e+00 -2.7401732688e+01 -6.2842395554e-01 8.1399390231e-01 -6.2842395554e-01 -2.6745326140e+01" polarizability="3.6790394987e+01 -2.3054760440e+00 3.1634993614e-01 -2.3054760440e+00 4.0019013162e+01 -2.1032576737e-01 3.1634993614e-01 -2.1032576737e-01 3.6640958996e+01" charge=0 multiplicity=1 method=wB97M-V basis=def2-svpd config_type=h2so4 sample_index=357 temperature=300.0 units=atomic
S        -0.0241033822       0.0107517272       0.1947748585   2.137284271940e-02  -7.901303711508e-04  -5.653971885155e-02
O        -0.0244328407       1.2819132001       0.8368837951  -3.388067101177e-03   1.736473924109e-02   1.747359886322e-02
O         0.0740094499      -1.2851506856       0.8045442018  -1.306304189013e-02  -8.606294430326e-03   1.422553346029e-02
O         1.2328354962       0.0191542337      -0.8896885646  -8.438889081699e-04  -6.728491036143e-02   1.895961668115e-02
O        -1.2376564699      -0.0289111460      -0.8863998946  -7.601476443099e-03   2.691592719833e-02  -3.146262038262e-03
H         1.4269240368      -1.0278146908      -0.8776127340  -3.442745070638e-03   6.577512458233e-02  -8.757752947138e-03
H        -1.3769548023       0.8944206907      -1.2852632552   6.960844893291e-03  -3.344697782286e-02   1.771067215924e-02
7
Properties=species:S:1:pos:R:3:forces:R:3 energy=-6.997854204079e+02 dipole="-4.7229480817e-01 1.5538463453e-02 -1.1264791702e+00" quadrupole="-2.4660002172e+01 -3.6112231851e+00 9.6086949556e-01 -3.6112231851e+00 -2.7978814218e+01 -3.1280551738e-01 9.6086949556e-01 -3.1280551738e-01 -2.7229422932e+01" polarizability="3.5994625437e+01 -1.9795754468e+00 -8.4615199518e-01 -1.9795754468e+00 3.9043699210e+01 2.5304911622e-01 -8.4615199518e-01 2.5304911622e-01 3.5560234424e+01" charge=0 multiplicity=1 method=wB97M-V basis=def2-svpd config_type=h2so4 sample_index=358 temperature=300.0 units=atomic
S        -0.0537665252       0.0069002211       0.1462199482   9.329656663775e-02   9.351892880345e-03   5.109256552595e-02
O        -0.0503997329       1.2969805606       0.8464889853  -2.740356708293e-03  -2.503582319658e-02  -1.484942722164e-02
O         0.0890424177      -1.2877867682       0.8139932987  -1.939565181466e-02   1.776047225465e-02  -8.044167385059e-03
O         1.2863579936      -0.0088964094      -0.8781137747  -3.438986296289e-02   1.583092453688e-02   1.718999762727e-02
O        -1.2154095995      -0.0076021547      -0.8330016040  -3.140797397609e-02  -6.142877800244e-02  -2.136944079905e-02
H         1.3996444964      -0.9580754160      -0.9152787215   1.330638116043e-02  -1.440798570100e-02  -7.267776447182e-03
H        -1.4393837961       0.8549294751      -1.0561911427  -1.867033940015e-02   5.785436339389e-02  -1.686646719964e-02
7
Properties=species:S:1:pos:R:3:forces:R:3 energy=-6.997481979045e+02 dipole="1.1334954348e-01 -3.0483149713e-02 -2.0264937563e+00" quadrupole="-2.5627494868e+01 -3.2457822559e+00 -2.6636450968e-01 -3.2457822559e+00 -2.9082843724e+01 2.7194940702e-01 -2.6636450968e-01 2.7194940702e-01 -2.2226359269e+01" polarizability="3.7530713395e+01 -2.7170426979e+00 -7.0926025219e-01 -2.7170426979e+00 4.0922329291e+01 7.0731548292e-01 -7.0926025219e-01 7.0731548292e-01 4.0762505414e+01" charge=0 multiplicity=1 method=wB97M-V basis=def2-svpd config_type=h2so4 sample_index=359 temperature=300.0 units=atomic
S         0.0164571172       0.0003744968       0.1508468404  -1.650761406495e-02  -5.652336546179e-03   4.125971000428e-03
O        -0.0517987989       1.2765802553       0.8034353229   1.607515660403e-02   9.291180816469e-03   1.234126535937e-02
O         0.0151025481      -1.2784980500       0.8080729625  -4.082173045785e-03  -3.805839973044e-03   9.040163298511e-03
O         1.2745081365       0.0301867272      -0.8047091835   2.628570660859e-02  -5.410480418426e-02  -9.396347940855e-02
O        -1.2707052449      -0.0264090592      -0.7887040304  -2.012766586994e-02   4.119379597426e-02  -8.173548099067e-02
H         1.3617222998      -0.8038640059      -1.6513118978  -1.505287810001e-02   6.953318170715e-02   8.307698771901e-02
H        -1.3593912966       0.7615513194      -1.5610031000   1.344577845896e-02  -5.640229549467e-02   6.703066852104e-02
7
Properties=species:S:1:pos:R:3:forces:R:3 energy=-6.997854743575e+02 dipole="1.8232004934e-01 -1.8210672807e-01 -1.1581466746e+00" quadrupole="-2.3063103482e+01 -4.2037646676e+00 5.5619745635e-01 -4.2037646676e+00 -2.8479657127e+01 -9.8844342900e-01 5.5619745635e-01 -9.8844342900e-01 -2.6944402852e+01" polarizability="3.6824899617e+01 -2.2766674960e+00 -6.7769855686e-01 -2.2766674960e+00 4.0181882636e+01 6.4821167289e-01 -6.7769855686e-01 6.4821167289e-01 3.6460279350e+01" charge=0 multiplicity=1 method=wB97M-V basis=def2-svpd config_type=h2so4 sample_index=360 temperature=300.0 units=atomic
S        -0.0075474409      -0.0161997302       0.1706610822   2.462413775063e-02   1.056025018881e-01   2.970866937595e-03
O        -0.0311019934       1.3254011132       0.8649515193   4.237425412114e-03  -6.247286251286e-02  -2.922438372379e-02
O         0.0052728166      -1.2701894278       0.7985467608   2.260324480923e-03  -4.987686008251e-02   3.442429372819e-02
O         1.2097552611       0.0273051151      -0.9154883757   3.604500895649e-02  -4.326418836645e-02   7.777235319034e-03
O        -1.1958112712      -0.0492998584      -0.8370800488  -3.346253731239e-02   1.624616580798e-02  -2.767324651104e-02
H         1.7849785363      -0.8518090383      -0.8863405144  -3.724321629982e-02   4.974322736688e-02   1.779862898582e-03
H        -1.3583260646       0.8401766009      -1.2417319444   3.507391947943e-03  -1.596150963241e-02   9.878138333844e-03
7
Properties=species:S:1:pos:R:3:forces:R:3 energy=-6.997721589871e+02 dipole="-3.9328638592e-01 -2.7303548091e-01 -9.6460628959e-01" quadrupole="-2.4045416541e+01 -3.9465437995e+00 3.5837807012e-01 -3.9465437995e+00 -2.8231812881e+01 -4.1398812190e-01 3.5837807012e-01 -4.1398812190e-01 -2.7067416549e+01" polarizability="3.6036663347e+01 -1.6314346323e+00 1.4449957893e+00 -1.6314346323e+00 4.1357604158e+01 1.1315743321e+00 1.4449957893e+00 1.1315743321e+00 3.6634910629e+01" charge=0 multiplicity=1 method=wB97M-V basis=def2-svpd config_type=h2so4 sample_index=361 temperature=300.0 units=atomic
S        -0.0336439504      -0.0315489040       0.2077254090   1.438708815520e-02   1.649098147100e-01  -2.899234747149e-02
O         0.0412337162       1.3730357079       0.8463898777  -2.017316224473e-02  -8.873237543378e-02  -2.461637811021e-02
O         0.0707502644      -1.2919751171       0.7931573201  -1.248987853236e-02  -6.388180122390e-02   4.567137642244e-02
O         1.1501580052       0.0400191661      -0.8498526044   2.591248197727e-02  -1.413713299399e-02  -5.783355303542e-03
O        -1.1713492671      -0.0551456758      -0.9518490334  -4.247074590597e-02   3.409236628259e-02   1.183803889822e-02
H         1.2700759492      -0.9039690207      -1.0687263657   9.789911966356e-03   7.084563534276e-03  -7.598612672770e-03
H        -1.6463108587       0.8491112802      -1.0611656702   2.506571173986e-02  -3.928123464952e-02   9.533803398978e-03
7
Properties=species:S:1:pos:R:3:forces:R:3 energy=-6.997708555102e+02 dipole="-7.4310606625e-02 2.0737416789e-01 -9.6506853981e-01" quadrupole="-2.4622848463e+01 -3.8496265899e+00 3.0341885181e-01 -3.8496265899e+00 -2.7824872001e+01 2.8545157493e-02 3.0341885181e-01 2.8545157493e-02 -2.7198422445e+01" polarizability="3.7840952089e+01 -1.8989352494e+00 6.3865047994e-01 -1.8989352494e+00 3.9470497655e+01 -2.9762249369e-01 6.3865047994e-01 -2.9762249369e-01 3.6932672147e+01" charge=0 multiplicity=1 method=wB97M-V basis=def2-svpd config_type=h2so4 sample_index=362 temperature=300.0 units=atomic
S         0.0352938395       0.0260903250       0.1750802677  -4.078532969799e-02  -2.631348763173e-02  -1.922814406961e-02
O        -0.0574971284       1.2843316653       0.8640721865   1.154357440216e-02   4.478577150714e-03  -1.880843665107e-03
O         0.0037582282      -1.2813042765       0.8210602136   9.305990039635e-03   1.769286839371e-02  -4.799431783646e-03
O         1.2692097294       0.0043221864      -0.8957214189  -2.112478809113e-02   1.654927312596e-01   5.376378192577e-02
O        -1.2631408078      -0.0656868148      -0.8898983389  -3.110774998461e-03   6.984506690562e-02   8.238344559754e-03
H         1.2915094752      -0.8334161190      -1.0730759150   1.701894836129e-02  -1.662798815900e-01  -4.440899433860e-02
H        -1.6486187511       0.9261476041      -1.0147145154   2.717932260092e-02  -6.490038976765e-02   8.300057937936e-03
7
Properties=species:S:1:pos:R:3:forces:R:3 energy=-6.997851551356e+02 dipole="5.0598854376e-02 9.5897186193e-02 -1.2556904014e+00" quadrupole="-2.3046442497e+01 -4.1688832288e+00 6.4552930554e-01 -4.1688832288e+00 -2.8426765247e+01 4.3671280986e-02 6.4552930554e-01 4.3671280986e-02 -2.6794307184e+01" polarizability="3.6650384786e+01 -1.5827288800e+00 -3.5958729117e-01 -1.5827288800e+00 3.8528435022e+01 -1.4483274850e-01 -3.5958729117e-01 -1.4483274850e-01 3.6184977014e+01" charge=0 multiplicity=1 method=wB97M-V basis=def2-svpd config_type=h2so4 sample_index=363 temperature=300.0 units=atomic
S         0.0035712070       0.0292234778       0.1458853222  -7.618276309242e-04  -8.190330222300e-02   7.948857355566e-03
O        -0.0230971098       1.2473781288       0.8562395232   3.101911078023e-03   4.177893937601e-02   1.571776306348e-02
O         0.0075559580      -1.2868103888       0.8451006797   1.268394420844e-03   4.233013702465e-02  -2.712142692809e-02
O         1.2474292214       0.0350509748      -0.8880000786   1.282374550600e-02  -3.263917026250e-02   5.841117985668e-04
O        -1.2422749962      -0.0401320721      -0.8507936190   3.203535763388e-02  -9.991043363144e-02   3.673466031129e-02
H         1.6316063651      -0.9093669296      -0.9400126294  -1.804546899968e-02   3.747026693432e-02   3.402261631025e-03
H        -1.5808764811       0.6908023960      -1.2267678854  -3.041257347819e-02   9.286114003934e-02  -3.737616429355e-02
7
Properties=species:S:1:pos:R:3:forces:R:3 energy=-6.997833066473e+02 dipole="2.6842649695e-01 8.0343942519e-02 -9.5202162339e-01" quadrupole="-2.3715922052e+01 -4.4043253794e+00 -5.3599454322e-01 -4.4043253794e+00 -2.7837954070e+01 1.8405312970e-01 -5.3599454322e-01 1.8405312970e-01 -2.8018711964e+01" polarizability="3.8759391191e+01 -1.5968065483e+00 4.4524164392e-01 -1.5968065483e+00 3.8808056161e+01 -1.1428282229e+00 4.4524164392e-01 -1.1428282229e+00 3.5507087581e+01" charge=0 multiplicity=1 method=wB97M-V basis=def2-svpd config_type=h2so4 sample_index=364 temperature=300.0 units=atomic
S         0.0201698599      -0.0135863534       0.1226224496  -3.400536865768e-02  -6.703885567082e-02   1.870894062573e-03
O        -0.0031450401       1.2275836904       0.7699314735  -5.641527238118e-03   6.601603734966e-02   3.480515668703e-02
O        -0.0044362344      -1.2789785740       0.8660104597   9.975959470519e-03   1.772762492162e-02  -2.472437032602e-02
O         1.3062005993       0.0994500337      -0.8187619109  -3.952455622098e-04  -3.028967833049e-02  -8.047045648606e-03
O        -1.3468713848      -0.0318282064      -0.8426913433   2.718148274705e-02   6.027848657636e-02   1.311185258384e-02
H         1.6513549745      -0.8188565228      -0.8542820980   3.362548681482e-03   8.725738719398e-03  -7.199091147948e-03
H        -1.5260484398       1.0004804785      -0.8025019615  -4.998853405525e-04  -5.548496070369e-02  -9.874988734442e-03
7
Properties=species:S:1:pos:R:3:forces:R:3 energy=-6.997914232125e+02 dipole="-8.4021789070e-02 -3.2766612228e-02 -1.3665341618e+00" quadrupole="-2.5284120173e+01 -3.6559368183e+00 -1.8303378254e-01 -3.6559368183e+00 -2.8006478278e+01 1.1262395032e-02 -1.8303378254e-01 1.1262395032e-02 -2.5157363814e+01" polarizability="3.6747220791e+01 -1.0477134989e+00 2.9691164090e-01 -1.0477134989e+00 3.7347702712e+01 -8.6000155885e-02 2.9691164090e-01 -8.6000155885e-02 3.6817198780e+01" charge=0 multiplicity=1 method=wB97M-V basis=def2-svpd config_type=h2so4 sample_index=365 temperature=300.0 units=atomic
S        -0.0079049524      -0.0184669639       0.1636131260   9.364718542708e-04   2.161411867306e-02  -6.149901536822e-02
O         0.0292864075       1.2216044619       0.8127965311  -7.168141621024e-03   5.947322953768e-02   3.050386524247e-02
O         0.0069748256      -1.2280508529       0.8604389444  -4.387613320830e-03  -6.374316308384e-02   2.273744929294e-02
O         1.2721348456       0.0926857194      -0.8352423017  -7.727357880857e-03  -4.082754330794e-02  -2.378871558018e-02
O        -1.2850145518      -0.0548491027      -0.8827495501   1.239173822494e-02   7.895159100840e-03   4.146331587487e-03
H         1.3415131746      -0.7634323208      -1.3731224648  -2.326585407100e-04   3.010208077874e-02   1.914599410352e-02
H        -1.4635675715       0.8521657717      -1.2337611329   6.118945477322e-03  -1.453241259498e-02   8.690823523309e-03
7
Properties=species:S:1:pos:R:3:forces:R:3 energy=-6.997512883570e+02 dipole="1.9065583053e-01 -1.3552921610e-01 -8.9225541547e-01" quadrupole="-2.1851822704e+01 -5.1248050523e+00 -4.8839791670e-01 -5.1248050523e+00 -2.7825909877e+01 1.9954972387e-01 -4.8839791670e-01 1.9954972387e-01 -2.9027701661e+01" polarizability="4.0304732655e+01 -4.3161401946e+00 1.6518038036e+00 -4.3161401946e+00 4.1648365371e+01 -5.6425052042e-01 1.6518038036e+00 -5.6425052042e-01 3.6560357042e+01" charge=0 multiplicity=1 method=wB97M-V basis=def2-svpd config_type=h2so4 sample_index=366 temperature=300.0 units=atomic
S         0.0320925238      -0.0167236262       0.1252633241  -9.120219931997e-02   1.259755517569e-02   5.368968634739e-02
O        -0.0395414093       1.2622499912       0.8028520123   5.552838807795e-04   2.647987960103e-04   6.784709048821e-03
O         0.0857177640      -1.2925786071       0.8721508163  -6.182573561138e-03   2.266855839035e-02  -2.536412381323e-02
O         1.2201311511       0.0360169325      -0.8025750128   7.995320574429e-02  -1.010180748097e-01  -3.760482731461e-02
O        -1.3121700189       0.0327362769      -0.9161526821  -1.274612492185e-02   5.057145909804e-02   2.572530755534e-02
H         1.5920138422      -1.0473921921      -0.6934547771  -2.205036132117e-02   8.670177436165e-02  -1.597009407757e-02
H        -1.8815020152       0.9685748579      -0.7426022888   5.170513861250e-02  -7.176421689058e-02  -7.343509081077e-03
7
Properties=species:S:1:pos:R:3:forces:R:3 energy=-6.997705004214e+02 dipole="-1.8787449536e-01 -1.9024171552e-01 -7.8742883421e-01" quadrupole="-2.4178297586e+01 -4.1259612026e+00 6.7837138359e-01 -4.1259612026e+00 -2.7185023347e+01 -7.1338936012e-01 6.7837138359e-01 -7.1338936012e-01 -2.8589674332e+01" polarizability="3.7675412534e+01 -3.2376251649e+00 2.0662930663e-01 -3.2376251649e+00 3.9628131624e+01 -2.3724698918e-01 2.0662930663e-01 -2.3724698918e-01 3.5881337542e+01" charge=0 multiplicity=1 method=wB97M-V basis=def2-svpd config_type=h2so4 sample_index=367 temperature=300.0 units=atomic
S        -0.0327037705      -0.0263205367       0.1429382246   2.627140448793e-02   7.446495521610e-02  -6.978772635849e-03
O        -0.0634643687       1.2637991737       0.8282185984  -3.175034126738e-03  -1.322868208783e-02  -1.805607230057e-03
O         0.1347585593      -1.2581241628       0.8499264264  -1.849724019332e-02  -2.936733767899e-02   7.044164435788e-03
O         1.2628041469       0.0030682695      -0.8654101791  -1.896930278097e-03  -9.894808113471e-02   3.121291501612e-02
O        -1.2674025588       0.0508255081      -0.8857295523   3.183931567705e-03  -2.688619563213e-02   2.318082328088e-03
H         1.4971137034      -1.0847901365      -0.6055278628  -2.103517376184e-03   8.506032309732e-02  -3.225721699349e-02
H        -1.5252571448       0.9774629405      -0.9074052742  -3.724274668722e-03   8.887408820409e-03   4.037836690314e-04
7
Properties=species:S:1:pos:R:3:forces:R:3 energy=-6.997935698973e+02 dipole="2.9302583399e-02 1.1782876770e-01 -1.0915707755e+00" quadrupole="-2.5414061341e+01 -3.6513588972e+00 -4.2588656258e-01 -3.6513588972e+00 -2.7957470274e+01 5.9027482044e-01 -4.2588656258e-01 5.9027482044e-01 -2.6254535564e+01" polarizability="3.6371609159e+01 -6.9542270962e-01 -7.8649254551e-01 -6.9542270962e-01 3.8569321417e+01 -1.9213728499e-01 -7.8649254551e-01 -1.9213728499e-01 3.6426922918e+01" charge=0 multiplicity=1 method=wB97M-V basis=def2-svpd config_type=h2so4 sample_index=368 temperature=300.0 units=atomic
S         0.0171262754       0.0072442841       0.1819841114  -3.774357126388e-03  -6.999956841465e-02  -4.295637076992e-02
O        -0.0134295504       1.2591904473       0.8150094597   2.805675953874e-03   5.023954991777e-02   2.701628292382e-02
O        -0.0513455689      -1.2777021418       0.8418701820   1.585693526549e-02   5.558008718683e-03   2.231095690929e-03
O         1.2675320148       0.0842327162      -0.8961995520  -1.330967804947e-02  -7.785002587450e-03   1.663893607636e-02
O        -1.2342482098      -0.0860249971      -0.8617157780   7.344066949429e-03   3.714784048421e-02   5.546259686257e-03
H         1.3467557259      -0.7937287528      -1.3125340239   1.058390103671e-03   3.171850685118e-03   1.476331517298e-03
H        -1.3868384310       0.8860922220      -0.9830267721  -9.926644324625e-03  -1.838462829281e-02  -9.965283977988e-03
7
Properties=species:S:1:pos:R:3:forces:R:3 energy=-6.997792364285e+02 dipole="-1.7532715890e-01 1.9146548122e-01 -1.5110203145e+00" quadrupole="-2.5075777222e+01 -3.8440300720e+00 1.1678196706e-01 -3.8440300720e+00 -2.8625560923e+01 5.7902596950e-01 1.1678196706e-01 5.7902596950e-01 -2.5033951969e+01" polarizability="3.6339097428e+01 -7.2663809007e-01 6.6650581158e-02 -7.2663809007e-01 4.0078358614e+01 8.9294765955e-01 6.6650581158e-02 8.9294765955e-01 3.7020062506e+01" charge=0 multiplicity=1 method=wB97M-V basis=def2-svpd config_type=h2so4 sample_index=369 temperature=300.0 units=atomic
S        -0.0179390033       0.0460653022       0.1622999755   2.445218116226e-02  -8.525040656850e-02   4.122800360597e-03
O         0.0746026023       1.2845259217       0.8430739643  -1.411112633613e-02   3.130372436520e-02   1.328692995081e-02
O        -0.0496100895      -1.2818576161       0.7678628116   8.490658465955e-03   1.669914860190e-02   1.353905271794e-02
O         1.2490175531       0.0809280506      -0.8205213433   1.118671829739e-02  -6.144618951453e-02  -4.959244380440e-02
O        -1.2316297706      -0.1679234046      -0.8339543114  -2.443244222827e-02   6.800185502159e-02  -3.341312178424e-02
H         1.3304207608      -0.8706016774      -1.3454433879  -7.498700568399e-03   6.754952345070e-02   4.075358304620e-02
H        -1.4319496947       0.7407595063      -1.2548439489   1.892977353606e-03  -3.681271779901e-02   1.130717276086e-02
7
Properties=species:S:1:pos:R:3:forces:R:3 energy=-6.997909283079e+02 dipole="-1.4513015892e-01 1.9358928491e-01 -9.6121797773e-01" quadrupole="-2.3961477276e+01 -4.1438014222e+00 -5.6826921555e-01 -4.1438014222e+00 -2.8140058534e+01 8.1759615461e-01 -5.6826921555e-01 8.1759615461e-01 -2.6699371552e+01" polarizability="3.6876445880e+01 -1.4010504984e+00 -7.7090242644e-01 -1.4010504984e+00 3.9027550028e+01 3.3533050768e-02 -7.7090242644e-01 3.3533050768e-02 3.5438474858e+01" charge=0 multiplicity=1 method=wB97M-V basis=def2-svpd config_type=h2so4 sample_index=370 temperature=300.0 units=atomic
S        -0.0196627338       0.0232194306       0.1825509477   3.976452977192e-02  -1.168984069167e-01  -4.644303547940e-02
O        -0.0013184430       1.2808842636       0.7880743067  -3.449588363533e-03   5.820412755457e-02   3.374933581576e-02
O         0.0011048059      -1.3047207248       0.7977743399   1.776577855726e-04   2.704855044658e-02   4.377798774856e-03
O         1.2754802471       0.0444681058      -0.8547758522  -8.896536329857e-03   1.030112455356e-02   6.769675079454e-03
O        -1.2386913880      -0.0700531748      -0.8482222711  -6.160277687645e-03   2.259833090080e-02   2.494190171792e-03
H         1.5735471740      -0.8130776463      -1.2160257186  -1.199319780100e-02   2.773840319539e-03   1.044448955458e-02
H        -1.5298149778       0.8603313796      -0.8663340307  -9.456994554692e-03  -4.049410272391e-03  -1.137875996222e-02
7
Properties=species:S:1:pos:R:3:forces:R:3 energy=-6.997783195970e+02 dipole="2.5429306695e-01 -8.6054858990e-02 -1.0656478193e+00" quadrupole="-2.3941972534e+01 -3.7665372802e+00 -8.9944215317e-01 -3.7665372802e+00 -2.8322422088e+01 2.8825411996e-01 -8.9944215317e-01 2.8825411996e-01 -2.7058446273e+01" polarizability="3.5851819678e+01 -1.5782046216e+00 1.2269757900e-01 -1.5782046216e+00 3.9174859610e+01 -3.3049378632e-02 1.2269757900e-01 -3.3049378632e-02 3.5870884554e+01" charge=0 multiplicity=1 method=wB97M-V basis=def2-svpd config_type=h2so4 sample_index=371 temperature=300.0 units=atomic
S        -0.0075998445      -0.0163797958       0.1710552802   1.632760032773e-03  -1.816006005685e-02   1.424674722201e-02
O        -0.0102542878       1.2972250461       0.8037769659  -5.235578058363e-03  -1.851649038360e-02  -1.436365037703e-03
O         0.0540038920      -1.3135146826       0.8589255016  -9.567684567407e-03   3.108988031952e-02  -1.463449775268e-02
O         1.1958894311       0.0509974696      -0.8530108393   2.956700430625e-02  -1.143701118540e-02  -1.751474505074e-02
O        -1.2414769458      -0.0034131536      -0.9034533708   3.308642870250e-02  -1.668947986384e-01   3.591039155090e-02
H         1.6207718094      -0.8136362288      -1.0842870093  -1.430121898666e-02   1.422743505034e-02   9.030430335700e-03
H        -1.3523426765       0.8408170724      -0.9822757496  -3.519764485166e-02   1.696721814999e-01  -2.562797071439e-02
7
Properties=species:S:1:pos:R:3:forces:R:3 energy=-6.997681739771e+02 dipole="2.8924759729e-01 -1.6468990403e-01 -1.6278346536e+00" quadrupole="-2.5601017612e+01 -3.4253579906e+00 4.3664888590e-01 -3.4253579906e+00 -2.8982926376e+01 -9.2315255949e-01 4.3664888590e-01 -9.2315255949e-01 -2.4840555501e+01" polarizability="3.7935147399e+01 -1.3305249467e+00 1.5536935626e+00 -1.3305249467e+00 4.2388959662e+01 -1.5396045603e+00 1.5536935626e+00 -1.5396045603e+00 3.9957574591e+01" charge=0 multiplicity=1 method=wB97M-V basis=def2-svpd config_type=h2so4 sample_index=372 temperature=300.0 units=atomic
S         0.0227211311      -0.0203075668       0.1511958192  -5.031604098582e-02   5.331275212132e-02   5.137148883710e-02
O         0.0068537258       1.3207938493       0.8361109929   1.427478651231e-03  -6.132765222725e-02  -2.298395243626e-02
O         0.0054278704      -1.3264332480       0.8504348584   3.741458427624e-03   3.890671074351e-02  -2.587027253517e-02
O         1.2386332935       0.0916846163      -0.8480719477   9.214809687606e-03  -1.729053235608e-02  -1.019276909719e-02
O        -1.3063277501      -0.0421717268      -0.8545818471   2.274205698725e-02   5.571098034830e-02  -5.437063806668e-02
H         1.4247400604      -0.8411421017      -1.0399988344   1.135612867347e-02  -1.837748817179e-03  -9.619573733446e-03
H        -1.2685174242       0.7951092212      -1.6367901463   1.845538001629e-03  -6.748744888248e-02   7.163470875839e-02
7
Properties=species:S:1:pos:R:3:forces:R:3 energy=-6.997886250375e+02 dipole="-8.5020076407e-04 1.0244916234e-01 -1.4107409531e+00" quadrupole="-2.6365420692e+01 -3.1397871452e+00 -2.9901016945e-01 -3.1397871452e+00 -2.8075117192e+01 4.2031012069e-01 -2.9901016945e-01 4.2031012069e-01 -2.5459503590e+01" polarizability="3.6811886780e+01 -1.3437730470e+00 5.8409945236e-01 -1.3437730470e+00 4.0199691486e+01 -7.4561888047e-03 5.8409945236e-01 -7.4561888047e-03 3.9054775229e+01" charge=0 multiplicity=1 method=wB97M-V basis=def2-svpd config_type=h2so4 sample_index=373 temperature=300.0 units=atomic
S         0.0120150108       0.0031136166       0.1723750453  -1.778774858155e-02  -4.503714428010e-02   2.548393442396e-03
O        -0.0177036501       1.2630064502       0.8535470635   8.944695588597e-04   1.216242648031e-02   3.202735701080e-03
O         0.0309627770      -1.2862752622       0.8933602806  -4.365471764600e-03   3.470470370550e-02  -2.605989432150e-02
O         1.2368148453       0.0557588794      -0.8735624890  -9.734164949407e-03  -5.577835093833e-02  -3.360993275073e-02
O        -1.2601819752      -0.0437672244      -0.9313606943   2.150938708209e-02   2.299852893380e-02   1.720966967622e-02
H         1.1233696076      -0.8335522093      -1.4446077358   1.205757789638e-02   5.350159232368e-02   3.290923740955e-02
H        -1.3422295674       0.9126640751      -1.2040291480  -2.563180008933e-03  -2.259049002564e-02   3.689373101792e-03
7
Properties=species:S:1:pos:R:3:forces:R:3 energy=-6.997862382618e+02 dipole="-2.4887081466e-01 -1.7138999576e-01 -1.2477116315e+00" quadrupole="-2.4995503009e+01 -3.8350560841e+00 1.7137792921e-01 -3.8350560841e+00 -2.8226048707e+01 -3.0746561902e-03 1.7137792921e-01 -3.0746561902e-03 -2.5784599894e+01" polarizability="3.6649793384e+01 -1.1565142743e+00 1.3574381229e-01 -1.1565142743e+00 3.9455677867e+01 9.3882687327e-01 1.3574381229e-01 9.3882687327e-01 3.5621928539e+01" charge=0 multiplicity=1 method=wB97M-V basis=def2-svpd config_type=h2so4 sample_index=374 temperature=300.0 units=atomic
S        -0.0179001259      -0.0196469579       0.1663246404   1.733240368129e-02   1.017291801170e-01  -2.436702438718e-02
O         0.0359449101       1.3035312401       0.7861023031  -1.460417064262e-02  -2.172358384536e-02   3.504439762375e-03
O         0.0100721021      -1.2699462263       0.7794206863  -4.040246159022e-03  -6.492630780657e-02   3.908561920223e-02
O         1.2778426100       0.0837578892      -0.7944721838  -9.444478804291e-03  -7.710704921349e-02  -3.887018941813e-02
O        -1.2724068853      -0.0740662213      -0.8396666720  -2.484622411860e-03   3.136287905338e-03  -4.803505689175e-03
H         1.2918964143      -0.8916295888      -1.2329246123   9.051252687884e-03   6.253672232992e-02   2.259724632260e-02
H        -1.5420089230       0.8232065329      -1.1114442245   4.121353747142e-03  -3.593703747735e-03   2.889793996963e-03
7
Properties=species:S:1:pos:R:3:forces:R:3 energy=-6.997750131333e+02 dipole="-6.5933656504e-02 -1.6641778639e-01 -9.2269037630e-01" quadrupole="-2.6556337550e+01 -3.2316656144e+00 2.5887590854e-01 -3.2316656144e+00 -2.7836141184e+01 -2.5018723583e-01 2.5887590854e-01 -2.5018723583e-01 -2.6303287592e+01" polarizability="3.6671096851e+01 -6.9502628014e-01 -1.0326477146e+00 -6.9502628014e-01 4.0391125539e+01 3.2916025971e-01 -1.0326477146e+00 3.2916025971e-01 3.6500045635e+01" charge=0 multiplicity=1 method=wB97M-V basis=def2-svpd config_type=h2so4 sample_index=375 temperature=300.0 units=atomic
S        -0.0297897747      -0.0109525777       0.2092330170   3.805245584524e-02   4.688251746067e-02  -4.867349275368e-02
O         0.0225915269       1.3106401889       0.7988375303  -1.116598873529e-02  -1.190690771301e-02   1.270085322075e-02
O        -0.0119811759      -1.3002418124       0.7898839187   4.531236105059e-03  -3.088132826718e-02   3.109828887561e-02
O         1.2674316822       0.1046768004      -0.8995164179  -2.626311074206e-02  -9.697972900973e-02   2.055991619388e-02
O        -1.2346574458      -0.0824201343      -0.8472379757   4.875962971894e-03   2.006648162982e-02   9.548918215518e-04
H         1.3424441516      -0.9716222663      -1.0296808262   8.084810222602e-03   7.478402901517e-02  -3.397896548359e-03
H        -1.0906162751       0.8034950951      -1.2306550351  -1.809433415373e-02  -1.927743684654e-03  -1.321998589838e-02
7
Properties=species:S:1:pos:R:3:forces:R:3 energy=-6.997508161662e+02 dipole="2.7949199065e-01 6.8918359299e-03 -8.5315676486e-01" quadrupole="-1.9548387998e+01 -5.0546253502e+00 1.2188700736e+00 -5.0546253502e+00 -2.9130464997e+01 -7.4328331156e-01 1.2188700736e+00 -7.4328331156e-01 -2.9087775702e+01" polarizability="4.2496018716e+01 -4.2451241723e+00 -3.4302827418e-02 -4.2451241723e+00 4.1986816041e+01 -2.6488139147e-01 -3.4302827418e-02 -2.6488139147e-01 3.7021130735e+01" charge=0 multiplicity=1 method=wB97M-V basis=def2-svpd config_type=h2so4 sample_index=376 temperature=300.0 units=atomic
S         0.0331184693       0.0151581740       0.1267776705  -3.585467963071e-02   3.587164466248e-04   4.538759476791e-02
O        -0.0871805656       1.3018899658       0.8558664185   1.956419130940e-02  -3.308735691482e-02  -1.809796390146e-02
O         0.0062706960      -1.3068953770       0.8131779582   1.074972387800e-02   4.033052732125e-02  -1.851892113157e-02
O         1.2757352299      -0.0120558996      -0.9062809927   5.449998751186e-02  -7.055260280415e-02   4.325131060605e-02
O        -1.2693630764      -0.0059843238      -0.8157082127  -9.054809421151e-03  -2.666195087837e-03  -2.279594284033e-02
H         2.0050908014      -0.8953745526      -0.4489903762  -6.758730031137e-02   7.709878502709e-02  -4.066791384399e-02
H        -1.8708460956       0.7825331640      -0.9026181149   2.769771217968e-02  -1.142606903410e-02   1.140620348768e-02
7
Properties=species:S:1:pos:R:3:forces:R:3 energy=-6.997946971902e+02 dipole="-1.5184171175e-01 6.8485946887e-02 -1.0326718286e+00" quadrupole="-2.2750014765e+01 -4.3722103903e+00 -1.5103855316e-01 -4.3722103903e+00 -2.8127679019e+01 2.6218697841e-01 -1.5103855316e-01 2.6218697841e-01 -2.6939574671e+01" polarizability="3.6220640213e+01 -2.1417341233e+00 4.5717372583e-02 -2.1417341233e+00 3.7867861948e+01 -4.1077580296e-01 4.5717372583e-02 -4.1077580296e-01 3.4207708495e+01" charge=0 multiplicity=1 method=wB97M-V basis=def2-svpd config_type=h2so4 sample_index=377 temperature=300.0 units=atomic
S        -0.0157130668      -0.0004698024       0.1604516057   1.914640190706e-02  -4.678923955638e-02  -2.818736787863e-02
O        -0.0248906304       1.2601069773       0.7676262339   2.616268925891e-04   5.731660607460e-02   3.915986398531e-02
O         0.0526477142      -1.2835487314       0.8063152382  -1.045372460646e-02  -4.989458569618e-03   8.295445866713e-03
O         1.2555487127       0.0268746938      -0.8160530180  -9.804832829019e-04   2.628562382797e-02  -8.794296997912e-03
O        -1.2475463556      -0.0053886196      -0.8372184308  -1.986864012800e-02  -3.279957367861e-03  -1.620812294288e-02
H         1.6096427915      -0.8245856943      -1.0525679808  -2.447448248737e-04  -1.808936371976e-02   5.208891673396e-04
H        -1.6809495521       0.8724264767      -0.9354088943   1.211279928051e-02  -1.044917141718e-02   5.158233034502e-03
7
Properties=species:S:1:pos:R:3:forces:R:3 energy=-6.997848790226e+02 dipole="5.7201509312e-02 6.1402450612e-02 -1.6112483087e+00" quadrupole="-2.4377949805e+01 -3.8944258064e+00 4.5230194361e-01 -3.8944258064e+00 -2.9022410575e+01 -3.3745958520e-01 4.5230194361e-01 -3.3745958520e-01 -2.5187852014e+01" polarizability="3.7372618517e+01 -1.0146599765e+00 4.7612972060e-01 -1.0146599765e+00 4.0801074405e+01 -5.5810448489e-01 4.7612972060e-01 -5.5810448489e-01 3.8115926951e+01" charge=0 multiplicity=1 method=wB97M-V basis=def2-svpd config_type=h2so4 sample_index=378 temperature=300.0 units=atomic
S         0.0117715731       0.0141348924       0.1454884773  -8.589695683626e-03  -3.519984416539e-03   4.404467664509e-02
O         0.0134306362       1.3109461595       0.8626147482   2.101108773124e-03  -4.039367471115e-02  -2.746061356569e-02
O        -0.0492631504      -1.2989414265       0.8125599551   1.287872641323e-02   3.179969345456e-02  -1.077125986384e-02
O         1.2653705570       0.0673384885      -0.8653310244  -1.270518710091e-02   4.838161178658e-02   1.543367457452e-02
O        -1.2576015387      -0.1084209067      -0.8196018566  -1.738608313086e-02   6.547986155708e-02  -5.267188523868e-02
H         1.5183703470      -0.7647021742      -1.1941581622   7.630885589993e-03  -4.386961224715e-02  -1.238655689876e-02
H        -1.4447850131       0.7772902266      -1.4092358257   1.614135378947e-02  -5.790025539302e-02   4.380458764873e-02
7
Properties=species:S:1:pos:R:3:forces:R:3 energy=-6.997769929508e+02 dipole="-1.3789990373e-01 3.0577153126e-03 -1.1313362460e+00" quadrupole="-2.3551713853e+01 -4.3534976149e+00 2.2281977238e-01 -4.3534976149e+00 -2.8209216340e+01 7.6538298713e-01 2.2281977238e-01 7.6538298713e-01 -2.6539895187e+01" polarizability="3.8230222987e+01 -2.1126789380e+00 6.7579498411e-02 -2.1126789380e+00 4.1908495176e+01 1.3567476708e+00 6.7579498411e-02 1.3567476708e+00 3.7629350743e+01" charge=0 multiplicity=1 method=wB97M-V basis=def2-svpd config_type=h2so4 sample_index=379 temperature=300.0 units=atomic
S         0.0182459236       0.0364622991       0.1890268322  -2.037898169569e-02  -3.617201577545e-02  -2.322211202921e-02
O        -0.0082436136       1.3212160098       0.8538307966   2.668690627662e-03  -1.141540173035e-02  -2.314905023658e-03
O        -0.0137405179      -1.3084552428       0.7789274365   5.846376789523e-03   3.021310857396e-02   5.366260616164e-03
O         1.2383657622       0.0295130593      -0.8673714169   1.481960824979e-02  -7.506028696902e-02  -2.159047871912e-02
O        -1.2274906130      -0.0951318945      -0.8810683487  -1.247429290964e-02   2.090831123559e-02   2.553856068221e-04
H         1.3785212520      -1.0397366733      -1.2018771071  -1.322431418254e-02   8.657816589448e-02   2.955281167203e-02
H        -1.7753316413       0.7105234459      -1.0957654797   2.270744939277e-02  -1.512503609375e-02   1.194215245374e-02
7
Properties=species:S:1:pos:R:3:forces:R:3 energy=-6.997610304128e+02 dipole="-4.1664737626e-01 5.4125054772e-02 -1.3925513380e+00" quadrupole="-2.5533873005e+01 -3.1958517397e+00 5.3024926518e-01 -3.1958517397e+00 -2.8922649111e+01 -2.8128619185e-01 5.3024926518e-01 -2.8128619185e-01 -2.5581064759e+01" polarizability="3.7128602141e+01 -7.2722187825e-01 2.6634042746e-01 -7.2722187825e-01 4.0291374539e+01 -4.1019661951e-01 2.6634042746e-01 -4.1019661951e-01 3.6444057805e+01" charge=0 multiplicity=1 method=wB97M-V basis=def2-svpd config_type=h2so4 sample_index=380 temperature=300.0 units=atomic
S        -0.0646257822      -0.0004286421       0.1511056459   8.065876393296e-02   1.258354299811e-03   5.117045237775e-02
O         0.0370528021       1.3312282058       0.8178542336  -1.907795670446e-02  -5.152555531668e-02  -2.204280683118e-02
O         0.0675472541      -1.3320139424       0.8174472981  -2.352095624102e-02   5.142317220184e-02  -2.227509583088e-02
O         1.3084422663       0.0449790054      -0.8203377770  -5.268573209890e-02   1.986814735395e-01   9.174896954261e-02
O        -1.2857590855      -0.0478011706      -0.8483724089  -1.203079217476e-03  -3.833136237349e-02   1.075554820547e-02
H         1.3720417376      -0.7151667571      -1.1573060620   2.307818345177e-02  -2.010876807348e-01  -8.968505375483e-02
H        -1.3499012288       0.7884803058      -1.2589773276  -7.283800302413e-03   3.956628380567e-02  -1.967335888150e-02
7
Properties=species:S:1:pos:R:3:forces:R:3 energy=-6.997749534189e+02 dipole="1.1735988409e-01 1.0279170668e-01 -1.3211128292e+00" quadrupole="-2.4938815066e+01 -3.6869747303e+00 -1.3049151102e+00 -3.6869747303e+00 -2.8478199946e+01 1.0991430944e+00 -1.3049151102e+00 1.0991430944e+00 -2.4780285920e+01" polarizability="3.8427314818e+01 -1.7122497310e+00 -1.6571066594e+00 -1.7122497310e+00 3.9832022592e+01 1.1085309865e+00 -1.6571066594e+00 1.1085309865e+00 3.8757460604e+01" charge=0 multiplicity=1 method=wB97M-V basis=def2-svpd config_type=h2so4 sample_index=381 temperature=300.0 units=atomic
S         0.0448542818       0.0053496528       0.1777018567  -3.601610065340e-02  -5.171782184529e-02  -4.743217375637e-02
O        -0.0694636703       1.2769902831       0.7990472436   1.734997305712e-02   2.864493420589e-02   1.980243494912e-02
O        -0.0419022005      -1.2827971326       0.8313012855   1.516753669627e-02   9.308584887599e-03   3.375385810278e-03
O         1.3085228955       0.0393044160      -0.8617677512  -1.276962704704e-03  -4.578305511703e-02  -4.998237061041e-02
O        -1.2714031029      -0.0514712548      -0.8440869934   2.153229859033e-02  -4.730205119364e-03   4.053482438970e-03
H         1.3636081322      -0.7413897649      -1.6688011626  -1.436478722820e-02   5.787520739306e-02   7.270707932942e-02
H        -1.5988646921       0.8512465802      -0.9114158770  -2.351262642606e-03   6.398019867973e-03  -2.568563975061e-03
7
Properties=species:S:1:pos:R:3:forces:R:3 energy=-6.997741622807e+02 dipole="-1.7057086293e-01 -1.4294047693e-01 -1.0915168798e+00" quadrupole="-2.3108024062e+01 -3.8128200422e+00 1.1712672739e+00 -3.8128200422e+00 -2.8540285015e+01 -1.7881867608e-01 1.1712672739e+00 -1.7881867608e-01 -2.6022100493e+01" polarizability="3.7438568666e+01 -9.4643271883e-01 3.2929076447e-01 -9.4643271883e-01 3.7866500885e+01 -1.4834734813e-01 3.2929076447e-01 -1.4834734813e-01 3.6990681787e+01" charge=0 multiplicity=1 method=wB97M-V basis=def2-svpd config_type=h2so4 sample_index=382 temperature=300.0 units=atomic
S        -0.0255554600      -0.0017776419       0.1837829657   1.610775575228e-02   9.566841114783e-03  -6.216040148127e-02
O         0.0351995475       1.2522677611       0.8443698115  -8.724857474634e-03   2.432248110581e-02   1.745745437284e-02
O         0.0234075738      -1.2715391014       0.8522300107  -9.701289976576e-03  -5.549216982708e-03  -3.471532411895e-03
O         1.2549641544       0.0686349743      -0.8939606144  -2.324453256148e-02   6.778895543684e-04   1.793714991699e-02
O        -1.2575776778      -0.0285343946      -0.9010383139   6.402042173628e-02  -1.144390228828e-01   8.641271244983e-02
H         1.6095994695      -0.8203297817      -0.9889933536   2.036104656308e-03  -8.014515530168e-03  -1.737989321252e-03
H        -1.6938068679       0.5484624269      -1.4053119404  -4.054267830712e-02   9.345025850557e-02  -5.450998438210e-02
7
Properties=species:S:1:pos:R:3:forces:R:3 energy=-6.997612834519e+02 dipole="5.1017865563e-01 -1.7950548614e-01 -1.3658256509e+00" quadrupole="-2.4471422583e+01 -3.9210094797e+00 -4.6582223355e-01 -3.9210094797e+00 -2.8201562194e+01 -8.5517429781e-01 -4.6582223355e-01 -8.5517429781e-01 -2.5932821411e+01" polarizability="3.7315206840e+01 -2.1574123850e+00 -8.4695545780e-01 -2.1574123850e+00 4.1367769258e+01 -8.4463867513e-01 -8.4695545780e-01 -8.4463867513e-01 3.8036234702e+01" charge=0 multiplicity=1 method=wB97M-V basis=def2-svpd config_type=h2so4 sample_index=383 temperature=300.0 units=atomic
S         0.0126864654      -0.0302693016       0.1713100278  -1.329192042018e-02   6.404242912710e-02  -3.285256927006e-03
O        -0.0217587056       1.2876604636       0.8214865860   8.015601864301e-03  -2.716539660612e-02  -4.778694317544e-03
O        -0.0224400610      -1.2779265743       0.8410176786   9.414894095002e-03  -3.157431435629e-02   1.839131686338e-02
O         1.2070993777       0.0912219575      -0.9021658318   5.149216829077e-02  -7.237307292317e-02  -1.134449297114e-02
O        -1.2307058038      -0.0461555062      -0.8294248865   9.243344052372e-03   8.426126579351e-02  -5.940060587559e-02
H         1.7360905210      -0.8548727697      -1.0621655440  -4.343285680571e-02   6.797180468342e-02   1.403810459799e-02
H        -1.0642534098       0.9551375352      -1.3983307983  -2.138710197277e-02  -8.514872163219e-02   4.631069195392e-02
7
Properties=species:S:1:pos:R:3:forces:R:3 energy=-6.997864327730e+02 dipole="3.9056838136e-01 -1.3416339418e-01 -1.1283892104e+00" quadrupole="-2.5190890001e+01 -3.7527088161e+00 -3.5031553572e-01 -3.7527088161e+00 -2.7794900470e+01 -4.8833415845e-01 -3.5031553572e-01 -4.8833415845e-01 -2.6659618270e+01" polarizability="3.6780236509e+01 -1.8596373016e+00 -1.0457886824e-01 -1.8596373016e+00 4.0554783800e+01 4.3232235357e-03 -1.0457886824e-01 4.3232235357e-03 3.6911530746e+01" charge=0 multiplicity=1 method=wB97M-V basis=def2-svpd config_type=h2so4 sample_index=384 temperature=300.0 units=atomic
S         0.0218268528      -0.0149388855       0.1770635518  -3.077607891299e-02   5.515174871475e-02  -1.373776620248e-02
O        -0.0460142407       1.3041285070       0.8366491716   1.061018596322e-02  -3.485345264713e-02  -1.314487426134e-02
O         0.0096716881      -1.2799581176       0.8198851014   6.426382880772e-03  -2.702437577518e-02   1.992389031761e-02
O         1.2253058640       0.0466464259      -0.8914519027   1.991621521385e-02  -3.939230030688e-02  -1.514821597635e-04
O        -1.2561257631      -0.0439365629      -0.8599271341   2.310289674989e-02   6.920417192158e-02  -1.215686961602e-02
H         1.5548533729      -0.9117822104      -1.0284452296  -1.321877686711e-02   3.952075573631e-02   4.062253253644e-03
H        -1.1796633176       0.9617941618      -1.2088622859  -1.604223962279e-02  -6.255005742140e-02   1.515859664650e-02
7
Properties=species:S:1:pos:R:3:forces:R:3 energy=-6.997720339768e+02 dipole="-8.6577616459e-02 7.5129883218e-02 -7.9400203093e-01" quadrupole="-2.2521707827e+01 -4.6064788369e+00 1.5487512343e+00 -4.6064788369e+00 -2.8334762188e+01 -8.2630828411e-01 1.5487512343e+00 -8.2630828411e-01 -2.7644850803e+01" polarizability="3.8277784912e+01 -2.0891328795e+00 2.1836068658e-01 -2.0891328795e+00 4.0167876283e+01 -9.0768625506e-01 2.1836068658e-01 -9.0768625506e-01 3.6357880895e+01" charge=0 multiplicity=1 method=wB97M-V basis=def2-svpd config_type=h2so4 sample_index=385 temperature=300.0 units=atomic
S        -0.0049863777       0.0126661743       0.1902013737   2.651441321930e-03  -2.487930979507e-02  -5.402794451445e-02
O         0.0243211649       1.2744739797       0.8205473622  -6.512444071457e-03   3.653323063554e-02   3.326965192330e-02
O        -0.0320833204      -1.3009125884       0.8072887618   1.037087554732e-02   1.113367974628e-02   4.589334557352e-03
O         1.2202948188       0.0844497643      -0.9187766258   3.131906480012e-02  -9.671686497388e-02   4.863646231281e-02
O        -1.2043580525      -0.0754809278      -0.8579180892  -3.935604796646e-02   2.854331544994e-02  -1.944791321199e-02
H         1.6915490840      -0.8946122689      -0.6251651617  -2.737578901012e-02   7.681653456828e-02  -3.394129687107e-02
H        -1.6672686377       0.7750581250      -1.1849216480   2.887662716545e-02  -3.150703511931e-02   2.091909215752e-02
7
Properties=species:S:1:pos:R:3:forces:R:3 energy=-6.997628953151e+02 dipole="-9.9303977826e-03 -2.6150869744e-02 -1.7482996161e+00" quadrupole="-2.5252203268e+01 -3.4432096945e+00 5.0747057547e-01 -3.4432096945e+00 -2.9103510967e+01 -3.9146962888e-01 5.0747057547e-01 -3.9146962888e-01 -2.3497787012e+01" polarizability="3.6324597677e+01 -9.6114034780e-01 -4.7259468733e-01 -9.6114034780e-01 3.9817703507e+01 -1.4686082336e+00 -4.7259468733e-01 -1.4686082336e+00 3.9286780503e+01" charge=0 multiplicity=1 method=wB97M-V basis=def2-svpd config_type=h2so4 sample_index=386 temperature=300.0 units=atomic
S        -0.0028696667      -0.0017986700       0.1678913936   4.005939288870e-02   2.368756227740e-02   6.195641596673e-03
O         0.0063062107       1.2835859166       0.8332584643   7.076889762031e-03  -9.174128047569e-03  -1.101700858877e-03
O        -0.0812324589      -1.2741586417       0.8079275532   1.705125818493e-02  -2.004174920730e-02   2.214300936028e-02
O         1.2647966677       0.0960751139      -0.8993136801  -1.135284778168e-02   1.709914960434e-02   1.838095741335e-02
O        -1.2017667965      -0.1030414739      -0.7720332927  -5.259379487974e-02   7.323655183680e-02  -1.244264778123e-01
H         1.5029986252      -0.7052600665      -1.3656059041  -3.970313231997e-03  -1.533013116863e-02   7.803608475099e-04
H        -1.2245920314       0.7275447451      -1.6102087975   3.752740654867e-03  -6.955537325067e-02   7.801800770869e-02
7
Properties=species:S:1:pos:R:3:forces:R:3 energy=-6.997859574054e+02 dipole="3.1892338733e-01 -2.2554484443e-02 -8.7126220119e-01" quadrupole="-2.3315209759e+01 -4.4240551866e+00 1.8017271844e-01 -4.4240551866e+00 -2.7937506642e+01 -6.6511119568e-01 1.8017271844e-01 -6.6511119568e-01 -2.7665599121e+01" polarizability="3.8384057183e+01 -3.1400584670e+00 3.9655659048e-01 -3.1400584670e+00 4.1241876999e+01 -7.8278582938e-01 3.9655659048e-01 -7.8278582938e-01 3.6049140865e+01" charge=0 multiplicity=1 method=wB97M-V basis=def2-svpd config_type=h2so4 sample_index=387 temperature=300.0 units=atomic
S         0.0052851479      -0.0144958371       0.1778144498  -1.631103539406e-02   1.485785070543e-03  -1.862468423137e-02
O        -0.0527714136       1.3035451799       0.7797962253   6.444114376103e-03  -9.424097655774e-03   1.397663386708e-02
O         0.0661106401      -1.3273195981       0.8215440153  -7.919783977804e-03   2.536009288864e-02  -4.657719077258e-03
O         1.2287319900       0.0288790096      -0.8632289001   4.389483753734e-02  -6.572823508317e-02   5.939816261151e-03
O        -1.2734120202       0.0192084751      -0.8603617119   6.512406201610e-03   1.543408305874e-02   1.076054758459e-03
H         1.7719431041      -0.9040533206      -0.7591115541  -3.955839761670e-02   6.490625667682e-02  -8.359253586820e-03
H        -1.4454195967       0.9867198711      -1.0913477818   6.902836125067e-03  -3.202189071554e-02   1.060478617925e-02
7
Properties=species:S:1:pos:R:3:forces:R:3 energy=-6.997633656680e+02 dipole="-2.2128990727e-01 -1.4411429679e-01 -9.3955834600e-01" quadrupole="-2.3483048118e+01 -4.3822561951e+00 1.3858651166e-01 -4.3822561951e+00 -2.7263297968e+01 2.7180148585e-01 1.3858651166e-01 2.7180148585e-01 -2.7581497348e+01" polarizability="3.7100863902e+01 -3.3179875485e+00 -2.3070153287e-01 -3.3179875485e+00 3.9175030610e+01 4.5177946457e-01 -2.3070153287e-01 4.5177946457e-01 3.5290468039e+01" charge=0 multiplicity=1 method=wB97M-V basis=def2-svpd config_type=h2so4 sample_index=388 temperature=300.0 units=atomic
S         0.0290052073      -0.0154794652       0.1694093997  -2.959869950334e-02   1.014139697854e-01  -5.113626116109e-02
O        -0.0890323186       1.2548241022       0.8168774668   1.588671748031e-02   2.013379518118e-02   1.944377287673e-02
O         0.0230507253      -1.2316363072       0.8197300419   5.791403513568e-03  -9.383858892846e-02   4.849387796364e-02
O         1.2401418118       0.0195041238      -0.8770268490   3.248062736823e-03  -7.578382173723e-02  -7.211992273536e-03
O        -1.1985293884      -0.0073550064      -0.8598248928  -6.381518665233e-02   6.175189554703e-02  -1.472714733217e-02
H         1.2640342910      -1.0309903179      -1.0760180945   1.167760789944e-02   6.559315617202e-02   2.348315047883e-03
H        -1.7933570161       0.9543369299      -0.8344456891   5.682708430674e-02  -7.922115063906e-02   2.693422463680e-03
7
Properties=species:S:1:pos:R:3:forces:R:3 energy=-6.997848813631e+02 dipole="-2.2400484258e-01 -4.3918496760e-02 -8.6456319752e-01" quadrupole="-2.5158355610e+01 -3.5802326148e+00 -3.0981279630e-01 -3.5802326148e+00 -2.7664944331e+01 7.4101334203e-01 -3.0981279630e-01 7.4101334203e-01 -2.7592627408e+01" polarizability="3.5529941996e+01 -1.3338511915e+00 -3.8320262707e-01 -1.3338511915e+00 3.8830844894e+01 8.6939363369e-01 -3.8320262707e-01 8.6939363369e-01 3.5425209540e+01" charge=0 multiplicity=1 method=wB97M-V basis=def2-svpd config_type=h2so4 sample_index=389 temperature=300.0 units=atomic
S        -0.0178732937       0.0050216325       0.1722462489   4.174346122728e-02   1.882108419549e-04  -1.514521283894e-02
O        -0.0134431320       1.2874532543       0.8364205720  -8.864517513502e-03  -7.435277878898e-05  -1.700484264617e-04
O         0.0245203669      -1.2651872171       0.8139867172   1.989998034024e-06  -2.382929891513e-02   2.154179091278e-02
O         1.2409021790       0.0396602106      -0.8732822428  -9.330872695394e-03  -4.969992983650e-02   2.681731349728e-03
O        -1.2060461288      -0.0668803118      -0.8888987966  -1.060248332309e-02   3.382848477013e-02   1.442413774241e-02
H         1.2697616913      -0.9642269694      -1.0908816711   1.037722900628e-02   4.382174411731e-02   1.026071620732e-03
H        -1.4303747224       0.8769594921      -0.7249684031  -2.335388281529e-02  -4.210002614202e-03  -2.442679062586e-02
7
Properties=species:S:1:pos:R:3:forces:R:3 energy=-6.997893162561e+02 dipole="-1.7854553766e-01 1.8990716280e-01 -1.7864091374e+00" quadrupole="-2.3868424369e+01 -3.6161494990e+00 -3.9962547893e-01 -3.6161494990e+00 -2.9031056977e+01 2.3522952406e-01 -3.9962547893e-01 2.3522952406e-01 -2.4355411133e+01" polarizability="3.6120231899e+01 -1.4870707880e+00 -1.8683219100e-02 -1.4870707880e+00 3.7995452445e+01 2.7815363653e-01 -1.8683219100e-02 2.7815363653e-01 3.7610482608e+01" charge=0 multiplicity=1 method=wB97M-V basis=def2-svpd config_type=h2so4 sample_index=390 temperature=300.0 units=atomic
S         0.0088489898       0.0095670708       0.1366280432  -1.266720927386e-02  -1.918509188761e-02   2.344775451165e-02
O        -0.0004546016       1.2441869483       0.8609681988   2.870864803780e-03   1.968877699249e-02  -2.153109871696e-03
O        -0.0157092187      -1.2347753310       0.8559271741   1.543572640954e-03  -1.075840997372e-02  -1.350407988598e-03
O         1.2416394977       0.0364903224      -0.8334911492   2.900027737394e-02  -4.960487761576e-03  -4.291360887476e-02
O        -1.2225034465      -0.0773774507      -0.8641117342  -3.211889332542e-02   2.954191680027e-02  -2.770028216275e-02
H         1.3301009135      -0.6081545088      -1.6064798843  -1.297007090520e-02   1.713247024576e-02   3.385209390609e-02
H        -1.6535374574       0.7984324678      -1.1547233255   2.438904123107e-02  -3.145944361802e-02   1.667378303307e-02
7
Properties=species:S:1:pos:R:3:forces:R:3 energy=-6.997805013788e+02 dipole="-1.6870402131e-01 -9.2577501730e-02 -1.7419398783e+00" quadrupole="-2.5317329612e+01 -3.3753642910e+00 -5.5380256011e-02 -3.3753642910e+00 -2.9407815332e+01 -4.5491825995e-01 -5.5380256011e-02 -4.5491825995e-01 -2.4626716673e+01" polarizability="3.7234020056e+01 -1.0267533470e+00 3.4737909098e-01 -1.0267533470e+00 4.1447158054e+01 1.2989434535e-01 3.4737909098e-01 1.2989434535e-01 3.6559122830e+01" charge=0 multiplicity=1 method=wB97M-V basis=def2-svpd config_type=h2so4 sample_index=391 temperature=300.0 units=atomic
S        -0.0322077151      -0.0229914227       0.1266864115   3.989307842825e-02   6.667553595871e-02   7.424646851193e-02
O         0.0367189228       1.3570293271       0.7916222863  -1.474008763551e-02  -7.662822644452e-02  -2.958218630446e-02
O         0.0259057871      -1.3155130015       0.7784171368  -1.053514528736e-02   7.820502544771e-03   2.796637595765e-03
O         1.3026136705       0.0656927571      -0.7549858580  -5.525121963728e-03   1.260401518423e-02  -1.719677506501e-02
O        -1.3046245920      -0.0705898608      -0.7896110918  -8.609607930271e-03   4.815805674000e-02  -4.900804109170e-02
H         1.3984290767      -0.6999795397      -1.3201524905   3.345734042969e-03  -1.454908952816e-02  -5.905749095017e-03
H        -1.3418430337       0.8474789175      -1.2785283799  -3.923276833992e-03  -4.404519424540e-02   2.465357707773e-02
7
Properties=species:S:1:pos:R:3:forces:R:3 energy=-6.997729407400e+02 dipole="-3.4961267753e-01 1.5799398402e-01 -1.2818523513e+00" quadrupole="-2.3873064900e+01 -4.0637810704e+00 9.5467058317e-02 -4.0637810704e+00 -2.8103261901e+01 1.1079217472e+00 9.5467058317e-02 1.1079217472e+00 -2.6211326865e+01" polarizability="3.5878148324e+01 -1.9382948173e+00 -4.4340983766e-01 -1.9382948173e+00 3.9289046116e+01 1.1294536513e+00 -4.4340983766e-01 1.1294536513e+00 3.5362206184e+01" charge=0 multiplicity=1 method=wB97M-V basis=def2-svpd config_type=h2so4 sample_index=392 temperature=300.0 units=atomic
S        -0.0214102301       0.0473724883       0.1563930803   3.648741023064e-02  -1.256684623464e-01  -9.743846189935e-03
O        -0.0044852803       1.2663726306       0.8187592219  -4.758866303181e-03   7.384795868382e-02   3.765210514577e-02
O         0.0360110226      -1.2863313342       0.7762919844  -1.111342107151e-02   2.675336576037e-02   3.061612761638e-03
O         1.2536205078       0.0140260045      -0.8103838656   1.369422127543e-02  -6.674427753830e-02  -4.896464939128e-02
O        -1.2226363316      -0.0706482641      -0.8394316178  -3.880866924966e-03  -3.859928366065e-02  -1.064424890571e-02
H         1.3440632062      -1.0249548954      -1.2326068751  -8.828550297539e-03   8.423071999299e-02   3.785038010053e-02
H        -1.6555851248       0.7293822050      -1.0062075415  -2.162130083796e-02   4.610058484622e-02  -9.246587385041e-03
7
Properties=species:S:1:pos:R:3:forces:R:3 energy=-6.997875977168e+02 dipole="2.6885820927e-01 1.7854905580e-01 -1.3077233846e+00" quadrupole="-2.5497928788e+01 -3.4470560760e+00 -7.0795379366e-01 -3.4470560760e+00 -2.8242827533e+01 5.5370759169e-01 -7.0795379366e-01 5.5370759169e-01 -2.5329058694e+01" polarizability="3.6624590684e+01 -7.2689453903e-01 -3.5647845759e-01 -7.2689453903e-01 3.8833884291e+01 -1.8732673223e-01 -3.5647845759e-01 -1.8732673223e-01 3.8629792216e+01" charge=0 multiplicity=1 method=wB97M-V basis=def2-svpd config_type=h2so4 sample_index=393 temperature=300.0 units=atomic
S         0.0241023295       0.0247788923       0.1901133771  -2.435383461617e-02  -1.224696328178e-01  -4.303549134053e-02
O        -0.0077016909       1.2449640356       0.8694707009   5.189838797908e-03   5.756738650854e-02   2.240618337765e-02
O        -0.0309393896      -1.2845509283       0.8871878033   9.458454651294e-03   4.295281658604e-02  -2.376771601364e-02
O         1.2178230960       0.0674744631      -0.9265467011   8.017592443336e-03   7.903386192298e-05   7.384019249757e-03
O        -1.2366383492      -0.0777635015      -0.9206428251   2.227443948702e-02  -2.712718324260e-02   4.109526885852e-02
H         1.4308932863      -0.7731063739      -1.4044019071  -1.282371834025e-02   1.109785775475e-02   1.667672072192e-02
H        -1.2799720729       0.7803197069      -1.2847169775  -7.739983303802e-03   3.783402722486e-02  -2.080409792466e-02
7
Properties=species:S:1:pos:R:3:forces:R:3 energy=-6.997812409747e+02 dipole="-2.1998536586e-01 -5.3319670487e-02 -9.4272737095e-01" quadrupole="-2.2706891953e+01 -4.1710906171e+00 1.4645383203e-01 -4.1710906171e+00 -2.8365795760e+01 3.4065212430e-01 1.4645383203e-01 3.4065212430e-01 -2.7724653258e+01" polarizability="3.6116369560e+01 -1.1916452897e+00 1.4689912004e-01 -1.1916452897e+00 3.9260939251e+01 -6.2225640463e-01 1.4689912004e-01 -6.2225640463e-01 3.8049536137e+01" charge=0 multiplicity=1 method=wB97M-V basis=def2-svpd config_type=h2so4 sample_index=394 temperature=300.0 units=atomic
S        -0.0155990599      -0.0093815090       0.2017612807   8.413781620042e-03  -2.912226905774e-02  -2.892035489543e-02
O         0.0520803050       1.2478789361       0.8586109589  -1.333686481802e-02   2.689376397634e-02   2.117394438695e-02
O        -0.0098567924      -1.2902013208       0.9316655680   6.801313115327e-04   3.084156738566e-02  -2.716860987618e-02
O         1.1215426367       0.1139260566      -0.9514921175   4.164384114467e-02  -6.403324897617e-02   1.396168861103e-02
O        -1.1189292283      -0.0449803593      -0.9869351106  -2.292310639080e-02  -1.762264736010e-02   1.502449642504e-02
H         1.4720450293      -0.8410564903      -1.0761306847  -9.820290287630e-03   4.213678786384e-02  -4.285879817778e-04
H        -1.6930428109       0.7188302325      -1.0502661363  -4.684581208424e-03   1.088087153642e-02   6.303663423765e-03
7
Properties=species:S:1:pos:R:3:forces:R:3 energy=-6.997909821534e+02 dipole="2.1966671466e-01 6.2922543068e-02 -9.9235959734e-01" quadrupole="-2.3647393575e+01 -3.8339622028e+00 -7.8203533341e-01 -3.8339622028e+00 -2.8113235678e+01 1.4527545033e-01 -7.8203533341e-01 1.4527545033e-01 -2.7342605651e+01" polarizability="3.6174502363e+01 -1.4931131320e+00 2.7060142429e-01 -1.4931131320e+00 3.8608070035e+01 -5.0121849670e-01 2.7060142429e-01 -5.0121849670e-01 3.6944302786e+01" charge=0 multiplicity=1 method=wB97M-V basis=def2-svpd config_type=h2so4 sample_index=395 temperature=300.0 units=atomic
S        -0.0133534671      -0.0073032509       0.1820603107   1.274503319029e-02  -5.514530826963e-02  -1.722848467886e-02
O        -0.0005750350       1.2613172401       0.8387682552  -6.524460377884e-03   1.659232264122e-02   7.783075489730e-03
O         0.0460261906      -1.2890321878       0.8941962545  -8.007974285635e-03   2.693744692609e-02  -1.803802761134e-02
O         1.1810724830       0.0501220946      -0.9022338303   5.096951426236e-03   1.963403968616e-02   2.684420656379e-03
O        -1.2208199556      -0.0172331983      -0.9424121415   1.622280169036e-02  -4.065212820668e-02   3.296871795244e-02
H         1.6827613220      -0.7434765594      -1.0887931689  -1.617040935356e-03  -1.444482330322e-02   5.432823255932e-03
H        -1.3521948864       0.8995396243      -1.0193233703  -1.794706350920e-02   4.698269694934e-02  -1.364789013433e-02
7
Properties=species:S:1:pos:R:3:forces:R:3 energy=-6.997732721638e+02 dipole="-1.3340134772e-01 6.9229896807e-02 -1.0312824340e+00" quadrupole="-2.3244925497e+01 -3.9325415502e+00 -5.8644212633e-01 -3.9325415502e+00 -2.8498618502e+01 1.5344471879e+00 -5.8644212633e-01 1.5344471879e+00 -2.6834159292e+01" polarizability="3.7276132814e+01 -1.8010319874e+00 -1.9923420405e-01 -1.8010319874e+00 4.0391408050e+01 5.6286914973e-01 -1.9923420405e-01 5.6286914973e-01 3.5897932378e+01" charge=0 multiplicity=1 method=wB97M-V basis=def2-svpd config_type=h2so4 sample_index=396 temperature=300.0 units=atomic
S         0.0368230714       0.0333222820       0.1744507201  -4.567908389836e-02  -1.203535346446e-01  -2.246717266613e-02
O        -0.0334851915       1.2830147777       0.7759397462   4.530137223171e-03   7.030586246291e-02   4.850000379034e-02
O        -0.0119530791      -1.3273465836       0.7988698509   1.003941504517e-02   5.382272368943e-02  -1.125852903257e-02
O         1.2539047412       0.0446808457      -0.8190772636   1.121328794610e-02  -8.065286796516e-02  -4.729833782689e-02
O        -1.2422175348      -0.0480295509      -0.8593625605   8.227544390779e-03  -7.446079858300e-03  -4.775515797473e-03
H         1.2542956138      -0.9860069018      -1.2495177888   4.782384643066e-03   7.939709885093e-02   3.239782074136e-02
H        -1.8799161966       0.6765627309      -0.7949193709   6.931902525285e-03   4.898501402103e-03   4.889574619513e-03
7
Properties=species:S:1:pos:R:3:forces:R:3 energy=-6.997863991219e+02 dipole="2.3604925329e-02 2.2727609624e-02 -1.0693177076e+00" quadrupole="-2.4407293839e+01 -3.8132887976e+00 -3.9750089109e-03 -3.8132887976e+00 -2.7845585802e+01 3.6170365647e-01 -3.9750089109e-03 3.6170365647e-01 -2.6494759765e+01" polarizability="3.5329277280e+01 -1.0103046150e+00 -1.2787456640e+00 -1.0103046150e+00 3.6900075801e+01 -5.3817211614e-01 -1.2787456640e+00 -5.3817211614e-01 3.5696749502e+01" charge=0 multiplicity=1 method=wB97M-V basis=def2-svpd config_type=h2so4 sample_index=397 temperature=300.0 units=atomic
S         0.0455566887      -0.0081853006       0.1797585320  -2.414802478520e-02  -1.685221484052e-02  -5.796761931711e-02
O        -0.0667302704       1.2237777055       0.8194306261   1.604339569524e-02   7.262310553650e-02   4.015426516687e-02
O        -0.0752047607      -1.2410510873       0.8643042395   2.293295741087e-02  -3.837490161038e-02   1.413216134945e-02
O         1.2451067424       0.0790743009      -0.9383142971  -9.944238479157e-03   2.971321196303e-02   4.076420940167e-02
O        -1.1800905143      -0.0490473492      -0.8438786031  -2.222417265506e-02   3.887550029385e-03  -1.897109496409e-02
H         1.3309626377      -0.7896268611      -1.2628607719   9.709844475328e-03  -4.106131260646e-02  -2.013117266256e-02
H        -1.5504457463       0.8472174302      -0.9880189510   7.665489610568e-03  -9.958281080432e-03   1.992426977191e-03
7
Properties=species:S:1:pos:R:3:forces:R:3 energy=-6.997907392589e+02 dipole="-2.0348401824e-01 -1.0193091290e-01 -1.1739953299e+00" quadrupole="-2.3501179959e+01 -4.1592530958e+00 -8.9640249860e-02 -4.1592530958e+00 -2.7932366411e+01 6.3149166037e-01 -8.9640249860e-02 6.3149166037e-01 -2.7026564842e+01" polarizability="3.6628887400e+01 -2.4730699042e+00 -7.8688924270e-01 -2.4730699042e+00 3.9211402623e+01 1.5323311570e+00 -7.8688924270e-01 1.5323311570e+00 3.5970337677e+01" charge=0 multiplicity=1 method=wB97M-V basis=def2-svpd config_type=h2so4 sample_index=398 temperature=300.0 units=atomic
S         0.0116973786       0.0125529178       0.1515168859   1.581891630115e-03   4.773921608307e-02   2.827076914563e-03
O        -0.0747517600       1.2910327938       0.8695090657   1.293542233160e-02  -2.280983199074e-02  -2.025760556951e-02
O         0.0226712489      -1.2427606125       0.7948957915   1.665997157005e-03  -4.395545767765e-02   2.943197822955e-02
O         1.2635265196      -0.0166017982      -0.8706282995   5.517523834708e-03  -3.747282855604e-02  -1.722719542960e-02
O        -1.2146204624      -0.0452432896      -0.8477085374  -2.458715391522e-02   1.414522212791e-02  -1.774905991070e-02
H         1.3904008459      -1.0039888732      -1.1993631626  -8.274679150138e-03   5.446871139296e-02   2.127768986032e-02
H        -1.7051505140       0.8093574505      -0.8851908735   1.118489373322e-02  -1.203389289243e-02   1.622616680116e-03
7
Properties=species:S:1:pos:R:3:forces:R:3 energy=-6.997926079025e+02 dipole="-2.3182293210e-01 8.6540148865e-02 -1.3670222042e+00" quadrupole="-2.4983711114e+01 -3.5221512119e+00 6.7145856479e-01 -3.5221512119e+00 -2.8441040615e+01 1.7787171692e-01 6.7145856479e-01 1.7787171692e-01 -2.5253522833e+01" polarizability="3.4823275778e+01 -1.1033456061e+00 8.1617373766e-01 -1.1033456061e+00 3.9224852489e+01 6.0799940031e-01 8.1617373766e-01 6.0799940031e-01 3.6194124086e+01" charge=0 multiplicity=1 method=wB97M-V basis=def2-svpd config_type=h2so4 sample_index=399 temperature=300.0 units=atomic
S         0.0004159463       0.0296183954       0.1850066085  -6.761482731345e-03  -1.167013738992e-02  -7.016092912289e-03
O         0.0201167498       1.2992653509       0.8536912609  -4.614094873026e-03   2.569713859991e-03   4.545654005257e-03
O         0.0005177584      -1.2808063286       0.7790740144  -1.625731791741e-03  -2.471609339572e-03   1.927042090702e-02
O         1.1895760414       0.0374292584      -0.8457252265   2.516914071450e-02  -2.450697512698e-02  -2.821731805381e-02
O        -1.1881863641      -0.1062904050      -0.8768055761  -3.299829658229e-02   2.380284863887e-02  -1.563777238061e-02
H         1.1664803698      -0.8809353793      -1.2632160257   6.393545111431e-03   3.019689065452e-02   1.131761211613e-02
H        -1.5265821490       0.7325561838      -1.2983707680   1.438625112948e-02  -1.796577954246e-02   1.567795072139e-02
7
Properties=species:S:1:pos:R:3:forces:R:3 energy=-6.997907122881e+02 dipole="4.2743632810e-02 5.7767049681e-02 -8.6156295957e-01" quadrupole="-2.2976149905e+01 -4.3112338140e+00 1.5574786327e-01 -4.3112338140e+00 -2.8122149214e+01 -1.2061989070e-01 1.5574786327e-01 -1.2061989070e-01 -2.7888145636e+01" polarizability="3.7565094207e+01 -2.3799876343e+00 6.7802257175e-01 -2.3799876343e+00 3.9654008639e+01 8.8003208509e-01 6.7802257175e-01 8.8003208509e-01 3.5619620753e+01" charge=0 multiplicity=1 method=wB97M-V basis=def2-svpd config_type=h2so4 sample_index=400 temperature=300.0 units=atomic
S        -0.0116850009       0.0270129169       0.1627076716   8.258129895157e-03  -1.714444829384e-02  -3.416687785519e-03
O        -0.0332037519       1.3176718392       0.8554012009  -2.198348320501e-03  -2.588916378180e-02  -1.727309775926e-02
O         0.0902153092      -1.2887643962       0.7667009497  -1.842028572319e-02   6.503560559700e-03   1.655270225255e-02
O         1.2437964356      -0.0412806308      -0.8369943329   1.692522861065e-02   3.561300943074e-03  -1.407430475822e-02
O        -1.2838683801      -0.0352507174      -0.8825367347   3.790894166248e-02  -4.564301678535e-02   2.193634688187e-02
H         1.6924147445      -0.9360606866      -0.8039450285  -1.982000729497e-02   2.403983921419e-02   3.951770714204e-03
H        -1.5893565629       0.8296699222      -0.9640034697  -2.263618458585e-02   5.448696167500e-02  -7.745171050263e-03
7
Properties=species:S:1:pos:R:3:forces:R:3 energy=-6.997871195666e+02 dipole="1.4353098908e-01 -4.4536147159e-02 -1.3533328136e+00" quadrupole="-2.4300180957e+01 -3.7909161212e+00 1.2093062013e-01 -3.7909161212e+00 -2.8327941857e+01 5.8641040813e-02 1.2093062013e-01 5.8641040813e-02 -2.6505507748e+01" polarizability="3.6509322594e+01 -2.1173787233e+00 2.5816490635e-02 -2.1173787233e+00 4.0343458250e+01 7.3352023697e-02 2.5816490635e-02 7.3352023697e-02 3.6832234461e+01" charge=0 multiplicity=1 method=wB97M-V basis=def2-svpd config_type=h2so4 sample_index=401 temperature=300.0 units=atomic
S         0.0632887101      -0.0015478190       0.1496688030  -8.244997354424e-02   3.676998596180e-02   5.187570474423e-02
O        -0.1071922004       1.3060009069       0.8530938755   3.058791154208e-02  -4.436873782619e-02  -2.271635834473e-02
O        -0.0026332682      -1.2946450780       0.8421198691   1.287517282106e-02   2.557888774099e-02  -1.741987904001e-02
O         1.2371294168       0.0090397077      -0.8834928772   1.652181233754e-02   2.244203660176e-02  -1.471999438252e-04
O        -1.2324884872      -0.0160007950      -0.8487669994  -4.922538177006e-03  -7.430724955722e-04  -1.230577723728e-02
H         1.2875015615      -0.8895210922      -1.1851918022   9.288358988659e-03  -2.365124262179e-02  -1.255995764258e-02
H        -1.6182074614       0.8640163137      -1.1015755084   1.808972251660e-02  -1.598559936428e-02   1.322108751864e-02
7
Properties=species:S:1:pos:R:3:forces:R:3 energy=-6.997755902312e+02 dipole="3.5847504894e-01 -1.8384744116e-02 -1.4796104088e+00" quadrupole="-2.4576191261e+01 -3.7854714959e+00 -7.4655180802e-01 -3.7854714959e+00 -2.8385231887e+01 4.1334183027e-01 -7.4655180802e-01 4.1334183027e-01 -2.5465944612e+01" polarizability="3.7233572013e+01 -2.1361096279e+00 -1.1833216572e+00 -2.1361096279e+00 3.8404676939e+01 4.6943813455e-01 -1.1833216572e+00 4.6943813455e-01 3.4376164599e+01" charge=0 multiplicity=1 method=wB97M-V basis=def2-svpd config_type=h2so4 sample_index=402 temperature=300.0 units=atomic
S         0.0122560029       0.0088378449       0.1160313685   1.319472110606e-03  -6.550988806767e-02   3.095322248094e-02
O        -0.0657378413       1.2627521954       0.7582470091   1.605912596855e-02   4.745212092673e-02   2.384955582373e-02
O         0.0144893796      -1.2775348557       0.7613622704   2.874751542105e-03  -8.593233688256e-03   1.254076338155e-02
O         1.3274857794       0.0277934419      -0.7728148798   2.549243365441e-02  -3.828684115317e-02  -4.783931942195e-02
O        -1.3265992700      -0.0249732086      -0.7202880053   4.011717235990e-03  -1.822993031432e-02  -2.803744063937e-02
H         1.6563433735      -0.9088240434      -1.1557802580  -2.912371468386e-02   5.550829118763e-02   2.992352348397e-02
H        -1.2440351036       0.8213492286      -1.1329224951  -2.058555169463e-02   2.773029808371e-02  -2.141027366158e-02
7
Properties=species:S:1:pos:R:3:forces:R:3 energy=-6.997623830900e+02 dipole="1.9959563910e-02 5.6240328907e-02 -1.2329496195e+00" quadrupole="-2.5235803839e+01 -3.3752873650e+00 -8.2580910580e-02 -3.3752873650e+00 -2.8304330578e+01 -6.8647653984e-01 -8.2580910580e-02 -6.8647653984e-01 -2.6009524685e+01" polarizability="3.5291894897e+01 -7.4811226047e-01 3.4698155621e-01 -7.4811226047e-01 3.9392025712e+01 -1.1981686495e+00 3.4698155621e-01 -1.1981686495e+00 3.5584835486e+01" charge=0 multiplicity=1 method=wB97M-V basis=def2-svpd config_type=h2so4 sample_index=403 temperature=300.0 units=atomic
S        -0.0324425964      -0.0144811794       0.1689488249   3.740008516028e-02   1.069347033983e-02   7.821603831855e-03
O         0.0196493725       1.2979654243       0.7935122580  -9.079108200513e-03  -1.470498536419e-02   2.042066684764e-03
O         0.0263313491      -1.2979925706       0.8123215814  -4.585458147822e-03  -3.331100021725e-03   9.927549834135e-03
O         1.2394364444       0.0690297054      -0.8453722793  -7.158487987257e-02   1.769197523181e-01   4.802217215100e-02
O        -1.2468637282      -0.0572452028      -0.8359900815   2.447669864605e-03   8.471115132364e-02  -4.030611991546e-02
H         1.5383176214      -0.6888142808      -1.0612933449   6.691449182506e-02  -1.793015890590e-01  -4.921892627364e-02
H        -1.1265082125       0.9698654976      -1.2389925760  -2.157742545508e-02  -7.495685279248e-02   2.169938219094e-02
7
Properties=species:S:1:pos:R:3:forces:R:3 energy=-6.997770686165e+02 dipole="-3.8396656525e-02 -2.4147596833e-02 -1.0926564992e+00" quadrupole="-2.2342233866e+01 -4.9033508856e+00 8.8759190809e-01 -4.9033508856e+00 -2.8298961950e+01 -7.4290331295e-01 8.8759190809e-01 -7.4290331295e-01 -2.7206625758e+01" polarizability="3.9958664424e+01 -1.7943497461e+00 7.9650352107e-01 -1.7943497461e+00 3.9699726027e+01 -2.5454214759e-01 7.9650352107e-01 -2.5454214759e-01 3.7717326260e+01" charge=0 multiplicity=1 method=wB97M-V basis=def2-svpd config_type=h2so4 sample_index=404 temperature=300.0 units=atomic
S        -0.0260245183      -0.0010022051       0.1595140443   2.136689293121e-02   3.110525046697e-02  -3.471092734199e-02
O         0.0898882112       1.2486942459       0.8601399157  -2.064429278841e-02   1.209503749196e-02   2.000593012266e-03
O        -0.0277714261      -1.2440962801       0.8380829597   6.794733032412e-04  -3.643429900276e-02   1.324258016326e-02
O         1.2574081878       0.1089931090      -0.8791423806   2.672558095731e-02  -7.932687210867e-02   7.233666545700e-03
O        -1.2782946643      -0.1095846806      -0.8880557839  -1.262626671749e-02   5.463271623023e-02  -1.044095080112e-02
H         1.8085352183      -0.8352696847      -0.8495790932  -4.361375177362e-02   6.801341771960e-02  -2.971838577844e-03
H        -1.6423168402       0.8067856942      -1.2577996438   2.808153803828e-02  -4.998357281249e-02   2.562865798027e-02
7
Properties=species:S:1:pos:R:3:forces:R:3 energy=-6.997733961520e+02 dipole="5.4328845840e-01 4.9928607156e-02 -9.9754849089e-01" quadrupole="-2.3003123369e+01 -4.5130651870e+00 -7.9896167377e-01 -4.5130651870e+00 -2.8855080526e+01 2.4701553894e-01 -7.9896167377e-01 2.4701553894e-01 -2.7455785972e+01" polarizability="3.9228991672e+01 -1.8754529735e+00 6.7404484315e-01 -1.8754529735e+00 4.2302440321e+01 -2.6536823887e-02 6.7404484315e-01 -2.6536823887e-02 3.5121074807e+01" charge=0 multiplicity=1 method=wB97M-V basis=def2-svpd config_type=h2so4 sample_index=405 temperature=300.0 units=atomic
S         0.0292486321       0.0103132909       0.1495760576  -6.029313932063e-02  -6.464654732650e-02   3.925416096182e-02
O         0.0084165802       1.3471957832       0.7395630470  -6.426705075736e-03  -2.063481923735e-02   4.977055768634e-03
O         0.0046273955      -1.3770000340       0.7630304910   6.053468983300e-03   6.896578433342e-02  -1.414230270082e-02
O         1.2619028976       0.0655782096      -0.7600722756   7.308049384766e-02  -5.541740534924e-02  -4.504647591995e-02
O        -1.3510570598      -0.0563569713      -0.8180516050   4.656889837149e-02  -2.096899501982e-02   1.923895624028e-02
H         1.7833636485      -0.8635247158      -0.8504390379  -4.039461702867e-02   5.660908613229e-02   7.171635023754e-03
H        -1.5004866849       0.8660429715      -0.8969594020  -1.855183786969e-02   3.608429862590e-02  -1.141933785293e-02
7
Properties=species:S:1:pos:R:3:forces:R:3 energy=-6.997850175663e+02 dipole="-1.4765850424e-01 2.0378019253e-01 -1.1540697626e+00" quadrupole="-2.5093665050e+01 -4.0273503798e+00 1.7823962220e-01 -4.0273503798e+00 -2.7784019564e+01 2.2541588035e-01 1.7823962220e-01 2.2541588035e-01 -2.6473140041e+01" polarizability="3.7270455348e+01 -1.3198692177e+00 5.4591423447e-01 -1.3198692177e+00 3.9502875602e+01 -3.6830011661e-01 5.4591423447e-01 -3.6830011661e-01 3.6376411740e+01" charge=0 multiplicity=1 method=wB97M-V basis=def2-svpd config_type=h2so4 sample_index=406 temperature=300.0 units=atomic
S        -0.0026229653       0.0253181130       0.1662469608   2.005473807525e-04  -7.960862145535e-02  -3.457522174267e-02
O         0.0279272400       1.2553318100       0.8227641930  -7.870224619659e-03   6.391683264540e-02   3.291165346742e-02
O        -0.0132803202      -1.2745320048       0.8110038030   4.686703272817e-03   7.592012439890e-03   1.470683417972e-03
O         1.2730823991       0.0734656539      -0.8428632240  -1.211156189035e-02  -3.969775915914e-02  -7.327044847454e-03
O        -1.2703574600      -0.1071459079      -0.8647309576  -4.015731477969e-03   8.771588058971e-02  -7.145993224842e-03
H         1.3186155410      -0.8879068706      -1.1474930403   7.110089488402e-03   3.123113906541e-02   3.928556776027e-03
H        -1.5102624880       0.9220727169      -1.0959418491   1.198926213222e-02  -7.112689771830e-02   1.073654642199e-02
7
Properties=species:S:1:pos:R:3:forces:R:3 energy=-6.997835917962e+02 dipole="6.3421802553e-03 -4.0515970662e-02 -1.1758693931e+00" quadrupole="-2.6077848970e+01 -3.4608691584e+00 6.8057191134e-02 -3.4608691584e+00 -2.7436281944e+01 3.5677687864e-02 6.8057191134e-02 3.5677687864e-02 -2.5592732226e+01" polarizability="3.6578892478e+01 -1.8306817656e+00 5.7364704345e-01 -1.8306817656e+00 3.8649375771e+01 3.8368705310e-01 5.7364704345e-01 3.8368705310e-01 3.6224838321e+01" charge=0 multiplicity=1 method=wB97M-V basis=def2-svpd config_type=h2so4 sample_index=407 temperature=300.0 units=atomic
S         0.0115966759      -0.0008831843       0.1809626098  -1.990216903231e-02   2.879998193157e-02  -7.071424380848e-02
O        -0.0348701465       1.2563355118       0.8098634979   2.779141596384e-03   4.477219919528e-02   2.889508471000e-02
O         0.0468117812      -1.2473985349       0.8006677104  -6.306326390062e-03  -6.709157707785e-02   3.872166140647e-02
O         1.2652375462       0.0327059416      -0.8304866532  -9.332876216160e-03  -6.409893360957e-02  -3.156456450792e-02
O        -1.2882957295      -0.0369748108      -0.8684630905   1.645224879998e-02   3.019705615382e-02  -1.797953886143e-03
H         1.2151691427      -0.9551542542      -1.2382128982   1.196042187927e-02   6.330234278244e-02   2.124881472251e-02
H        -1.4049952370       0.9057104949      -1.2303481986   4.358734808889e-03  -3.589076981476e-02   1.516554271060e-02
7
Properties=species:S:1:pos:R:3:forces:R:3 energy=-6.997856582230e+02 dipole="1.2519611174e-01 3.9392127831e-02 -1.3264125723e+00" quadrupole="-2.5710168763e+01 -3.5491896852e+00 5.9025266472e-01 -3.5491896852e+00 -2.8418768272e+01 -4.0902714679e-01 5.9025266472e-01 -4.0902714679e-01 -2.5423353316e+01" polarizability="3.8309483328e+01 -1.4871684101e+00 6.2612053607e-01 -1.4871684101e+00 4.1033520359e+01 -5.3956973552e-01 6.2612053607e-01 -5.3956973552e-01 3.8119162423e+01" charge=0 multiplicity=1 method=wB97M-V basis=def2-svpd config_type=h2so4 sample_index=408 temperature=300.0 units=atomic
S        -0.0064708723       0.0282861378       0.1669299385   3.232103117892e-04  -4.563144771102e-02  -7.292360354089e-03
O         0.0049193955       1.2971867313       0.8408541867  -2.628568998252e-03   1.350757897129e-03   2.288120976308e-03
O         0.0242429225      -1.3124069001       0.7878669525  -3.280656003306e-03   3.602768425906e-02  -5.662741040634e-03
O         1.2837432313       0.0449392040      -0.8526858553  -8.541711869727e-03  -4.288786442402e-02   1.258857125778e-03
O        -1.3153913968      -0.0729876174      -0.8366349700   2.662339952187e-02   5.857247606650e-02  -3.749553476472e-02
H         1.4915901819      -0.9561936398      -0.9582795414  -5.733761369799e-03   4.400809115126e-02   1.359565931280e-03
H        -1.2491899256       0.7479490821      -1.5226089340  -6.746444555232e-03  -5.153755586733e-02   4.552580563873e-02
7
Properties=species:S:1:pos:R:3:forces:R:3 energy=-6.997641137843e+02 dipole="5.1971039598e-01 -1.5204564681e-01 -1.8211135187e+00" quadrupole="-2.3523957507e+01 -4.0211859456e+00 1.9164197968e-01 -4.0211859456e+00 -2.9339133393e+01 -2.7713117711e-01 1.9164197968e-01 -2.7713117711e-01 -2.5021215917e+01" polarizability="3.8509463988e+01 -2.7716679086e+00 8.7119284140e-01 -2.7716679086e+00 4.2922782961e+01 6.4102506189e-01 8.7119284140e-01 6.4102506189e-01 3.9136198375e+01" charge=0 multiplicity=1 method=wB97M-V basis=def2-svpd config_type=h2so4 sample_index=409 temperature=300.0 units=atomic
S         0.0399190359       0.0183308006       0.1236761844  -7.330432128163e-02   9.248053439564e-03   9.775063105969e-02
O        -0.0534900415       1.3488116688       0.8892113901   1.790389331281e-02  -7.607910514714e-02  -4.946027815695e-02
O         0.0315330767      -1.3198134442       0.7946951180  -2.473182300506e-03   4.918627477502e-02  -1.624374232425e-02
O         1.2224904635      -0.0107870332      -0.8278682195   7.708103678883e-02  -2.903963278038e-02  -5.963429045562e-02
O        -1.2963462413      -0.0386087105      -0.8217851588   2.196698942104e-03   2.729453199641e-02  -4.011477772879e-02
H         1.6808857979      -0.9406063824      -1.0467996909  -3.660203884351e-02   5.235662090791e-02   2.083847097178e-02
H        -1.4221566443       0.6797202346      -1.5681980992   1.527222760868e-02  -3.293472182113e-02   4.682462547273e-02
7
Properties=species:S:1:pos:R:3:forces:R:3 energy=-6.997877894929e+02 dipole="-2.6559882932e-01 2.1775135535e-02 -9.3010352895e-01" quadrupole="-2.3013494300e+01 -4.4731368617e+00 1.1932122227e-01 -4.4731368617e+00 -2.8021383350e+01 6.0888179166e-02 1.1932122227e-01 6.0888179166e-02 -2.7425208018e+01" polarizability="3.7307678399e+01 -1.3428134238e+00 3.3274503623e-02 -1.3428134238e+00 3.8434685929e+01 -4.1027515439e-01 3.3274503623e-02 -4.1027515439e-01 3.6939568881e+01" charge=0 multiplicity=1 method=wB97M-V basis=def2-svpd config_type=h2so4 sample_index=410 temperature=300.0 units=atomic
S        -0.0196022593      -0.0089342055       0.1863631972   2.382431419935e-02   1.041829674280e-02  -5.608603307571e-02
O         0.0404116754       1.2483737503       0.8462955101  -1.054866180980e-02   2.680237130419e-02   1.378491384204e-02
O        -0.0216551246      -1.2512714654       0.8714548270   3.287340622515e-03  -2.969045795472e-02   1.103335965066e-02
O         1.2258656731       0.0909824194      -0.9177402315  -2.224738398333e-02   2.353100289925e-02   2.832329430648e-02
O        -1.1970010216      -0.0762977046      -0.9219555661  -3.878140750336e-02   6.034913010295e-02   6.367473399326e-03
H         1.5500246902      -0.7670272616      -1.1075083107   1.174529223156e-02  -3.382651767800e-02  -7.718087602473e-03
H        -1.6863980590       0.8641095930      -0.9824993386   3.271708570835e-02  -5.752093012649e-02   4.208436034395e-03
7
Properties=species:S:1:pos:R:3:forces:R:3 energy=-6.997599564065e+02 dipole="-1.5761338256e-01 -1.4613416171e-01 -1.6080018068e+00" quadrupole="-2.5714280732e+01 -3.7395253377e+00 2.7982306187e-01 -3.7395253377e+00 -2.8004786156e+01 -4.2959123663e-01 2.7982306187e-01 -4.2959123663e-01 -2.4920381292e+01" polarizability="3.6803482475e+01 -2.1714845156e+00 -9.3088276136e-01 -2.1714845156e+00 4.1445250195e+01 6.2308934125e-04 -9.3088276136e-01 6.2308934125e-04 3.8566784451e+01" charge=0 multiplicity=1 method=wB97M-V basis=def2-svpd config_type=h2so4 sample_index=411 temperature=300.0 units=atomic
S        -0.0351212275      -0.0216025380       0.1578289594   6.193329201541e-02   7.017769642629e-02   1.471332706068e-02
O        -0.0043486780       1.2839344714       0.8291604626  -2.616399802498e-03  -2.467838958710e-02  -9.188275468713e-03
O         0.0156891161      -1.2636046821       0.8300662245  -4.121819390931e-03  -3.764482516713e-02   1.955291608672e-02
O         1.2666681460       0.0774415935      -0.8694184035  -2.946571525364e-03  -8.559062174773e-02  -2.734291618813e-02
O        -1.2222055243      -0.0528887789      -0.8169497578  -3.593687671728e-02   7.502674746032e-02  -8.285654154414e-02
H         1.4226699232      -0.9505519411      -1.2986674136  -1.238917367458e-02   8.262032618121e-02   3.565636350660e-02
H        -1.1992533310       0.9267168754      -1.4031165639  -4.019591760254e-03  -7.988242066115e-02   4.939348014587e-02
7
Properties=species:S:1:pos:R:3:forces:R:3 energy=-6.997872024906e+02 dipole="2.3402891464e-01 6.3942409456e-02 -1.2786062533e+00" quadrupole="-2.4824711457e+01 -3.5312056386e+00 6.8285843792e-02 -3.5312056386e+00 -2.8730604657e+01 -2.7505299053e-01 6.8285843792e-02 -2.7505299053e-01 -2.5697169025e+01" polarizability="3.6019129168e+01 -1.4181530936e+00 6.5143467835e-01 -1.4181530936e+00 4.0001230454e+01 -4.2077139139e-01 6.5143467835e-01 -4.2077139139e-01 3.5873705249e+01" charge=0 multiplicity=1 method=wB97M-V basis=def2-svpd config_type=h2so4 sample_index=412 temperature=300.0 units=atomic
S        -0.0302740324       0.0268940160       0.1726941196   1.565261573293e-02  -8.761489934782e-02   6.139535069027e-03
O         0.0439382129       1.2900303897       0.8084726084  -1.413648616663e-02   2.920796895457e-02   2.347015954893e-02
O         0.0514327155      -1.3251980394       0.7867914471  -1.406901751887e-02   4.375811948283e-02  -3.037338395838e-03
O         1.1983325187       0.0551124204      -0.8223511211   4.373262434592e-02  -4.302224658049e-02  -2.713340259954e-02
O        -1.2651524308      -0.0623444428      -0.8533072112   6.136597591617e-03   2.471131760166e-02  -1.110095543389e-02
H         1.6220802120      -0.8900990046      -0.8887679515  -2.547652525337e-02   4.761841440486e-02   3.537666971238e-03
H        -1.1204999906       0.7163949104      -1.4540632476  -1.186728476102e-02  -1.472935633447e-02   8.101631388768e-03
7
Properties=species:S:1:pos:R:3:forces:R:3 energy=-6.997873173395e+02 dipole="2.4732445191e-02 -7.9896011035e-02 -1.4728490562e+00" quadrupole="-2.5955170751e+01 -3.1915458707e+00 -2.1574829992e-01 -3.1915458707e+00 -2.8340095914e+01 -9.8116732206e-02 -2.1574829992e-01 -9.8116732206e-02 -2.4088942881e+01" polarizability="3.5219626462e+01 -1.8171838797e+00 -3.2066736952e-01 -1.8171838797e+00 3.9415728415e+01 2.7566015907e-01 -3.2066736952e-01 2.7566015907e-01 3.6602788742e+01" charge=0 multiplicity=1 method=wB97M-V basis=def2-svpd config_type=h2so4 sample_index=413 temperature=300.0 units=atomic
S        -0.0098900237      -0.0091552922       0.1894434308   1.249710737642e-02   3.944017999946e-02  -3.742894641461e-02
O        -0.0335870746       1.2969969907       0.7961922993   7.083402462341e-03  -3.298343715112e-03   1.341117174896e-02
O         0.0420635119      -1.2805595046       0.7887849810  -9.022398372127e-03  -4.086275458920e-02   3.579169134767e-02
O         1.2278322506       0.0303547409      -0.8376865587   1.953115823301e-02  -2.666531239584e-02  -3.669496020089e-02
O        -1.2256206444      -0.0287272922      -0.8312709072  -1.721125855916e-02   3.153817406504e-02  -4.158031466050e-02
H         1.3571351193      -0.8293665821      -1.4007312742  -1.180212913592e-02   4.038043741863e-02   3.510971883775e-02
H        -1.2139237163       0.8334302981      -1.4017056935  -1.085221642293e-03  -4.051776728760e-02   3.135263605987e-02
7
Properties=species:S:1:pos:R:3:forces:R:3 energy=-6.997730885332e+02 dipole="-8.7211103745e-02 3.8193890019e-02 -1.1068663692e+00" quadrupole="-2.5520615060e+01 -3.9194088399e+00 -2.5964418018e-01 -3.9194088399e+00 -2.7395002361e+01 5.2351119540e-01 -2.5964418018e-01 5.2351119540e-01 -2.6919955083e+01" polarizability="3.7761738882e+01 -1.8378624902e+00 7.7191350597e-02 -1.8378624902e+00 4.0508040795e+01 -5.5841231600e-01 7.7191350597e-02 -5.5841231600e-01 3.7502260947e+01" charge=0 multiplicity=1 method=wB97M-V basis=def2-svpd config_type=h2so4 sample_index=414 temperature=300.0 units=atomic
S        -0.0030820433      -0.0120020291       0.1653408359   1.498323721830e-03  -6.189296001569e-02  -2.693544230492e-02
O        -0.0024180563       1.2380892215       0.7895773589  -7.012115989798e-03   6.408734778966e-02   4.029857079709e-02
O         0.0263193406      -1.2906103556       0.8900191323  -2.869108897768e-03   2.522688030251e-02  -2.479657964661e-02
O         1.2709263147       0.1006431950      -0.8555485283  -1.781396623620e-02  -1.060729984493e-01  -1.926211142310e-02
O        -1.2769537626      -0.0254262657      -0.8989779151   9.589677949400e-03   4.723585075092e-02   1.274914238140e-02
H         1.2762948392      -0.9681027192      -1.1919444398   1.137011523268e-02   8.301535972788e-02   1.743864410467e-02
H        -1.4646905294       0.9927208791      -0.9930678724   5.212294784358e-03  -5.163376632951e-02   4.659990302998e-04
7
Properties=species:S:1:pos:R:3:forces:R:3 energy=-6.997611741501e+02 dipole="-1.7048849862e-02 -7.1531437978e-02 -5.4255730762e-01" quadrupole="-2.2457080147e+01 -4.7696882687e+00 7.1866189073e-01 -4.7696882687e+00 -2.8217627958e+01 -3.4775105767e-01 7.1866189073e-01 -3.4775105767e-01 -2.7856875149e+01" polarizability="3.8054269332e+01 -1.9683482770e+00 -2.6471082320e-01 -1.9683482770e+00 3.9779464995e+01 8.8308717214e-01 -2.6471082320e-01 8.8308717214e-01 3.3501603540e+01" charge=0 multiplicity=1 method=wB97M-V basis=def2-svpd config_type=h2so4 sample_index=415 temperature=300.0 units=atomic
S         0.0020095707       0.0214713536       0.1873197529   1.176092158976e-02   4.946425477607e-02  -7.162473065722e-02
O         0.0214018558       1.3249982538       0.7775169409  -8.854285174848e-03   8.641169908230e-03   2.178681085289e-02
O        -0.0498496863      -1.2792576919       0.6662954668   1.919568703801e-02  -8.619766650709e-02   7.447126125036e-02
O         1.2748531178       0.0522898211      -0.8314125556   3.402311401989e-02  -8.891418157066e-02   2.344914261538e-02
O        -1.2517812292      -0.1251255269      -0.7797518085  -1.721394221505e-02   2.438851888989e-02  -1.787224161277e-02
H         1.7281703137      -0.9796814767      -0.6232983222  -3.534061330644e-02   8.653768286288e-02  -2.390119330633e-02
H        -1.7041536755       0.7216920139      -0.8552586007  -3.566194725169e-03   6.050681249841e-03  -6.290516419512e-03
7
Properties=species:S:1:pos:R:3:forces:R:3 energy=-6.997464935729e+02 dipole="1.4952189481e-01 7.8973696735e-02 -1.1333215735e+00" quadrupole="-2.0824481706e+01 -5.0953061824e+00 -1.0265155352e+00 -5.0953061824e+00 -2.8604384977e+01 6.8866157186e-01 -1.0265155352e+00 6.8866157186e-01 -2.7087547217e+01" polarizability="4.0712685294e+01 -3.8784942163e+00 1.3227777762e+00 -3.8784942163e+00 4.0965084956e+01 2.8769133660e-01 1.3227777762e+00 2.8769133660e-01 3.6535985970e+01" charge=0 multiplicity=1 method=wB97M-V basis=def2-svpd config_type=h2so4 sample_index=416 temperature=300.0 units=atomic
S         0.0484342211       0.0193414413       0.1677203112  -8.942791332817e-02  -2.978527169704e-02   3.531981652998e-04
O         0.0002479712       1.2875385638       0.8200918333   4.654428096823e-03   1.657948120765e-02   1.272597522550e-02
O        -0.0199778905      -1.2765742939       0.7913984976   9.148535846458e-03  -5.204999546716e-03   1.719596835789e-02
O         1.1954913160       0.0302813982      -0.8094705042   8.234437417300e-02  -1.833556262517e-02  -6.545208659868e-02
O        -1.2460945881      -0.0827932012      -0.8906976859  -5.764319288894e-02   8.646250579537e-02   6.061968933073e-03
H         1.6135834185      -0.8260003021      -1.1898657520  -2.893258962916e-02   3.377367068962e-02   2.474525605045e-02
H        -2.0248855462       0.8624609266      -0.8750902600   7.991605330890e-02  -8.355171907264e-02   4.300712012315e-03
7
Properties=species:S:1:pos:R:3:forces:R:3 energy=-6.997822612422e+02 dipole="5.1223413977e-02 -1.7575167815e-02 -1.4101057849e+00" quadrupole="-2.6578667566e+01 -2.9247349151e+00 1.3663646801e-01 -2.9247349151e+00 -2.8400286297e+01 -1.2764959102e-02 1.3663646801e-01 -1.2764959102e-02 -2.4087013835e+01" polarizability="3.5342299090e+01 -2.2934270562e-01 1.7471260285e-01 -2.2934270562e-01 3.8084921123e+01 2.9002033413e-01 1.7471260285e-01 2.9002033413e-01 3.8732905503e+01" charge=0 multiplicity=1 method=wB97M-V basis=def2-svpd config_type=h2so4 sample_index=417 temperature=300.0 units=atomic
S         0.0399086846      -0.0148485062       0.2032022131  -3.633521621027e-02   3.154576431298e-02  -7.067530489394e-02
O         0.0117614582       1.2424026902       0.8456691295   3.326559248030e-03   3.669944398286e-02   2.438141258749e-02
O        -0.0640863093      -1.2390166758       0.8752905365   9.016353815553e-03  -5.208111184481e-02   2.363963911490e-02
O         1.2021110457       0.1129318926      -0.9032739655  -4.129096734346e-03  -6.569518239698e-02  -3.911832479957e-02
O        -1.2080865872      -0.0914487271      -0.9166274169   4.084007745300e-03   8.759047205606e-03   7.747474213053e-03
H         1.0017852946      -0.6964100569      -1.5813282761   1.851068544945e-02   5.257059827251e-02   4.228267413596e-02
H        -1.3380472756       0.7699001570      -1.3790055282   5.601064458746e-03  -1.188828838194e-02   1.169264442622e-02
7
Properties=species:S:1:pos:R:3:forces:R:3 energy=-6.997770067490e+02 dipole="2.4867825862e-01 -1.7017644151e-01 -1.1471024425e+00" quadrupole="-2.1792801913e+01 -4.8776038003e+00 -2.3340284463e-01 -4.8776038003e+00 -2.8315967873e+01 1.6460402967e-01 -2.3340284463e-01 1.6460402967e-01 -2.6972719843e+01" polarizability="3.9020611843e+01 -2.9750121483e+00 -3.1331812185e-01 -2.9750121483e+00 4.0361901411e+01 8.6362650881e-01 -3.1331812185e-01 8.6362650881e-01 3.6863845498e+01" charge=0 multiplicity=1 method=wB97M-V basis=def2-svpd config_type=h2so4 sample_index=418 temperature=300.0 units=atomic
S         0.0285526184      -0.0020215925       0.1653589673  -3.961948552247e-02   3.065267718307e-02  -1.349299652263e-02
O        -0.0321839561       1.2896690543       0.8335922422   9.082938468811e-03  -1.482992083831e-02  -3.862637940561e-03
O         0.0011654459      -1.2768585893       0.8158851026   3.129275133186e-03  -1.169347256543e-02   9.045098098285e-03
O         1.2349760726       0.0355093457      -0.8622675783   5.431991859327e-02  -6.721966300663e-02  -2.573898019641e-02
O        -1.2596693700      -0.0323942743      -0.8645262235   1.128070412646e-02  -2.389577256762e-02   2.018693298968e-03
H         1.7465348924      -0.9477559646      -1.0637255297  -4.948854246140e-02   7.689187565627e-02   2.222466707425e-02
H        -1.7646309970       0.7558609448      -1.1003056891   1.133590882383e-02   1.013648567857e-02   9.724069551732e-03
7
Properties=species:S:1:pos:R:3:forces:R:3 energy=-6.997898638920e+02 dipole="2.6436195394e-01 -1.1560536696e-01 -1.1319871117e+00" quadrupole="-2.3774629582e+01 -3.7743900877e+00 -6.6196219517e-01 -3.7743900877e+00 -2.8326255484e+01 -1.8027561213e-01 -6.6196219517e-01 -1.8027561213e-01 -2.6313391886e+01" polarizability="3.5133562751e+01 -1.2645580182e+00 -4.7804024521e-01 -1.2645580182e+00 3.7964524833e+01 6.1270272823e-01 -4.7804024521e-01 6.1270272823e-01 3.5402867033e+01" charge=0 multiplicity=1 method=wB97M-V basis=def2-svpd config_type=h2so4 sample_index=419 temperature=300.0 units=atomic
S         0.0006598634      -0.0161181942       0.1828140588   5.009408778756e-03   6.079403398129e-02  -2.821408391160e-02
O        -0.0148530364       1.2958859453       0.8324786880   1.701877881310e-03  -2.569691951492e-02  -9.320086242568e-03
O         0.0043269627      -1.2620158032       0.8158525795   8.090547713439e-04  -5.467914384976e-02   3.704078306051e-02
O         1.1934710740       0.0418576684      -0.8826247231   1.445159263219e-02   2.462363787523e-02  -3.052746951608e-03
O        -1.2066284550      -0.0488017818      -0.8691095076  -6.245424434965e-04  -5.222756250195e-02   1.901893889788e-02
H         1.6703584177      -0.7432043941      -1.1649714209  -6.101993174933e-03  -1.237782798806e-02   6.969940842430e-03
H        -1.3144254461       0.8280197941      -1.1143995870  -1.524375594026e-02   5.957674454153e-02  -2.247315891176e-02
7
Properties=species:S:1:pos:R:3:forces:R:3 energy=-6.997738593781e+02 dipole="-4.7273154609e-03 -5.8010922369e-03 -1.1536324690e+00" quadrupole="-2.2806525074e+01 -4.5217178388e+00 -6.3239746755e-01 -4.5217178388e+00 -2.8474641145e+01 5.3064220885e-01 -6.3239746755e-01 5.3064220885e-01 -2.6652406401e+01" polarizability="3.8416291544e+01 -2.0868918158e+00 -8.0596677084e-01 -2.0868918158e+00 3.9904585007e+01 1.0451539532e+00 -8.0596677084e-01 1.0451539532e+00 3.5879245612e+01" charge=0 multiplicity=1 method=wB97M-V basis=def2-svpd config_type=h2so4 sample_index=420 temperature=300.0 units=atomic
S        -0.0313724189       0.0115009116       0.1555504861   4.103926213760e-02  -4.205102004930e-02  -2.553447954190e-03
O         0.0239916066       1.2986212615       0.8004626279  -1.202441812469e-02   5.624804440778e-04   1.779741873712e-03
O         0.0343916476      -1.2981012140       0.7874951370  -1.271436751971e-02   1.565119063531e-02   4.189448640018e-03
O         1.2802831691       0.0403457473      -0.8068617703   3.196929800936e-02  -4.582752420870e-02  -3.415899337815e-02
O        -1.2885811216      -0.0565463004      -0.8430665364   4.107480279891e-02  -1.005628508027e-01   2.056562949208e-02
H         1.7697674823      -0.8853891939      -1.1310541190  -4.986469536992e-02   6.344827710139e-02   3.224814962927e-02
H        -1.5709715000       0.7679798887      -0.9879378028  -3.951412443012e-02   1.087530760403e-01  -2.208253083150e-02
7
Properties=species:S:1:pos:R:3:forces:R:3 energy=-6.997888894645e+02 dipole="3.9642896348e-02 1.1064854912e-01 -1.0324945860e+00" quadrupole="-2.5356877546e+01 -3.8613980364e+00 1.3977758713e-01 -3.8613980364e+00 -2.7831736913e+01 -1.1656568859e-01 1.3977758713e-01 -1.1656568859e-01 -2.5895950685e+01" polarizability="3.7998365493e+01 -1.7312575418e+00 5.2619990781e-01 -1.7312575418e+00 4.0184063022e+01 -4.6279174361e-01 5.2619990781e-01 -4.6279174361e-01 3.6925793009e+01" charge=0 multiplicity=1 method=wB97M-V basis=def2-svpd config_type=h2so4 sample_index=421 temperature=300.0 units=atomic
S         0.0161427780       0.0125901788       0.2003598863  -1.774484559266e-02  -2.381181157944e-02  -6.584671392733e-02
O        -0.0311130149       1.3000465253       0.8071214857   7.096357062179e-03   1.470836339461e-02   1.741199108118e-02
O         0.0095745005      -1.3011472671       0.7868893127   1.830051283776e-03   2.071909303275e-03   1.455129393177e-02
O         1.2802759174       0.0323964370      -0.8656055463  -1.906530471795e-02   3.585077729606e-02   2.459170084280e-02
O        -1.2869746497      -0.0611518883      -0.8604538878   1.067949605412e-02   6.098723750742e-02  -6.469678802022e-03
H         1.4153939142      -0.8454355513      -1.1792597706   3.633498688484e-03  -2.922052788944e-02  -8.675474284111e-03
H        -1.4770127641       0.9189347794      -1.2236689611   1.357195377719e-02  -6.062622397591e-02   2.442983761601e-02
7
Properties=species:S:1:pos:R:3:forces:R:3 energy=-6.997601658734e+02 dipole="2.0567610124e-01 5.5387425385e-02 -1.4893719191e+00" quadrupole="-2.6550004863e+01 -3.1460862347e+00 -1.3315000156e-01 -3.1460862347e+00 -2.8671732127e+01 -4.7826268716e-01 -1.3315000156e-01 -4.7826268716e-01 -2.4113819517e+01" polarizability="3.8156934865e+01 -4.5096089606e-01 2.1646989298e+00 -4.5096089606e-01 4.1394250569e+01 -9.1205058813e-01 2.1646989298e+00 -9.1205058813e-01 4.1817956234e+01" charge=0 multiplicity=1 method=wB97M-V basis=def2-svpd config_type=h2so4 sample_index=422 temperature=300.0 units=atomic
S         0.0029607096       0.0236078669       0.1937183407  -1.988784550062e-02  -5.873522880199e-03  -2.501219855365e-02
O         0.0638722065       1.3003964577       0.9003658094  -8.199504804808e-03  -2.451843377618e-02  -1.774780153621e-02
O        -0.0036760008      -1.2813270397       0.8204816256  -7.229728400357e-04   8.679298040512e-03   6.108679881292e-03
O         1.2221758815       0.0669483588      -0.8740337682  -2.476949837360e-03   3.303816358963e-02   1.350421472570e-02
O        -1.3008077690      -0.1332608455      -0.9266124523   4.503306726807e-02   9.469423356271e-02  -3.945244974227e-02
H         1.3527886950      -0.7752289039      -1.2814801863   7.450316400015e-04  -2.634759561231e-02  -8.757003988724e-03
H        -1.1533169870       0.7746753401      -1.7045755281  -1.457306107478e-02  -7.965159836225e-02   7.136168736151e-02
7
Properties=species:S:1:pos:R:3:forces:R:3 energy=-6.997853451101e+02 dipole="2.3792396474e-01 2.0744653633e-01 -9.5362151179e-01" quadrupole="-2.5073910535e+01 -3.4566319431e+00 -2.0114805018e-01 -3.4566319431e+00 -2.7969602745e+01 -9.5509399907e-02 -2.0114805018e-01 -9.5509399907e-02 -2.6422086965e+01" polarizability="3.4911728735e+01 -7.4165848597e-01 6.5410631071e-01 -7.4165848597e-01 3.7743536115e+01 -4.7404590489e-01 6.5410631071e-01 -4.7404590489e-01 3.5799123870e+01" charge=0 multiplicity=1 method=wB97M-V basis=def2-svpd config_type=h2so4 sample_index=423 temperature=300.0 units=atomic
S        -0.0121202459       0.0330577580       0.2044067648  -2.245125864838e-03  -1.401129769503e-01  -7.127866860018e-02
O         0.0354039053       1.2484631609       0.8370877800  -7.663339811058e-03   9.859401433163e-02   5.332121415796e-02
O         0.0166909615      -1.2845952284       0.8196856005  -1.828734028414e-03   1.597331377301e-02   6.673786112717e-03
O         1.1664038993       0.0573570497      -0.8901548860   9.634989881505e-03   2.614477170603e-02   2.613902403375e-03
O        -1.2189978112      -0.0869830703      -0.9132788517   8.554557470486e-03   2.286992238472e-02   2.418802933112e-02
H         1.5371869361      -0.8091025602      -0.9795530356   7.348383480982e-03  -2.223965496511e-02  -3.099371919058e-03
H        -1.1466603092       0.8089750710      -1.2833632718  -1.391062433629e-02  -1.238977266688e-03  -1.240228048479e-02
7
Properties=species:S:1:pos:R:3:forces:R:3 energy=-6.997866532117e+02 dipole="1.6541123942e-01 1.8795746041e-01 -1.0173902498e+00" quadrupole="-2.4393150884e+01 -3.9530258070e+00 -6.7098309423e-01 -3.9530258070e+00 -2.8144317653e+01 6.7680630930e-01 -6.7098309423e-01 6.7680630930e-01 -2.6110294205e+01" polarizability="3.8300074090e+01 -1.9357821991e+00 4.2251648693e-01 -1.9357821991e+00 4.0197734613e+01 -3.7482108614e-01 4.2251648693e-01 -3.7482108614e-01 3.7123567421e+01" charge=0 multiplicity=1 method=wB97M-V basis=def2-svpd config_type=h2so4 sample_index=424 temperature=300.0 units=atomic
S         0.0371147750       0.0226547134       0.1981014560  -3.991931760401e-02  -1.022403018563e-01  -5.610714285576e-02
O        -0.0587171436       1.2936548862       0.7951051605   1.283430465093e-02   3.800172008424e-02   2.846887753358e-02
O         0.0225080187      -1.3310831437       0.8209118708   1.010463402317e-03   5.490089802927e-02  -1.252633181386e-02
O         1.2653746518       0.0127982234      -0.8572330620  -2.654283450900e-03   3.453980789457e-02   1.336944834263e-02
O        -1.2917916144      -0.0237050397      -0.8892662730   3.141451063244e-02  -1.693700225119e-02   2.178241101366e-02
H         1.4653815734      -0.8098449836      -1.3009764896  -6.083496418532e-03  -1.704683591826e-02   1.684269030073e-03
H        -1.6433654915       0.8566587890      -1.0544084036   3.383349657025e-03   8.760411226298e-03   3.309653408986e-03
7
Properties=species:S:1:pos:R:3:forces:R:3 energy=-6.997852682409e+02 dipole="-3.4847148647e-02 -1.5981925721e-01 -9.9403429834e-01" quadrupole="-2.3100989728e+01 -4.6538525203e+00 -2.9732371170e-01 -4.6538525203e+00 -2.7700067773e+01 -4.6932224265e-02 -2.9732371170e-01 -4.6932224265e-02 -2.7622613353e+01" polarizability="3.9156268255e+01 -2.6546765071e+00 -4.3859167460e-01 -2.6546765071e+00 3.9384519412e+01 8.7962777136e-01 -4.3859167460e-01 8.7962777136e-01 3.6962536140e+01" charge=0 multiplicity=1 method=wB97M-V basis=def2-svpd config_type=h2so4 sample_index=425 temperature=300.0 units=atomic
S        -0.0014913902      -0.0197721555       0.1538036885   5.536001703944e-03   1.105906175136e-01  -3.874326663185e-02
O        -0.0469596138       1.2837355470       0.8630613483   5.983719123163e-03  -3.580956553395e-02  -2.756287594868e-02
O         0.0285711605      -1.2273496373       0.8278020266   1.582329554325e-04  -8.395179862318e-02   4.187541222406e-02
O         1.3009892455       0.0128683908      -0.8850480819  -1.267131638267e-02  -8.210558173428e-03   7.148496587453e-03
O        -1.2810210581      -0.0337740266      -0.8717903325  -5.521774114760e-03   5.395348208032e-02   5.844691495291e-03
H         1.6780025251      -0.8894619879      -1.0796661983  -1.621446440926e-02   1.909276429527e-02   1.010990283390e-02
H        -1.6538311794       0.9492875348      -0.8947678310   2.274034241861e-02  -5.564523624421e-02   1.210271752760e-03
7
Properties=species:S:1:pos:R:3:forces:R:3 energy=-6.997675351807e+02 dipole="2.9053691270e-01 9.1968717293e-02 -9.0089805879e-01" quadrupole="-2.3670138566e+01 -3.6975409998e+00 -9.9635134098e-01 -3.6975409998e+00 -2.7860978870e+01 3.2040591115e-01 -9.9635134098e-01 3.2040591115e-01 -2.7484606285e+01" polarizability="3.5537171694e+01 -1.8150976233e+00 1.0655142769e+00 -1.8150976233e+00 3.7300713222e+01 -7.8308785620e-01 1.0655142769e+00 -7.8308785620e-01 3.5690864532e+01" charge=0 multiplicity=1 method=wB97M-V basis=def2-svpd config_type=h2so4 sample_index=426 temperature=300.0 units=atomic
S         0.0266055723      -0.0086721482       0.1738648731  -4.132419539256e-02  -4.345632728224e-02  -2.743556399676e-02
O        -0.0640267908       1.2477464051       0.8207872475   7.950498502749e-03   3.455569151691e-02   1.799685553807e-02
O         0.0674041267      -1.2699985048       0.8792182011  -4.086334503317e-03   3.587972684560e-03  -5.296888471177e-03
O         1.1912445176       0.0040578832      -0.8711225936  -7.221291502439e-02   2.084371856828e-01   4.366613861106e-02
O        -1.2507074265       0.0203894182      -0.9337923472   2.361833451384e-02  -5.673035154468e-03   2.725685187644e-02
H         1.5571648154      -0.7096728981      -1.0890539398   9.251897331703e-02  -1.977925591034e-01  -5.189569179519e-02
H        -1.5083619663       0.9528638158      -0.8757926450  -6.469325266908e-03   3.492339610762e-04  -4.397306151528e-03
7
Properties=species:S:1:pos:R:3:forces:R:3 energy=-6.997687970934e+02 dipole="7.1520040849e-02 -1.1853990016e-01 -5.9668597142e-01" quadrupole="-2.4257885572e+01 -4.3544437359e+00 5.2898613935e-01 -4.3544437359e+00 -2.7464146175e+01 -7.5837240311e-01 5.2898613935e-01 -7.5837240311e-01 -2.8232761123e+01" polarizability="3.7500986079e+01 -2.6841031285e+00 -2.4130907666e-02 -2.6841031285e+00 4.0763870759e+01 1.1891586925e-01 -2.4130907666e-02 1.1891586925e-01 3.4793016023e+01" charge=0 multiplicity=1 method=wB97M-V basis=def2-svpd config_type=h2so4 sample_index=427 temperature=300.0 units=atomic
S         0.0090615280      -0.0129541432       0.1815168411  -1.591799702784e-02   9.448027098115e-02  -5.216493467897e-02
O        -0.0494515684       1.3211070521       0.7890467827   4.098484253475e-03  -2.590545797502e-02   6.842840813233e-03
O         0.0283614499      -1.2899669645       0.7557320253   5.535119144132e-03  -5.852602357727e-02   4.486301051841e-02
O         1.2522095386       0.0315855088      -0.8658777960   1.675257094712e-02  -9.108192793794e-02   3.587736852003e-02
O        -1.2529912448      -0.0360028476      -0.8324955587  -1.180157070337e-02   6.841995642840e-02   1.761280384262e-03
H         1.5481098905      -1.0110794896      -0.6121731859  -6.235730210422e-03   7.620078607967e-02  -3.341296230988e-02
H        -1.4885309301       0.9979060098      -0.8683502962   7.562640639235e-03  -6.357870372019e-02  -3.790036975068e-03
7
Properties=species:S:1:pos:R:3:forces:R:3 energy=-6.997820935468e+02 dipole="-1.0534629193e-02 -2.0387603956e-01 -1.5659872186e+00" quadrupole="-2.3231190799e+01 -4.3635703010e+00 -6.3131820855e-02 -4.3635703010e+00 -2.8356497324e+01 -3.6243870064e-01 -6.3131820855e-02 -3.6243870064e-01 -2.6161973275e+01" polarizability="3.6357593841e+01 -2.1417222275e+00 1.3980210361e-01 -2.1417222275e+00 3.9635445003e+01 7.7150981584e-01 1.3980210361e-01 7.7150981584e-01 3.7772648373e+01" charge=0 multiplicity=1 method=wB97M-V basis=def2-svpd config_type=h2so4 sample_index=428 temperature=300.0 units=atomic
S        -0.0239928137      -0.0227069876       0.1424663766   1.917665792225e-02   8.262064788600e-02   3.978973148567e-02
O         0.0321524236       1.2716615162       0.8874046104  -1.247467130338e-02  -4.054427623947e-02  -3.335053530104e-02
O         0.0310318493      -1.2356624378       0.8735678250  -9.194403355176e-03  -3.756896477223e-02   7.741185380187e-03
O         1.1790525077       0.0636297869      -0.8667615357   5.725589753582e-02  -5.543685287545e-02  -3.968408940354e-02
O        -1.2018945355      -0.0525308349      -0.9050078881  -3.494029980209e-02   1.677166634389e-02  -1.727020071882e-02
H         1.6018457117      -0.8685731021      -1.1837410464  -3.419530301559e-02   5.932950794249e-02   2.563650768536e-02
H        -1.4840257156       0.8408072019      -1.2716491898   1.436442733636e-02  -2.512090072526e-02   1.705776092852e-02
7
Properties=species:S:1:pos:R:3:forces:R:3 energy=-6.997855886182e+02 dipole="6.6021248516e-02 -6.0778347063e-02 -1.1745104851e+00" quadrupole="-2.4831309046e+01 -3.9739656661e+00 1.8393618834e-01 -3.9739656661e+00 -2.8097191755e+01 8.8544561378e-02 1.8393618834e-01 8.8544561378e-02 -2.5932274926e+01" polarizability="3.7839265991e+01 -1.8093045905e+00 7.3454816845e-01 -1.8093045905e+00 4.0703260030e+01 -2.4939288428e-01 7.3454816845e-01 -2.4939288428e-01 3.6825925338e+01" charge=0 multiplicity=1 method=wB97M-V basis=def2-svpd config_type=h2so4 sample_index=429 temperature=300.0 units=atomic
S         0.0284182381      -0.0068293009       0.1805274155  -4.431987353914e-02   1.027164830074e-03  -2.378455356148e-02
O        -0.0188229563       1.2936458947       0.7759251249   3.972801768549e-03   9.014661404969e-03   2.318014749360e-02
O         0.0139463990      -1.3197313663       0.8198359788   2.782053949950e-04   2.435430772958e-02  -8.934740517757e-03
O         1.2621671597       0.0724514798      -0.8255496552   3.744444327022e-03  -7.513634717446e-02  -2.573055393068e-02
O        -1.2944630285      -0.0261763735      -0.8643425140   1.393448984303e-02  -1.292344588833e-02   6.902304545831e-03
H         1.3186274249      -0.9333228525      -1.1633858322   5.581147505896e-03   6.076855172083e-02   1.426586315897e-02
H        -1.6291361985       0.8292805326      -1.2189572242   1.681301512231e-02  -7.087766713495e-03   1.409325162728e-02
7
Properties=species:S:1:pos:R:3:forces:R:3 energy=-6.997881163687e+02 dipole="-7.3476027256e-02 -5.1713508763e-02 -1.2214718531e+00" quadrupole="-2.5047438870e+01 -3.7236686586e+00 -4.9657778550e-02 -3.7236686586e+00 -2.8350584565e+01 1.6981949361e-01 -4.9657778550e-02 1.6981949361e-01 -2.6620740194e+01" polarizability="3.5374407109e+01 -8.7920427030e-01 -1.2056466926e+00 -8.7920427030e-01 4.0780799161e+01 -2.9055544264e-01 -1.2056466926e+00 -2.9055544264e-01 3.6643214223e+01" charge=0 multiplicity=1 method=wB97M-V basis=def2-svpd config_type=h2so4 sample_index=430 temperature=300.0 units=atomic
S        -0.0177297427      -0.0148506171       0.1752583557   4.627430543677e-02  -8.349268019187e-03   3.919144385886e-02
O         0.0068726556       1.3078465937       0.8094382646  -6.272643839381e-03  -2.711591922232e-02  -2.357907038117e-03
O        -0.0277144023      -1.3283619584       0.8631636573   6.502349853802e-03   4.351233836086e-02  -2.073677542485e-02
O         1.2153083779       0.1095335440      -0.9076171835   7.077659712060e-03  -5.762590242050e-02   5.947468325875e-03
O        -1.1683922939      -0.0594602055      -0.8557330603  -3.717848823428e-02  -6.131202657887e-03  -1.556706852919e-02
H         1.4179955281      -0.8609698672      -1.1685864722  -3.985252642991e-03   4.206455029124e-02   6.864574883109e-03
H        -1.2727590663       0.8680980110      -1.0699554625  -1.239699225582e-02   1.367217807805e-02  -1.336612519256e-02
7
Properties=species:S:1:pos:R:3:forces:R:3 energy=-6.997073458635e+02 dipole="5.6251074918e-01 4.3762361166e-02 -1.5076871348e+00" quadrupole="-2.4861929299e+01 -3.7074262478e+00 6.7102745219e-01 -3.7074262478e+00 -2.8425560080e+01 -1.3036747547e+00 6.7102745219e-01 -1.3036747547e+00 -2.4886377187e+01" polarizability="3.7718974910e+01 -2.2825810560e+00 1.4011368048e+00 -2.2825810560e+00 4.1477969866e+01 -3.5625605461e+00 1.4011368048e+00 -3.5625605461e+00 4.3042581022e+01" charge=0 multiplicity=1 method=wB97M-V basis=def2-svpd config_type=h2so4 sample_index=431 temperature=300.0 units=atomic
S         0.0200887397       0.0284004806       0.1622767458  -4.118016291769e-02  -4.854308468429e-02  -1.781185141982e-02
O         0.0061732888       1.2265847646       0.8954135548   2.715610397291e-03   5.114930606263e-02   2.223281603895e-02
O        -0.0184426820      -1.2543862159       0.8337832649   1.197702669475e-02  -4.986551099197e-03   2.622002746138e-03
O         1.1738672925       0.0695531848      -0.9219011733   6.552960532003e-02  -8.610611677938e-02   9.164388975064e-03
O        -1.2433305264      -0.0896708234      -0.8470055631   1.782584538807e-02   8.124836060045e-02  -8.585970227720e-02
H         1.6764282710      -0.9352826854      -0.7544198492  -3.722013725894e-02   8.129309036152e-02  -1.907297085645e-02
H        -1.0193474127       0.8052959640      -1.8658706831  -1.964202290369e-02  -7.407899012486e-02   8.869996089328e-02
7
Properties=species:S:1:pos:R:3:forces:R:3 energy=-6.997552567712e+02 dipole="-4.4831372718e-01 -6.2546445959e-02 -9.3411915353e-01" quadrupole="-2.2803357364e+01 -4.4715867154e+00 -8.8905422127e-01 -4.4715867154e+00 -2.8256769826e+01 7.8200065430e-01 -8.8905422127e-01 7.8200065430e-01 -2.8635004471e+01" polarizability="4.0141726410e+01 -3.4030537991e+00 -1.7308889854e-02 -3.4030537991e+00 4.1228981999e+01 6.2476348066e-01 -1.7308889854e-02 6.2476348066e-01 3.6827435956e+01" charge=0 multiplicity=1 method=wB97M-V basis=def2-svpd config_type=h2so4 sample_index=432 temperature=300.0 units=atomic
S        -0.0447587239      -0.0222026841       0.1108755204   5.781938150706e-02   3.460946697795e-02   5.407878425343e-02
O        -0.0449271330       1.3156089634       0.8387484264  -7.521740866074e-03  -5.840342935775e-02  -3.762130254981e-02
O         0.1143865649      -1.2759200391       0.8502600290  -2.186505973696e-02   1.248492595188e-02  -1.215774050748e-02
O         1.3197887601      -0.0173048778      -0.8198004906  -4.409433388685e-02   7.781378729012e-02   9.499831463978e-03
O        -1.2870118599       0.0138030094      -0.8853313782  -3.625863948419e-02   8.041928077923e-02   3.972361023856e-02
H         1.5576279280      -0.8804680956      -0.9933850328   1.714077231729e-02  -6.741216887605e-02  -1.081831207958e-02
H        -1.7621059675       1.0049726005      -0.4314842380   3.479397080663e-02  -7.954400493334e-02  -4.274971637875e-02
7
Properties=species:S:1:pos:R:3:forces:R:3 energy=-6.997770139760e+02 dipole="2.5519870054e-01 8.6711244126e-02 -1.1075225800e+00" quadrupole="-2.2786805263e+01 -4.5550640630e+00 -7.7579558544e-01 -4.5550640630e+00 -2.8070006358e+01 2.5269723513e-01 -7.7579558544e-01 2.5269723513e-01 -2.7690992486e+01" polarizability="3.8974733234e+01 -2.5925908948e+00 -1.6372121084e-02 -2.5925908948e+00 3.9953097477e+01 -1.1596513225e+00 -1.6372121084e-02 -1.1596513225e+00 3.6752056684e+01" charge=0 multiplicity=1 method=wB97M-V basis=def2-svpd config_type=h2so4 sample_index=433 temperature=300.0 units=atomic
S        -0.0192469921      -0.0160862951       0.1398802928   1.381172407059e-02  -9.851678918624e-02   8.109559888409e-03
O         0.0152864468       1.2316845266       0.7759529524  -1.168247137079e-02   6.210729259669e-02   3.587430133014e-02
O         0.0485908580      -1.3046122662       0.9045474264  -1.060359486022e-02   4.712260580536e-02  -4.008795298742e-02
O         1.2469779401       0.0912344628      -0.8357833359   4.864536928894e-02  -7.012240016367e-02  -2.535727335600e-02
O        -1.2970235015       0.0043605192      -0.8861598309   1.543474691475e-02   1.471650954876e-02   1.148043875434e-02
H         1.8362725295      -0.8198407249      -0.9743129167  -5.154072554074e-02   6.330999027805e-02   1.391019947005e-02
H        -1.4513002839       0.9833279556      -0.9530069576  -4.147520954490e-03  -1.867019588856e-02  -3.947879357559e-03
7
Properties=species:S:1:pos:R:3:forces:R:3 energy=-6.997909893579e+02 dipole="2.9854188902e-01 -6.0616411415e-03 -1.3877754638e+00" quadrupole="-2.5065908403e+01 -3.5691722141e+00 -3.1163138159e-01 -3.5691722141e+00 -2.8482172136e+01 -2.0399324547e-02 -3.1163138159e-01 -2.0399324547e-02 -2.6036869795e+01" polarizability="3.6264574814e+01 -5.0737003104e-01 9.3406437474e-02 -5.0737003104e-01 3.8289687319e+01 -2.9365169787e-01 9.3406437474e-02 -2.9365169787e-01 3.5775416842e+01" charge=0 multiplicity=1 method=wB97M-V basis=def2-svpd config_type=h2so4 sample_index=434 temperature=300.0 units=atomic
S         0.0499303596      -0.0059815951       0.1368816863  -6.699884239934e-02   4.322085939973e-03   3.996424597981e-02
O        -0.0195158104       1.2678550845       0.8200313484   9.388004776675e-03  -1.266869191266e-03  -3.556745779576e-03
O        -0.0578928583      -1.2715523792       0.8361843770   2.113649333513e-02   3.311442122584e-03  -8.513742152672e-03
O         1.2696598327       0.0883290405      -0.8437304323   2.856005923135e-03   3.956832040819e-02   7.324035098518e-03
O        -1.2893464876      -0.0765362948      -0.8239021054   2.487324055513e-02   8.821207434591e-04  -7.272338938513e-04
H         1.3629091132      -0.7667638380      -1.1739537448   1.637739453940e-02  -5.419579856357e-02  -2.841409116461e-02
H        -1.4006941510       0.8282026823      -1.1331485980  -7.542025479640e-03   7.323708166995e-03  -6.082139710515e-03
7
Properties=species:S:1:pos:R:3:forces:R:3 energy=-6.997786507535e+02 dipole="1.8586755401e-01 -2.4557115131e-01 -9.6247164775e-01" quadrupole="-2.2489250476e+01 -4.8144062711e+00 -8.1115183686e-01 -4.8144062711e+00 -2.8326939784e+01 -4.0726471309e-02 -8.1115183686e-01 -4.0726471309e-02 -2.7572048195e+01" polarizability="3.8737302807e+01 -2.8297538895e+00 -4.8067591872e-01 -2.8297538895e+00 4.1626895651e+01 5.3464965182e-01 -4.8067591872e-01 5.3464965182e-01 3.5613505347e+01" charge=0 multiplicity=1 method=wB97M-V basis=def2-svpd config_type=h2so4 sample_index=435 temperature=300.0 units=atomic
S         0.0009870760      -0.0446983417       0.1653193130  -4.120007145861e-03   1.018851375326e-01  -9.938784597614e-03
O        -0.0126950315       1.3411439432       0.7614825418  -1.916902371614e-03  -5.967415584398e-02  -7.362521057203e-03
O         0.0147304300      -1.3067953130       0.7987843929   6.518126394266e-04  -3.424414410826e-02   2.586087674517e-02
O         1.2487130986       0.0683112614      -0.8218364698   4.618567051153e-02  -6.027652574884e-02  -2.398891080450e-02
O        -1.2644111547      -0.0214133967      -0.8385065755  -1.670726688883e-02   5.057766388826e-02   1.889498982559e-03
H         1.7805755916      -0.8457794302      -1.0130166786  -4.277295837857e-02   5.821447997430e-02   1.664013342512e-02
H        -1.5953908470       0.9758939564      -0.8133861273   1.863992576957e-02  -5.633006123569e-02  -3.084607859006e-03
7
Properties=species:S:1:pos:R:3:forces:R:3 energy=-6.997528849409e+02 dipole="-4.0732939649e-02 5.8535113481e-02 -1.9947066462e+00" quadrupole="-2.7388504431e+01 -2.3345322599e+00 -2.3328113752e-01 -2.3345322599e+00 -2.9501008481e+01 1.0749576446e-01 -2.3328113752e-01 1.0749576446e-01 -2.2499846830e+01" polarizability="3.7584003094e+01 -8.0148334513e-01 4.1216950818e-01 -8.0148334513e-01 4.1523840516e+01 5.2279489197e-01 4.1216950818e-01 5.2279489197e-01 4.2691658940e+01" charge=0 multiplicity=1 method=wB97M-V basis=def2-svpd config_type=h2so4 sample_index=436 temperature=300.0 units=atomic
S        -0.0147722917       0.0056505162       0.1561030275   6.567334932019e-03  -2.158575348061e-02   3.511568663360e-02
O         0.0339679598       1.2839636531       0.8577639817  -8.443660514062e-03  -1.708843299929e-02  -1.094063118080e-02
O         0.0240554628      -1.2895406326       0.8628472708  -1.054504597250e-02   3.379141352327e-02  -1.903832786825e-02
O         1.2674934388       0.0700418651      -0.8217746703  -2.318317214495e-02  -6.412097990507e-02  -9.198376956430e-02
O        -1.2940074942      -0.0774514608      -0.8830850898   3.468505583232e-02   6.136451558016e-02  -4.823142129828e-02
H         1.0723160445      -0.7004645877      -1.7016914964   2.039676655690e-02   6.370690646496e-02   8.022551317021e-02
H        -1.1045865593       0.7262195946      -1.6121805516  -1.955104217519e-02  -5.605182589101e-02   5.480666462414e-02
7
Properties=species:S:1:pos:R:3:forces:R:3 energy=-6.997808225873e+02 dipole="2.5911585217e-02 7.0957841393e-02 -9.2043139772e-01" quadrupole="-2.4464228033e+01 -3.6994591552e+00 -1.3980506929e+00 -3.6994591552e+00 -2.7719576403e+01 1.4337554387e+00 -1.3980506929e+00 1.4337554387e+00 -2.7142077643e+01" polarizability="3.6584066071e+01 -2.5340794899e+00 -1.2511441174e-01 -2.5340794899e+00 3.8337460067e+01 -9.7340713777e-01 -1.2511441174e-01 -9.7340713777e-01 3.6093618123e+01" charge=0 multiplicity=1 method=wB97M-V basis=def2-svpd config_type=h2so4 sample_index=437 temperature=300.0 units=atomic
S         0.0254684074      -0.0175730580       0.1689252521  -2.078019717244e-02  -1.065120302479e-01  -4.393798209875e-02
O        -0.0934603667       1.2223881757       0.7576384228   9.905069255211e-03   1.001561320316e-01   6.385047707739e-02
O         0.0537457318      -1.2878308506       0.9076862867  -8.726900762531e-04   2.700805578565e-02  -2.287099632832e-02
O         1.2441863335       0.0376757230      -0.8606184323   5.300449456104e-03  -2.443118024784e-03  -8.448602499325e-04
O        -1.2371441456       0.0524386870      -0.9031984979  -1.019063001614e-02   3.539670924502e-02   2.676186521916e-02
H         1.3238309421      -0.8179382968      -1.3103688782   2.623936606179e-03  -1.329371503788e-03   4.373953401675e-04
H        -1.6107331200       0.9869032864      -0.6089618358   1.399550458431e-02  -5.223166348540e-02  -2.348051244247e-02
7
Properties=species:S:1:pos:R:3:forces:R:3 energy=-6.997661875048e+02 dipole="-2.2948469393e-01 -2.7330813632e-01 -1.3924553130e+00" quadrupole="-2.4099320299e+01 -4.2707053875e+00 -3.5827975794e-01 -4.2707053875e+00 -2.8295080239e+01 1.1012450563e-02 -3.5827975794e-01 1.1012450563e-02 -2.7094320732e+01" polarizability="3.6233515817e+01 -1.3713780594e+00 -1.8129283487e-01 -1.3713780594e+00 4.0493094832e+01 5.1952800977e-01 -1.8129283487e-01 5.1952800977e-01 3.6487065366e+01" charge=0 multiplicity=1 method=wB97M-V basis=def2-svpd config_type=h2so4 sample_index=438 temperature=300.0 units=atomic
S        -0.0108430080      -0.0567074022       0.1262863077   1.577363477742e-02   1.312529114266e-01   6.454483690807e-02
O         0.0501296966       1.2913773450       0.8174111596  -2.012345161157e-02  -5.308832916182e-02  -2.218874667677e-02
O        -0.0284875467      -1.2518562400       0.8752338712   6.161614339114e-03  -4.666834267744e-02   1.112567640900e-02
O         1.2233691094       0.1392933183      -0.8282991037   1.964889727331e-02  -8.901618656669e-02  -4.082900757039e-02
O        -1.2081558488      -0.0736786832      -0.8691741152  -5.364469814131e-02   7.587574741289e-02  -1.747506768477e-02
H         1.3102907314      -0.8400210117      -1.2116543630   9.692754820299e-03   5.604160640145e-02   1.010722208591e-02
H        -1.5529515850       0.9686832024      -0.8525326215   2.241213764746e-02  -7.442784029771e-02  -5.323830765612e-03
7
Properties=species:S:1:pos:R:3:forces:R:3 energy=-6.997724814365e+02 dipole="-1.5344397324e-01 1.2428217759e-01 -1.9986109214e+00" quadrupole="-2.5304832517e+01 -3.2320926130e+00 7.9653260332e-01 -3.2320926130e+00 -2.9076964890e+01 -1.0362370365e-02 7.9653260332e-01 -1.0362370365e-02 -2.3413489122e+01" polarizability="3.5934899206e+01 -1.9612912473e+00 1.7955300669e+00 -1.9612912473e+00 4.0432627958e+01 -5.5925707744e-01 1.7955300669e+00 -5.5925707744e-01 3.9733428812e+01" charge=0 multiplicity=1 method=wB97M-V basis=def2-svpd config_type=h2so4 sample_index=439 temperature=300.0 units=atomic
S        -0.0032283651       0.0281427885       0.1432768559  -1.402771425187e-02  -3.316059972908e-02   5.922695617873e-02
O         0.0058369935       1.2750665135       0.8835813790  -4.498594215803e-04  -7.408889543100e-03  -1.314162115953e-02
O         0.0417713880      -1.2806135180       0.8377134973  -1.371840314162e-02   3.503132386195e-02  -1.738589844477e-02
O         1.2002458396       0.0205851398      -0.8249654966   3.835962138749e-02  -2.213036878155e-02  -6.152450145840e-02
O        -1.2255694785      -0.0659639074      -0.8724024605  -3.710437302265e-02   4.756170247949e-02  -6.387277120093e-02
H         1.1928849366      -0.8185598584      -1.4167986108   4.071086852870e-04   3.542672162670e-02   3.009067820203e-02
H        -1.4439279833       0.7300156346      -1.6174519446   2.651976052420e-02  -5.533384109737e-02   6.649299718785e-02
7
Properties=species:S:1:pos:R:3:forces:R:3 energy=-6.997897095638e+02 dipole="2.0710212538e-01 1.9677092329e-01 -1.1450636994e+00" quadrupole="-2.4223439037e+01 -3.7068489555e+00 3.1338368629e-01 -3.7068489555e+00 -2.8244226011e+01 1.8052938588e-02 3.1338368629e-01 1.8052938588e-02 -2.6518060844e+01" polarizability="3.5149312910e+01 -1.5671021021e+00 -4.7268596159e-01 -1.5671021021e+00 3.8900910471e+01 -3.0288127293e-01 -4.7268596159e-01 -3.0288127293e-01 3.5746482380e+01" charge=0 multiplicity=1 method=wB97M-V basis=def2-svpd config_type=h2so4 sample_index=440 temperature=300.0 units=atomic
S         0.0196506207       0.0377285606       0.1785545713  -1.284116199672e-02  -1.087825405303e-01  -9.698682475328e-03
O        -0.0640679087       1.2748386784       0.8432553383   1.123209920139e-02   4.223283667862e-02   2.348710248164e-02
O         0.0110368585      -1.3147367657       0.8205640952   5.109323856017e-03   5.450117837903e-02  -1.557685283780e-02
O         1.1991787782       0.0081537342      -0.9111474216   1.088561424092e-02   2.181391112009e-02   5.741057009889e-03
O        -1.1968665984      -0.0366072091      -0.8504221849  -4.606943806817e-03  -5.628689892412e-02   1.988823280407e-02
H         1.5450017750      -0.8843751013      -0.9877646233   1.544217255369e-03  -9.889587342276e-03   1.444018923255e-03
H        -1.3616229843       0.7750921348      -1.2429191595  -1.134335378770e-02   5.641384350876e-02  -2.527087407794e-02
7
Properties=species:S:1:pos:R:3:forces:R:3 energy=-6.997529479496e+02 dipole="-2.3474801194e-01 7.9071294836e-02 -1.4931330879e+00" quadrupole="-2.5330727034e+01 -3.7512482067e+00 -5.7088940721e-01 -3.7512482067e+00 -2.8285727786e+01 1.1841159839e+00 -5.7088940721e-01 1.1841159839e+00 -2.5050398410e+01" polarizability="3.8005197324e+01 -1.1923095431e+00 -7.4205580757e-01 -1.1923095431e+00 4.0656240198e+01 1.9566972744e+00 -7.4205580757e-01 1.9566972744e+00 4.1464909537e+01" charge=0 multiplicity=1 method=wB97M-V basis=def2-svpd config_type=h2so4 sample_index=441 temperature=300.0 units=atomic
S        -0.0088092456       0.0074952426       0.1673691303   1.297020763147e-02  -6.400058972837e-02  -2.269036470546e-02
O         0.0456305393       1.2393548200       0.8579255014  -1.033332013027e-02   4.221188032617e-02   1.506466449427e-02
O        -0.0213149724      -1.2565786884       0.8980164965  -6.196344055645e-04   1.548385934759e-02  -1.811077062423e-02
O         1.2608007845       0.1012946171      -0.8649606709  -1.729596977436e-02  -8.907255804263e-02  -6.624901039687e-02
O        -1.2437165701      -0.0969914409      -0.9341309820   9.786542604509e-03   1.630882331730e-02   1.863588119345e-02
H         1.1857951634      -0.8588237037      -1.6748122553   5.396603123965e-03   8.546344796909e-02   7.620187336601e-02
H        -1.5611451739       0.8200645226      -1.0567076880   6.030453374262e-05  -6.373037105302e-03  -2.933149953612e-03
7
Properties=species:S:1:pos:R:3:forces:R:3 energy=-6.997839880898e+02 dipole="1.9584984495e-01 1.0508866135e-01 -1.1859610480e+00" quadrupole="-2.1833271292e+01 -4.3039402082e+00 -1.3294547016e+00 -4.3039402082e+00 -2.9087357833e+01 4.0210563261e-01 -1.3294547016e+00 4.0210563261e-01 -2.7184390419e+01" polarizability="3.7347532439e+01 -1.7206417866e+00 -2.5624472526e-01 -1.7206417866e+00 4.0478229970e+01 4.7133634836e-01 -2.5624472526e-01 4.7133634836e-01 3.5803947888e+01" charge=0 multiplicity=1 method=wB97M-V basis=def2-svpd config_type=h2so4 sample_index=442 temperature=300.0 units=atomic
S        -0.0017258638       0.0027056608       0.1496813170   9.766452651899e-03  -2.467194097558e-02   3.893736944968e-02
O         0.0058820415       1.3290572799       0.8181675973  -5.765186137336e-03  -4.219190491593e-02  -2.068151465228e-02
O         0.0018361871      -1.3095898663       0.8076445734   3.545930063329e-04   2.856720542916e-02  -4.936187713351e-04
O         1.2231612135       0.0294419821      -0.8263155046   2.137352532477e-02   3.228030889030e-02  -2.305616679433e-02
O        -1.2412621410      -0.0685290428      -0.8590667852  -1.521573492509e-02   5.293523997135e-02   4.034595630063e-03
H         1.8104434737      -0.6615606328      -1.1643286474  -1.453841356154e-02  -1.215616647474e-02   1.221262064649e-02
H        -1.5877298187       0.8855784324      -0.7956361081   4.028169865096e-03  -3.475961562043e-02  -1.097578021931e-02
7
Properties=species:S:1:pos:R:3:forces:R:3 energy=-6.997617845823e+02 dipole="1.5522874767e-01 -4.7292975242e-02 -7.2297023171e-01" quadrupole="-2.3667146645e+01 -4.8083409007e+00 -4.3015836756e-01 -4.8083409007e+00 -2.6921539195e+01 2.6397256102e-01 -4.3015836756e-01 2.6397256102e-01 -2.8790167047e+01" polarizability="4.0551119780e+01 -4.4438034948e+00 7.7702603205e-02 -4.4438034948e+00 4.2027992297e+01 6.7071576519e-01 7.7702603205e-02 6.7071576519e-01 3.7593524802e+01" charge=0 multiplicity=1 method=wB97M-V basis=def2-svpd config_type=h2so4 sample_index=443 temperature=300.0 units=atomic
S         0.0226623532       0.0036591815       0.1640488921  -2.542696931498e-02   2.064015040868e-02  -3.328022317011e-02
O        -0.1096766602       1.2865303401       0.8617600566   1.529842993402e-02  -1.769790041997e-02  -1.275575064609e-02
O         0.0805609040      -1.2624140472       0.8294331948  -3.402406316050e-03  -1.725753141798e-02   1.375867640418e-02
O         1.2765903869      -0.0352665592      -0.8963484769   1.289203676202e-02  -6.621269035022e-02   1.371006662788e-02
O        -1.2920662583       0.0039341720      -0.9042734729   4.201169178987e-03   8.962367853528e-02   3.775528563599e-02
H         1.6198842565      -1.0890007637      -0.8680568753  -2.661922975943e-02   8.069108010725e-02  -1.483010435601e-03
H        -1.6264510075       1.0831158619      -0.7364851084   2.301239670767e-02  -8.970322078981e-02  -1.778641244612e-02
7
Properties=species:S:1:pos:R:3:forces:R:3 energy=-6.997630800951e+02 dipole="2.1690381690e-01 -2.9558193397e-03 -1.4525815748e+00" quadrupole="-2.4866551988e+01 -3.7320811597e+00 -4.2990008095e-01 -3.7320811597e+00 -2.8390626028e+01 -6.9921494070e-01 -4.2990008095e-01 -6.9921494070e-01 -2.6217900468e+01" polarizability="3.7208296225e+01 -1.9463021239e+00 5.0668610232e-01 -1.9463021239e+00 4.2286770076e+01 -1.3007679432e+00 5.0668610232e-01 -1.3007679432e+00 3.6842405766e+01" charge=0 multiplicity=1 method=wB97M-V basis=def2-svpd config_type=h2so4 sample_index=444 temperature=300.0 units=atomic
S        -0.0312066820      -0.0193962753       0.1369430976   2.158940580123e-02  -6.878318089232e-04   6.170230268409e-02
O         0.0148976210       1.3103713405       0.7836538415  -1.099514570529e-02  -3.278558639287e-02  -8.285038522606e-03
O         0.0633776119      -1.3213298243       0.8219370099  -1.363614371591e-02   2.957840432449e-02  -1.220053748163e-02
O         1.2425202109       0.0687710809      -0.7963405813   2.963699719430e-02  -3.085585210713e-02  -3.331861721386e-02
O        -1.2941617104      -0.0315253019      -0.8239187955   2.267811412738e-02   9.264788654704e-02  -4.762111024723e-02
H         1.6459640615      -0.8368243122      -1.0013876901  -1.882173205867e-02   3.016034637889e-02   8.840976283342e-03
H        -1.0851534167       1.0452292773      -1.2664162942  -3.056624790365e-02  -8.806790936329e-02   3.087304719330e-02
7
Properties=species:S:1:pos:R:3:forces:R:3 energy=-6.997852930059e+02 dipole="2.6058972154e-01 -1.7481246184e-01 -1.1101017552e+00" quadrupole="-2.5712951405e+01 -3.5652717685e+00 -4.7946023744e-01 -3.5652717685e+00 -2.7850315886e+01 -2.8375971733e-01 -4.7946023744e-01 -2.8375971733e-01 -2.6834421862e+01" polarizability="3.8263995607e+01 -1.8907522842e+00 1.3373772137e+00 -1.8907522842e+00 4.1049184688e+01 -9.1680583153e-01 1.3373772137e+00 -9.1680583153e-01 3.7396711460e+01" charge=0 multiplicity=1 method=wB97M-V basis=def2-svpd config_type=h2so4 sample_index=445 temperature=300.0 units=atomic
S         0.0124576189      -0.0418028675       0.1639399620  -3.845223231974e-02   4.556421332232e-02   1.587461735721e-02
O        -0.0187752310       1.2984106454       0.7756553694  -1.918727905792e-03  -3.208325938866e-02   1.226488254870e-03
O         0.0706493940      -1.3243758423       0.8779774666  -8.054555821938e-03   2.786156878829e-02  -2.397404478761e-02
O         1.2548575553       0.0828628252      -0.8235658419   3.061290964322e-03  -5.362218210363e-02  -1.318354555106e-02
O        -1.3353994946       0.0217214882      -0.9041598027   3.874821683874e-02  -5.410025709791e-03   2.266224977198e-02
H         1.3938109748      -0.8931924514      -1.0316312821   1.010447191496e-02   2.890951089108e-02  -5.077893519611e-03
H        -1.3372438702       0.9787219500      -1.1354865981  -3.546446657462e-03  -1.117719671193e-02   2.491314947041e-03
7
Properties=species:S:1:pos:R:3:forces:R:3 energy=-6.997657605928e+02 dipole="-3.1566222147e-01 1.2969758362e-01 -1.2691457473e+00" quadrupole="-2.6273442502e+01 -3.4182247970e+00 1.5948950866e-03 -3.4182247970e+00 -2.7589366947e+01 8.9627456704e-01 1.5948950866e-03 8.9627456704e-01 -2.5800966697e+01" polarizability="3.7625539008e+01 -2.0443635110e+00 -1.2072550754e+00 -2.0443635110e+00 4.1341159159e+01 1.4817494593e+00 -1.2072550754e+00 1.4817494593e+00 3.9081673430e+01" charge=0 multiplicity=1 method=wB97M-V basis=def2-svpd config_type=h2so4 sample_index=446 temperature=300.0 units=atomic
S        -0.0168848853       0.0218613561       0.1788975784   4.001288020433e-02  -5.040181168499e-02  -2.366849224539e-02
O        -0.0515666031       1.2800873239       0.8610373584   2.747090385730e-03   1.428603104169e-02   1.688184879640e-03
O         0.0265028489      -1.2699017718       0.8313393484  -3.814496219558e-03   7.357119048184e-03   4.387325254523e-03
O         1.2979101296       0.0143757836      -0.8976448866  -3.895356553239e-02  -7.245403883982e-02  -2.932307399619e-02
O        -1.2249647266      -0.0675595015      -0.8750414841  -1.003769982491e-02   7.137700448584e-02  -4.735324436549e-03
H         1.1604811931      -0.9771435919      -1.4938227077   1.241383176579e-02   8.545077980413e-02   5.389077616983e-02
H        -1.3820813382       0.9590961166      -1.0206478547  -2.363241728630e-03  -5.562702759536e-02  -2.325967556817e-03
7
Properties=species:S:1:pos:R:3:forces:R:3 energy=-6.997845662196e+02 dipole="-2.4420133725e-02 6.0985833739e-03 -1.6731915860e+00" quadrupole="-2.5716873157e+01 -3.4975447569e+00 1.0132796599e-01 -3.4975447569e+00 -2.8379636671e+01 1.2091110645e-01 1.0132796599e-01 1.2091110645e-01 -2.5561542335e+01" polarizability="3.6287406986e+01 -1.0764878619e+00 -7.1633338541e-01 -1.0764878619e+00 4.0443642584e+01 3.3156274960e-01 -7.1633338541e-01 3.3156274960e-01 3.8474367199e+01" charge=0 multiplicity=1 method=wB97M-V basis=def2-svpd config_type=h2so4 sample_index=447 temperature=300.0 units=atomic
S        -0.0000613770       0.0089262367       0.1331543597   1.688424234965e-02  -5.347915562410e-03   6.958725799883e-02
O        -0.0059752096       1.2718724932       0.8903324691   1.400385098520e-03  -2.264289363326e-02  -2.962740510337e-02
O        -0.0312902605      -1.2620881608       0.8611175881   8.974847928056e-03   1.625496465955e-02  -1.725231518785e-02
O         1.2603113093       0.0728178815      -0.8922050206  -7.590420744666e-03  -6.038063142962e-02  -1.984991111373e-02
O        -1.2261889718      -0.0972149449      -0.8432749462  -1.302005828794e-02   6.319891639946e-02  -4.287194736745e-02
H         1.2999764090      -0.9023557099      -1.3078437800   1.858453965909e-03   5.797356045615e-02   2.314284718827e-02
H        -1.2469156889       0.8495618226      -1.2843876921  -8.478398160617e-03  -4.903334594023e-02   1.681052568282e-02
7
Properties=species:S:1:pos:R:3:forces:R:3 energy=-6.997468858189e+02 dipole="-4.1291277034e-01 -1.2288518564e-03 -9.2797111625e-01" quadrupole="-2.3879605828e+01 -3.7760911644e+00 -1.9114567170e-01 -3.7760911644e+00 -2.8164947590e+01 1.3279972915e-01 -1.9114567170e-01 1.3279972915e-01 -2.7155479089e+01" polarizability="3.4393819286e+01 -1.0408036198e+00 8.0879200781e-01 -1.0408036198e+00 3.7258324565e+01 -1.7997156251e-01 8.0879200781e-01 -1.7997156251e-01 3.3916163583e+01" charge=0 multiplicity=1 method=wB97M-V basis=def2-svpd config_type=h2so4 sample_index=448 temperature=300.0 units=atomic
S        -0.0352701845      -0.0177111766       0.1755901168   3.598481801646e-02   5.804212918099e-02  -1.883050898235e-02
O         0.0409454220       1.2823198255       0.8004071002  -1.993865274278e-02  -1.031713976602e-03   1.008339789984e-02
O         0.0382472501      -1.2600768326       0.8179035641  -6.462372306261e-03  -5.423249532990e-02   3.407540567413e-02
O         1.1949291728       0.0580335429      -0.8285388087  -3.287023222408e-02   2.703865401783e-01   9.020431609620e-02
O        -1.1863731067      -0.0583532116      -0.9034363492  -4.905161493062e-02   6.009378517121e-02   7.215449438336e-03
H         1.3189167919      -0.6880248004      -1.0953734278   5.739162529316e-02  -2.821960062855e-01  -1.082738663174e-01
H        -1.5954510943       0.8992395217      -0.7993846402   1.492582742797e-02  -5.098838370098e-02  -1.448489079909e-02
7
Properties=species:S:1:pos:R:3:forces:R:3 energy=-6.997808519584e+02 dipole="-1.0260087905e-02 -7.6092929186e-02 -1.0545360599e+00" quadrupole="-2.4130916077e+01 -4.3276260691e+00 9.6041727820e-01 -4.3276260691e+00 -2.7808065303e+01 -5.9158515577e-01 9.6041727820e-01 -5.9158515577e-01 -2.6249302707e+01" polarizability="3.9118042921e+01 -2.5667786564e+00 8.7265182805e-02 -2.5667786564e+00 3.9592178005e+01 -5.8227093565e-01 8.7265182805e-02 -5.8227093565e-01 3.6373698186e+01" charge=0 multiplicity=1 method=wB97M-V basis=def2-svpd config_type=h2so4 sample_index=449 temperature=300.0 units=atomic
S        -0.0182624039      -0.0042524311       0.1718504388   1.715082009176e-02  -9.419081879183e-03  -6.530139870678e-02
O        -0.0161428430       1.2577034212       0.7865367532  -6.965500535022e-04   4.781735249377e-02   3.583876018436e-02
O         0.0493432784      -1.2846076171       0.8060683001  -1.049501781654e-02  -1.321861634381e-02   8.639368699935e-03
O         1.3065962647       0.0529721752      -0.8514102938   7.939552199705e-04  -7.995321802215e-02   9.642404423865e-03
O        -1.3125270400      -0.0064158898      -0.8289286860   4.348738568879e-03  -1.195922692577e-02  -4.763931360285e-03
H         1.6658513925      -0.9790099748      -0.8722021953  -2.574763259169e-02   7.564520033496e-02  -9.817175729814e-04
H        -1.5254858558       0.8082884494      -1.3454704241   1.460813008179e-02  -8.912083281690e-03   1.688103877405e-02
7
Properties=species:S:1:pos:R:3:forces:R:3 energy=-6.997720606919e+02 dipole="-1.0366899730e-01 -1.0549430697e-02 -1.1765555071e+00" quadrupole="-2.5471483207e+01 -3.2417266537e+00 2.0707111396e-01 -3.2417266537e+00 -2.8181584063e+01 6.8683590046e-02 2.0707111396e-01 6.8683590046e-02 -2.6478707295e+01" polarizability="3.6497044648e+01 -1.3945144736e+00 3.6957227594e-01 -1.3945144736e+00 3.8908556375e+01 6.7595634161e-01 3.6957227594e-01 6.7595634161e-01 3.5923371398e+01" charge=0 multiplicity=1 method=wB97M-V basis=def2-svpd config_type=h2so4 sample_index=450 temperature=300.0 units=atomic
S        -0.0109303107       0.0132539543       0.1540990674   6.103683482567e-03   3.256389694757e-03   2.420939605915e-02
O        -0.0348430293       1.3080644007       0.8492725421   3.019271605748e-05  -3.095703801923e-02  -1.937694367871e-02
O         0.0805569534      -1.2955108721       0.8080867130  -1.682990926530e-02   2.368489432504e-02  -8.264259108810e-03
O         1.2785809160      -0.0047995579      -0.8343423185  -1.822466026547e-02   3.676852777734e-02   6.536232447539e-03
O        -1.2938834179      -0.0248543302      -0.8753498699   5.421188135930e-02  -1.950013728786e-01   7.525868630546e-02
H         1.2936688686      -0.9165543648      -1.0659873701   1.201204649922e-02  -3.277403312380e-02  -1.406871179820e-02
H        -1.4296450605       0.7627605210      -1.1321193980  -3.729806744539e-02   1.949528639086e-01  -6.435809777364e-02
7
Properties=species:S:1:pos:R:3:forces:R:3 energy=-6.997660253265e+02 dipole="5.9206273963e-02 2.1691214368e-02 -9.4202185487e-01" quadrupole="-2.3294251557e+01 -3.9762054844e+00 -4.9375945715e-03 -3.9762054844e+00 -2.8518699079e+01 -9.8116004363e-02 -4.9375945715e-03 -9.8116004363e-02 -2.8281321397e+01" polarizability="3.7751923392e+01 -1.9009606894e+00 6.8478329626e-01 -1.9009606894e+00 4.0141520247e+01 -4.1356771942e-02 6.8478329626e-01 -4.1356771942e-02 3.5532939709e+01" charge=0 multiplicity=1 method=wB97M-V basis=def2-svpd config_type=h2so4 sample_index=451 temperature=300.0 units=atomic
S        -0.0612552893       0.0010205017       0.1323142444   7.867842890861e-02  -5.660981345738e-02   6.210684006714e-02
O         0.0478365626       1.2963525255       0.8162145369  -2.967487726148e-02  -1.864570880306e-02  -1.232219235272e-02
O         0.0905709651      -1.3106283084       0.8284628989  -2.376988774443e-02   4.094520581602e-02  -1.741307293920e-02
O         1.2396935240       0.0465974389      -0.8141868519   3.668554174392e-02  -5.586150103399e-02  -1.087329326116e-02
O        -1.2882185339      -0.0349837070      -0.8804564712   1.361553460562e-02  -5.279269768887e-02   1.405459895791e-02
H         1.7926323534      -0.8596895590      -0.6855134575  -4.071947721271e-02   5.756985144092e-02  -8.116680110210e-03
H        -1.2839300400       0.8760916901      -0.8770613267  -3.482563063449e-02   8.539746926436e-02  -2.743774619099e-02
7
Properties=species:S:1:pos:R:3:forces:R:3 energy=-6.997755637888e+02 dipole="-1.4632896628e-01 1.1519064548e-01 -1.0467141226e+00" quadrupole="-2.3582164452e+01 -4.6411571819e+00 -2.5064157843e-01 -4.6411571819e+00 -2.7817578600e+01 5.3451973343e-01 -2.5064157843e-01 5.3451973343e-01 -2.7133824490e+01" polarizability="3.8793864924e+01 -2.2546081910e+00 6.1341011132e-01 -2.2546081910e+00 4.0300665366e+01 -4.6940255059e-01 6.1341011132e-01 -4.6940255059e-01 3.7380188558e+01" charge=0 multiplicity=1 method=wB97M-V basis=def2-svpd config_type=h2so4 sample_index=452 temperature=300.0 units=atomic
S         0.0095450110       0.0060777566       0.1747921891  -1.728945134011e-02  -5.979019558853e-02  -4.428368453048e-02
O         0.0258292341       1.2467978196       0.8198434491  -6.005774070684e-03   5.863472476400e-02   3.325248051989e-02
O        -0.0186400678      -1.2752746122       0.8609668713   6.154735063014e-03   1.062081080628e-02  -8.789166954356e-03
O         1.2468679579       0.0906568435      -0.8652811809   5.038090767940e-03  -5.892737331709e-02  -1.088049957883e-02
O        -1.2512610485      -0.0778648339      -0.9121817626  -2.792863089300e-02   8.427167101969e-02   1.327331600385e-02
H         1.4120207485      -0.8786615066      -1.1897227054  -5.136592297610e-03   4.760935634469e-02   1.314822299970e-02
H        -1.7578179477       0.9332267713      -0.9523053708   4.517839663599e-02  -8.242162533971e-02   4.227105835968e-03
7
Properties=species:S:1:pos:R:3:forces:R:3 energy=-6.997397584687e+02 dipole="-2.3150755519e-01 -9.4627922644e-03 -5.0240194883e-01" quadrupole="-2.1062030922e+01 -4.6027051697e+00 -7.5005845614e-01 -4.6027051697e+00 -2.8211945233e+01 9.0147411642e-01 -7.5005845614e-01 9.0147411642e-01 -2.9003266911e+01" polarizability="3.9221470290e+01 -4.7575795759e+00 6.9164491491e-02 -4.7575795759e+00 4.0683171563e+01 3.1159929973e-01 6.9164491491e-02 3.1159929973e-01 3.4884587640e+01" charge=0 multiplicity=1 method=wB97M-V basis=def2-svpd config_type=h2so4 sample_index=453 temperature=300.0 units=atomic
S         0.0033551901       0.0121316684       0.1946489547  -1.974123765448e-02  -4.710054593884e-02  -3.547633766228e-02
O        -0.0567165262       1.2899856403       0.7881783115   1.722410552478e-03   3.965023562363e-02   4.188490411357e-02
O         0.0846295137      -1.3047237649       0.8030464255  -9.928461846757e-03   7.447490385559e-03   2.102845902582e-02
O         1.1376594418      -0.0177338380      -0.8548112864   7.645891946038e-02  -5.875208478871e-02  -2.154989808824e-02
O        -1.1444930523       0.0174170399      -0.9267915381  -1.006165383473e-01   7.284634122333e-02   4.304590150359e-02
H         1.5324347638      -1.0022893546      -0.7990745876  -2.105159278043e-02   6.259222915356e-02  -6.629516619127e-03
H        -1.9712415065       0.8498673050      -0.4849384143   7.318944247459e-02  -7.669444169282e-02  -4.229552747059e-02
7
Properties=species:S:1:pos:R:3:forces:R:3 energy=-6.997816107698e+02 dipole="-2.1410999837e-01 -1.1544073231e-01 -8.5823241769e-01" quadrupole="-2.5874204058e+01 -3.2064164474e+00 6.6783018872e-01 -3.2064164474e+00 -2.7248284823e+01 -2.0270145773e-01 6.6783018872e-01 -2.0270145773e-01 -2.6943716621e+01" polarizability="3.6812007111e+01 -1.8133463175e+00 -9.3999886908e-01 -1.8133463175e+00 3.7942704000e+01 8.5515510154e-01 -9.3999886908e-01 8.5515510154e-01 3.7197490872e+01" charge=0 multiplicity=1 method=wB97M-V basis=def2-svpd config_type=h2so4 sample_index=454 temperature=300.0 units=atomic
S         0.0055230753      -0.0049745010       0.1982865484  -1.060125750491e-03   1.067193702330e-01  -7.625883339383e-02
O        -0.0910009296       1.2715153920       0.8802236763   1.139716704028e-02  -8.879742304305e-03  -5.569822709091e-03
O         0.0419113314      -1.2321225944       0.8325843617   5.150665419040e-04  -8.350387608898e-02   4.112311227218e-02
O         1.2803337079      -0.0040363222      -0.9513575206  -3.809356566213e-02  -1.513984832183e-02   3.877928026862e-02
O        -1.2243684805      -0.0184780857      -0.8990151288   2.126965531589e-02  -5.773391792753e-02   2.516899859505e-02
H         1.1751952193      -0.9694341921      -1.1100247185   1.804851899178e-02   8.326646660708e-03  -1.292223597453e-02
H        -1.4577556852       0.8532786359      -1.0975878026  -1.206808022139e-02   5.025852469383e-02  -1.036236896979e-02
7
Properties=species:S:1:pos:R:3:forces:R:3 energy=-6.997772474880e+02 dipole="5.4422200765e-01 -1.4611049884e-01 -9.8685063530e-01" quadrupole="-2.4341220745e+01 -3.8364187469e+00 -9.8823259655e-01 -3.8364187469e+00 -2.7765618755e+01 5.9997907668e-01 -9.8823259655e-01 5.9997907668e-01 -2.7938653678e+01" polarizability="3.5880427519e+01 -2.9281631671e+00 -2.5426315516e-01 -2.9281631671e+00 4.0423751366e+01 4.6699052196e-01 -2.5426315516e-01 4.6699052196e-01 3.4966317789e+01" charge=0 multiplicity=1 method=wB97M-V basis=def2-svpd config_type=h2so4 sample_index=455 temperature=300.0 units=atomic
S         0.0744181322      -0.0068945695       0.1452095207  -1.086910879074e-01   1.864956478400e-02   5.947826221270e-02
O        -0.1636714525       1.3172513314       0.8061635405   4.004558929207e-02  -3.944513985264e-02  -1.042968411025e-02
O         0.0430789880      -1.3063897291       0.8127286146   1.053222254426e-02   1.720374711186e-02  -6.770014860447e-04
O         1.2097825956      -0.0267085768      -0.8547270887   6.278732786777e-02  -2.858552038057e-02  -3.876232815381e-02
O        -1.2391540389       0.0306593800      -0.8324493050   1.095219434702e-02   8.612001334922e-03   1.156835394557e-03
H         1.4459046652      -1.0082869050      -0.9637424771  -2.203398365562e-03   3.407009417891e-02   2.282575940959e-04
H        -1.4167560013       0.9886591726      -0.7013872925  -1.347312588258e-02  -1.044973482553e-02  -1.109324499754e-02
7
Properties=species:S:1:pos:R:3:forces:R:3 energy=-6.997769675513e+02 dipole="-2.5891768443e-01 1.5244140867e-01 -1.7389431368e+00" quadrupole="-2.5238112920e+01 -3.2891537533e+00 8.4284023996e-02 -3.2891537533e+00 -2.9106791232e+01 -3.5123188628e-01 8.4284023996e-02 -3.5123188628e-01 -2.4699489047e+01" polarizability="3.5646409897e+01 -7.8025983285e-01 6.4783589403e-02 -7.8025983285e-01 3.9987892402e+01 -8.2825825468e-01 6.4783589403e-02 -8.2825825468e-01 3.7198744942e+01" charge=0 multiplicity=1 method=wB97M-V basis=def2-svpd config_type=h2so4 sample_index=456 temperature=300.0 units=atomic
S        -0.0248740250      -0.0054313027       0.1408240068   4.804069552541e-02   3.665095376941e-03   7.075431204622e-02
O         0.0203920197       1.3020036391       0.8473588133  -5.807665679212e-03  -4.256032370665e-02  -2.673018363345e-02
O        -0.0102124308      -1.2930207735       0.8548448041  -1.604677244878e-03   3.121618131018e-02  -1.876380113219e-02
O         1.2557625323       0.0652836058      -0.8543639962  -1.342573496787e-02   1.036585643543e-01   8.505875803079e-02
O        -1.2158453883      -0.0820168377      -0.8410081901  -3.809124859552e-02   5.921459515445e-02  -5.262717346366e-02
H         1.3352484470      -0.5811585119      -1.4397055016   6.757065676659e-03  -1.004655508774e-01  -8.104691222496e-02
H        -1.3431495278       0.8780400332      -1.2621858332   4.048373312188e-03  -5.470251606119e-02   2.328809005359e-02
7
Properties=species:S:1:pos:R:3:forces:R:3 energy=-6.997923800050e+02 dipole="9.4237223894e-02 7.4502980502e-02 -1.1785098870e+00" quadrupole="-2.4233792557e+01 -3.7781038451e+00 8.7738869764e-01 -3.7781038451e+00 -2.8060478557e+01 -8.8928187808e-01 8.7738869764e-01 -8.8928187808e-01 -2.7104332139e+01" polarizability="3.6705622309e+01 -2.0308771962e+00 -6.8217880425e-01 -2.0308771962e+00 3.8383776384e+01 -6.2632913489e-01 -6.8217880425e-01 -6.2632913489e-01 3.5658892097e+01" charge=0 multiplicity=1 method=wB97M-V basis=def2-svpd config_type=h2so4 sample_index=457 temperature=300.0 units=atomic
S        -0.0129837949       0.0081192159       0.1306496011   3.389011235532e-02  -2.302197380551e-02   2.859413030005e-02
O        -0.0635622760       1.2485139174       0.8413250935   8.783873277273e-03   2.182705159499e-02   4.599896189328e-03
O         0.0369160962      -1.2627095074       0.8223869108  -6.707614564017e-05  -1.402228557033e-03  -3.986529147120e-03
O         1.2885523352       0.0151596957      -0.8915300777  -1.388131855495e-02  -1.517574663269e-02   1.420964477713e-02
O        -1.2625674633      -0.0175657857      -0.7932669790  -1.434921176171e-02   2.966593232347e-02  -4.541667402243e-02
H         1.6755617878      -0.8843827121      -0.7358919306  -3.836835548285e-03   1.650612541639e-02  -7.250561416148e-03
H        -1.2573216399       0.8983094267      -1.2181132335  -1.057098889945e-02  -2.841816555624e-02   9.124187606917e-03
7
Properties=species:S:1:pos:R:3:forces:R:3 energy=-6.997707088763e+02 dipole="3.1101561106e-01 -6.6565391871e-02 -1.5265882270e+00" quadrupole="-2.4030353778e+01 -4.4720958165e+00 -2.9912715647e-01 -4.4720958165e+00 -2.7890409373e+01 -3.9649470994e-01 -2.9912715647e-01 -3.9649470994e-01 -2.6268272289e+01" polarizability="3.7880261819e+01 -2.8268368065e+00 9.7857475742e-01 -2.8268368065e+00 4.0748536539e+01 -2.2988626764e-01 9.7857475742e-01 -2.2988626764e-01 3.7208360704e+01" charge=0 multiplicity=1 method=wB97M-V basis=def2-svpd config_type=h2so4 sample_index=458 temperature=300.0 units=atomic
S         0.0115186446      -0.0068793311       0.1230252211  -4.574268087206e-02   1.930480352473e-02   4.597880608566e-02
O        -0.0024194201       1.2609644742       0.8364532431  -2.224628705773e-03  -4.907172245805e-03  -1.064374793254e-02
O         0.0421351616      -1.2553229416       0.8331733257  -6.299678860501e-03  -1.599888026937e-02   3.122183134003e-04
O         1.2353206389       0.0508626103      -0.7994911555   6.535157955610e-02  -6.676483970558e-02  -6.004744653259e-02
O        -1.3098083317      -0.0447929075      -0.8530504459   1.104773633171e-02   7.644598109540e-02  -2.878215047408e-02
H         1.6001327723      -0.9484688727      -1.0505172420  -2.943710623913e-02   7.135902702060e-02   1.929074018160e-02
H        -1.4136227559       0.9827145042      -1.2695473914   7.302647311353e-03  -7.941907907090e-02   3.374957967273e-02
7
Properties=species:S:1:pos:R:3:forces:R:3 energy=-6.997808887627e+02 dipole="-7.2113429731e-02 -6.4504863967e-02 -1.0254377236e+00" quadrupole="-2.5618773447e+01 -3.3972482890e+00 4.2313795534e-01 -3.3972482890e+00 -2.7344490990e+01 -6.6383639358e-01 4.2313795534e-01 -6.6383639358e-01 -2.6944434722e+01" polarizability="3.5661765485e+01 -1.5679202242e+00 1.9896842775e-01 -1.5679202242e+00 3.7234656010e+01 -4.2696696598e-01 1.9896842775e-01 -4.2696696598e-01 3.5253364556e+01" charge=0 multiplicity=1 method=wB97M-V basis=def2-svpd config_type=h2so4 sample_index=459 temperature=300.0 units=atomic
S         0.0006304392      -0.0209465966       0.1601379993  -1.144351911278e-02   9.298825186797e-02  -3.342817797869e-02
O        -0.0491611237       1.2480758723       0.8271686558   3.645919464503e-03   1.402297635511e-02   8.458074353468e-03
O         0.0475051728      -1.2331877591       0.8356317288   2.422928756324e-04  -7.740933450589e-02   3.219927248542e-02
O         1.2637516195       0.0364371840      -0.8734542286  -2.353575631327e-02   5.783431477676e-02   2.174258231636e-02
O        -1.2588226751      -0.0163587673      -0.8618621612   3.631080673596e-03   3.766524280454e-02  -8.714333723441e-03
H         1.2783519600      -0.8675750269      -0.9528152935   2.817214071160e-02  -8.066116970435e-02  -2.823428393525e-02
H        -1.3520990475       0.9789690134      -1.1012210543  -7.113836696773e-04  -4.447009933457e-02   7.882111277821e-03
7
Properties=species:S:1:pos:R:3:forces:R:3 energy=-6.997860119534e+02 dipole="-1.6044079813e-01 1.5705762302e-01 -1.2607210257e+00" quadrupole="-2.3207656896e+01 -4.1136451394e+00 8.2007501858e-01 -4.1136451394e+00 -2.8242773869e+01 -1.3861242558e-01 8.2007501858e-01 -1.3861242558e-01 -2.7143383768e+01" polarizability="3.5857271417e+01 -1.3958804907e+00 3.8529009699e-01 -1.3958804907e+00 3.7429571331e+01 -8.7509250321e-01 3.8529009699e-01 -8.7509250321e-01 3.5344310939e+01" charge=0 multiplicity=1 method=wB97M-V basis=def2-svpd config_type=h2so4 sample_index=460 temperature=300.0 units=atomic
S         0.0171992855       0.0187998610       0.1284206765  -2.789446284726e-02  -5.112617802366e-02   2.794916068993e-02
O        -0.0129978740       1.2213698721       0.8434222419   1.309035901008e-03   6.300579802494e-02   2.722680635205e-02
O        -0.0175709429      -1.2574592598       0.8521668876   1.166103265736e-02   1.437632755052e-02  -2.304239818158e-02
O         1.2451875452       0.0606176316      -0.8652295749  -3.701230214133e-03   3.037696396496e-02  -2.461887958844e-04
O        -1.2290596611      -0.0587181801      -0.8427013176  -3.275822681874e-02   2.116481892120e-02  -2.843074447750e-02
H         1.3835982029      -0.8554345489      -0.9195908038   2.601965571266e-02  -5.052822722249e-02  -1.774377533816e-02
H        -1.6996690871       0.8021488547      -1.0932599386   2.541755365387e-02  -2.728460467699e-02   1.418750927190e-02
7
Properties=species:S:1:pos:R:3:forces:R:3 energy=-6.997833229007e+02 dipole="1.5794929811e-01 -1.2876851060e-01 -1.0596402301e+00" quadrupole="-2.4800116957e+01 -3.9228731835e+00 4.7793081477e-01 -3.9228731835e+00 -2.7565042313e+01 -4.9923252444e-01 4.7793081477e-01 -4.9923252444e-01 -2.6506853085e+01" polarizability="3.6420435221e+01 -1.3932354100e+00 -9.0819439549e-02 -1.3932354100e+00 3.7642444806e+01 -6.6521869344e-01 -9.0819439549e-02 -6.6521869344e-01 3.6458041200e+01" charge=0 multiplicity=1 method=wB97M-V basis=def2-svpd config_type=h2so4 sample_index=461 temperature=300.0 units=atomic
S         0.0151847445      -0.0190593424       0.1777541760  -2.277642225258e-02   1.928255712524e-02  -7.537162130364e-02
O        -0.0091482094       1.2131823535       0.8235584211   4.456548859469e-04   7.138725964622e-02   4.216803681430e-02
O        -0.0090702410      -1.2416815511       0.8750645706   5.059063122633e-03  -4.805029136429e-02   1.059269175056e-02
O         1.2324920069       0.1014257424      -0.9097501399   6.028675431427e-03  -8.420531478115e-02   1.599103307408e-02
O        -1.2478062866      -0.0274053637      -0.8825727586   7.486779041734e-03  -3.047908540753e-02   1.611773298529e-02
H         1.4677884405      -0.9244081089      -0.9587808526  -1.240482990409e-03   5.828954899466e-02  -9.822547326655e-03
H        -1.4202238846       0.8129038377      -1.3062584662   5.060445529464e-03   1.375200834005e-02   2.149021720990e-04
7
Properties=species:S:1:pos:R:3:forces:R:3 energy=-6.997624261409e+02 dipole="-3.0357551904e-01 5.4984058434e-02 -1.2429466052e+00" quadrupole="-2.6035532593e+01 -3.5852942729e+00 -3.0675974106e-01 -3.5852942729e+00 -2.7680067191e+01 7.5222954186e-01 -3.0675974106e-01 7.5222954186e-01 -2.6557737993e+01" polarizability="3.8568935390e+01 -2.8839198661e+00 -1.1323953508e+00 -2.8839198661e+00 4.2461033847e+01 5.2846925302e-01 -1.1323953508e+00 5.2846925302e-01 3.6705880685e+01" charge=0 multiplicity=1 method=wB97M-V basis=def2-svpd config_type=h2so4 sample_index=462 temperature=300.0 units=atomic
S        -0.0393797868      -0.0038575440       0.1378350875   7.230303957951e-02  -3.740582933688e-02   4.021845091568e-02
O        -0.0797038095       1.3154823271       0.7679158888   6.663273247941e-03  -1.421488239577e-02   1.495748232470e-03
O         0.0953282469      -1.3239739156       0.8045040298  -2.097747112588e-02   4.021752842930e-02  -1.300916300284e-02
O         1.3564848684       0.0043443776      -0.8051123764  -4.130199979185e-02  -7.126958956621e-02  -3.361131009147e-02
O        -1.2919391503       0.0080819031      -0.7944666762  -1.163764902966e-02   6.219100350782e-02  -2.392126153346e-02
H         1.3112987394      -1.0116851617      -1.2705769366   9.125087353339e-03   7.908516076084e-02   3.669956305943e-02
H        -1.3370986214       1.0717104274      -0.8400598453  -1.417445725607e-02  -5.865466561940e-02  -7.880291322561e-03
7
Properties=species:S:1:pos:R:3:forces:R:3 energy=-6.997792086275e+02 dipole="-5.7209302657e-02 -2.4202495590e-01 -1.3019831322e+00" quadrupole="-2.4392557580e+01 -3.9422439362e+00 -9.2954384744e-01 -3.9422439362e+00 -2.8238782701e+01 7.0171424405e-01 -9.2954384744e-01 7.0171424405e-01 -2.6466630192e+01" polarizability="3.6170230069e+01 -2.0941340236e+00 -4.5651206325e-01 -2.0941340236e+00 4.0880565829e+01 1.1330987357e+00 -4.5651206325e-01 1.1330987357e+00 3.7824790873e+01" charge=0 multiplicity=1 method=wB97M-V basis=def2-svpd config_type=h2so4 sample_index=463 temperature=300.0 units=atomic
S         0.0161759896      -0.0425237258       0.1656202455  -2.272253666418e-02   8.456124217723e-02   1.995177363948e-02
O        -0.0264575666       1.3059502345       0.8260728103   3.099439273761e-03  -5.228499405031e-02  -1.768973782518e-02
O         0.0078138334      -1.2754373781       0.8823409913   2.078327750838e-03  -1.846739110621e-02   4.586152333138e-03
O         1.1934797234       0.0738530655      -0.8644635267   3.426496137587e-02  -7.476131416617e-02  -5.177374114145e-02
O        -1.1874301588      -0.0237673213      -0.9130559262  -2.952730609522e-02   3.791443376042e-02   8.901147299769e-03
H         1.2686998001      -0.8633889271      -1.4282802772  -4.089718629751e-03   6.776189918161e-02   4.139659164213e-02
H        -1.5786710470       0.9281143282      -0.8400655632   1.700719885089e-02  -4.469232580246e-02  -5.445368189560e-03
7
Properties=species:S:1:pos:R:3:forces:R:3 energy=-6.997600096088e+02 dipole="-1.7020592576e-01 1.4562438950e-01 -6.1446981750e-01" quadrupole="-2.2775993105e+01 -4.4671760479e+00 2.4191696704e-01 -4.4671760479e+00 -2.8217924685e+01 2.1244126483e-01 2.4191696704e-01 2.1244126483e-01 -2.7335490602e+01" polarizability="3.9580161152e+01 -2.2491037865e+00 7.6308563429e-01 -2.2491037865e+00 4.0452939777e+01 -2.0604449050e-01 7.6308563429e-01 -2.0604449050e-01 3.5974546409e+01" charge=0 multiplicity=1 method=wB97M-V basis=def2-svpd config_type=h2so4 sample_index=464 temperature=300.0 units=atomic
S         0.0263468409       0.0245331815       0.2202095007  -2.779621062670e-02  -3.003577926465e-02  -8.864899986647e-02
O        -0.0190219746       1.3223577553       0.7927747716   6.233997201771e-03   1.837989307327e-02   2.616209594379e-02
O        -0.0264854852      -1.3140612724       0.7465594087   1.280546528759e-02   1.327191284993e-03   2.712394260028e-02
O         1.2666609202       0.0249159714      -0.8733518898  -4.779859109116e-02   1.343899826170e-01   4.314212613087e-02
O        -1.2475869062      -0.0845136349      -0.8682710476  -4.185619198704e-02   7.829299400532e-02   7.148749934679e-03
H         1.4988285396      -0.8033881258      -1.0191470417   3.546804218359e-02  -1.293639853738e-01  -2.286822861116e-02
H        -1.9098262424       0.8325123445      -0.9142671573   6.287422437901e-02  -7.299975808398e-02   7.912347429832e-03
7
Properties=species:S:1:pos:R:3:forces:R:3 energy=-6.997846140102e+02 dipole="3.2718428998e-02 1.3778723625e-01 -9.6550857593e-01" quadrupole="-2.4295925081e+01 -4.0376263885e+00 6.2615881129e-02 -4.0376263885e+00 -2.7722798600e+01 -2.0400420025e-02 6.2615881129e-02 -2.0400420025e-02 -2.7459817072e+01" polarizability="3.7661122353e+01 -2.2928030174e+00 8.1657114467e-02 -2.2928030174e+00 3.9229042605e+01 -1.8698871738e+00 8.1657114467e-02 -1.8698871738e+00 3.5700858746e+01" charge=0 multiplicity=1 method=wB97M-V basis=def2-svpd config_type=h2so4 sample_index=465 temperature=300.0 units=atomic
S        -0.0086661459      -0.0095990836       0.1496749669   7.697046939935e-03  -1.050793123636e-01  -1.635092211098e-02
O        -0.0589018708       1.2393618268       0.7447355349   4.529276783138e-03   8.449946368556e-02   5.712785433227e-02
O         0.0777926605      -1.3319490031       0.8802842841  -1.178496940212e-02   6.091518559627e-02  -4.220572152328e-02
O         1.2942368356       0.0521809655      -0.8446686725  -2.153713527958e-02  -8.911673390999e-03   8.051906460604e-03
O        -1.3011052298       0.0533170310      -0.8445659151   1.180844670584e-02  -3.220041939586e-02  -1.493955253984e-03
H         1.5682496015      -0.8724087669      -0.8817219923   9.039639750814e-03  -5.504554872716e-03  -6.298553034898e-03
H        -1.4906519644       0.9852422478      -1.0026972057   2.128125732224e-04   6.302397242106e-03   1.179424394668e-03
7
Properties=species:S:1:pos:R:3:forces:R:3 energy=-6.997754125117e+02 dipole="1.9072868577e-01 -1.1764536963e-01 -1.1753098740e+00" quadrupole="-2.4494469708e+01 -4.2394253198e+00 2.8380300129e-01 -4.2394253198e+00 -2.7841450181e+01 -4.7835550351e-01 2.8380300129e-01 -4.7835550351e-01 -2.6088087309e+01" polarizability="3.7308514469e+01 -1.5586532860e+00 -4.7791764527e-01 -1.5586532860e+00 3.9958245580e+01 -1.5207002265e+00 -4.7791764527e-01 -1.5207002265e+00 3.8519313584e+01" charge=0 multiplicity=1 method=wB97M-V basis=def2-svpd config_type=h2so4 sample_index=466 temperature=300.0 units=atomic
S         0.0267060346      -0.0373622877       0.1944066149  -2.851026815591e-02   1.951788061961e-02  -5.738358503739e-02
O         0.0000830760       1.2350141550       0.8043657859   4.205205854638e-03   3.982898418077e-02   3.576096452745e-02
O        -0.0581749404      -1.2791198656       0.9132657851   1.293097672618e-02  -6.396259817951e-03  -1.089549348266e-02
O         1.2053121861       0.1493716245      -0.9410874751   2.199142531506e-02  -8.997148621245e-02   1.067133331131e-02
O        -1.2049671468      -0.0325961832      -0.8886940172  -2.253505397621e-02   2.861132875621e-02  -1.932223790834e-02
H         1.5116209535      -0.8462705784      -1.1423740099  -1.319616245094e-02   6.138197872820e-02   4.815264514224e-03
H        -1.4452503755       0.8886094586      -1.3480402379   2.521872705780e-02  -5.300143231930e-02   3.629228295438e-02
7
Properties=species:S:1:pos:R:3:forces:R:3 energy=-6.997591344750e+02 dipole="-2.5251578032e-01 1.3633874317e-01 -1.2628987008e+00" quadrupole="-2.3855876237e+01 -4.3843000618e+00 1.1976066704e+00 -4.3843000618e+00 -2.7771399413e+01 3.3081688435e-02 1.1976066704e+00 3.3081688435e-02 -2.5736115690e+01" polarizability="3.9989831491e+01 -3.4986156192e+00 1.6024920005e+00 -3.4986156192e+00 4.1039021746e+01 -4.1588476476e-01 1.6024920005e+00 -4.1588476476e-01 3.8763236072e+01" charge=0 multiplicity=1 method=wB97M-V basis=def2-svpd config_type=h2so4 sample_index=467 temperature=300.0 units=atomic
S         0.0217560433       0.0384351562       0.1809148665  -1.955062710451e-02  -2.812219965132e-02  -5.483943276505e-02
O        -0.0446030044       1.2738198892       0.8691986991   1.043813427811e-02   2.982743500092e-02   1.320826316522e-02
O         0.0067795721      -1.2616894882       0.7831567681   1.757267715930e-03  -1.229022352536e-02   1.706813392132e-02
O         1.2759903092      -0.0024560101      -0.8772350282  -6.615843658999e-03  -3.628929215110e-02  -6.365136051148e-03
O        -1.2509462165      -0.0784345184      -0.8594460198  -4.521078106354e-02   7.081017159750e-02  -3.831629581283e-02
H         1.3327715328      -0.9901396648      -1.2065921748  -3.268206211789e-03   5.204528770738e-02   1.906982506013e-02
H        -1.8154582173       0.8532493966      -1.3263655807   6.247824460039e-02  -7.599262277142e-02   5.014806409766e-02
7
Properties=species:S:1:pos:R:3:forces:R:3 energy=-6.997706256034e+02 dipole="2.9787154098e-01 -1.8866691066e-01 -1.3963305683e+00" quadrupole="-2.6153598426e+01 -3.3122969783e+00 -1.2116458249e-01 -3.3122969783e+00 -2.8540990961e+01 -6.1971616768e-01 -1.2116458249e-01 -6.1971616768e-01 -2.4165638544e+01" polarizability="3.7737538169e+01 -3.6108269278e-01 6.7160423420e-01 -3.6108269278e-01 3.9308766240e+01 -8.9021523791e-01 6.7160423420e-01 -8.9021523791e-01 3.9269307009e+01" charge=0 multiplicity=1 method=wB97M-V basis=def2-svpd config_type=h2so4 sample_index=468 temperature=300.0 units=atomic
S         0.0178161682      -0.0209815911       0.1909658254  -2.371506398677e-02   9.048558701717e-02  -7.084480563212e-02
O         0.0428105120       1.2721364888       0.8294508668  -2.639849855151e-03  -4.957840094509e-03   5.722178760580e-03
O        -0.0526486964      -1.2528805995       0.8209033278   7.928556635598e-03  -7.587656956325e-02   4.235388909202e-02
O         1.2597186036       0.1214444605      -0.8741693687  -1.010338556366e-02  -1.118605249776e-02   8.751861908415e-03
O        -1.3028331702      -0.0984991339      -0.8586144649   3.848259535673e-02   7.443457700214e-02  -5.163646856855e-02
H         1.4501647537      -0.7490776218      -1.2522478331   1.473795318458e-03  -2.834737449531e-03  -2.133370881108e-03
H        -1.1754956195       0.7485890085      -1.6237622457  -1.138880087788e-02  -7.014817370411e-02   6.781264668647e-02
7
Properties=species:S:1:pos:R:3:forces:R:3 energy=-6.997865643137e+02 dipole="3.4746295429e-02 2.3247314482e-01 -1.2462882317e+00" quadrupole="-2.3215085269e+01 -4.2908590269e+00 -1.4274121360e-01 -4.2908590269e+00 -2.8172188001e+01 2.8872368158e-01 -1.4274121360e-01 2.8872368158e-01 -2.6381036950e+01" polarizability="3.6685495072e+01 -1.4624490013e+00 -3.0357105676e-01 -1.4624490013e+00 3.7943321561e+01 -7.6153094097e-01 -3.0357105676e-01 -7.6153094097e-01 3.7009283376e+01" charge=0 multiplicity=1 method=wB97M-V basis=def2-svpd config_type=h2so4 sample_index=469 temperature=300.0 units=atomic
S        -0.0133174284       0.0224373445       0.1681944185   1.658586733253e-02  -1.495155019265e-01  -4.875895820766e-02
O         0.0216845865       1.2098622039       0.8440955145  -2.948104558390e-03   1.123449166642e-01   5.315466247796e-02
O        -0.0066564589      -1.2665165417       0.8827090901  -1.003489317811e-03   2.814821799191e-02  -2.294750880037e-02
O         1.2198156529       0.0716064356      -0.9000128021   1.637420123395e-02  -1.497106347261e-02  -4.454297268556e-03
O        -1.2194226400      -0.0619259304      -0.8942365398  -8.710086835112e-03   5.522684591250e-03   2.827369980968e-03
H         1.6761835014      -0.7808456372      -1.1767937076  -2.456171703225e-02   2.234005644301e-02   1.680070775090e-02
H        -1.5008361150       0.8204626584      -1.2015221325   4.218506388332e-03  -3.827138915325e-03   3.288719492323e-03
7
Properties=species:S:1:pos:R:3:forces:R:3 energy=-6.997946697550e+02 dipole="1.5014605401e-01 -7.6920327435e-02 -1.4197494009e+00" quadrupole="-2.6018395036e+01 -3.2864027314e+00 -8.1869214765e-02 -3.2864027314e+00 -2.8443552621e+01 -3.2404410674e-01 -8.1869214765e-02 -3.2404410674e-01 -2.5357981753e+01" polarizability="3.7301133570e+01 -1.0608849874e+00 4.7471565258e-01 -1.0608849874e+00 4.0511501240e+01 -3.8195740751e-01 4.7471565258e-01 -3.8195740751e-01 3.8277188592e+01" charge=0 multiplicity=1 method=wB97M-V basis=def2-svpd config_type=h2so4 sample_index=470 temperature=300.0 units=atomic
S         0.0040040906      -0.0095634451       0.1670981702  -1.318945001580e-02   2.280481204498e-02   1.280001794866e-02
O        -0.0013673252       1.2996875873       0.8445905873   2.617305698908e-04  -3.545368046953e-02  -1.634623268457e-02
O         0.0158772424      -1.2986033462       0.8502876019  -1.330680838652e-03   1.978450522433e-02  -1.242917012522e-02
O         1.2580774299       0.0696805102      -0.8686392226  -1.089010213999e-02  -4.902219996867e-03   5.109799659952e-03
O        -1.2900676737      -0.0512473610      -0.8777372935   2.701082260874e-02   3.674220491743e-02  -9.453207599270e-03
H         1.3759046853      -0.8329445181      -1.2040543343   4.425096950988e-03  -1.354839626126e-03  -2.857299934289e-03
H        -1.2266697014       0.8292333293      -1.4044604963  -6.299804863413e-03  -3.762448492760e-02   2.313755235012e-02
7
Properties=species:S:1:pos:R:3:forces:R:3 energy=-6.997548488063e+02 dipole="-1.8938692811e-01 -3.1049885771e-02 -1.1101218139e+00" quadrupole="-2.2659755995e+01 -4.2249988344e+00 -2.2520160147e-02 -4.2249988344e+00 -2.8215641484e+01 -1.4361561119e-01 -2.2520160147e-02 -1.4361561119e-01 -2.7985982793e+01" polarizability="3.7805927723e+01 -1.9835481199e+00 -3.9806442428e-01 -1.9835481199e+00 3.7963986566e+01 -5.5353702677e-01 -3.9806442428e-01 -5.5353702677e-01 3.6026734600e+01" charge=0 multiplicity=1 method=wB97M-V basis=def2-svpd config_type=h2so4 sample_index=471 temperature=300.0 units=atomic
S        -0.0160543916      -0.0302076724       0.1062766150   2.966386104646e-02   4.444534351138e-02   5.081329163180e-02
O        -0.0704416478       1.2573647320       0.8351175551   9.335241965911e-03  -2.481284996920e-02  -2.447251617042e-02
O         0.0578054950      -1.2490498586       0.8816305709  -5.659778616135e-03  -6.658325940165e-03  -1.856184010416e-02
O         1.3319600765       0.0099716171      -0.8666361192  -1.496770005789e-01   2.591641339576e-01   3.897650699066e-02
O        -1.2880847474       0.0270355111      -0.8351644209  -1.274558869913e-02   1.128357486649e-02  -1.801503954074e-02
H         1.6762221952      -0.7178106331      -0.9635192022   1.140309058040e-01  -2.557275169683e-01  -2.949705909247e-02
H        -1.6656070194       0.9607702248      -0.7996421115   1.508111288706e-02  -2.762357590920e-02   7.004894666089e-04
7
Properties=species:S:1:pos:R:3:forces:R:3 energy=-6.997674813991e+02 dipole="-2.7933695272e-01 1.1381979502e-02 -8.2283921128e-01" quadrupole="-2.1051629871e+01 -5.1451714011e+00 3.6979949836e-01 -5.1451714011e+00 -2.8599711882e+01 1.0726334281e-01 3.6979949836e-01 1.0726334281e-01 -2.8339179466e+01" polarizability="4.0377951316e+01 -3.4415797644e+00 -1.0834638154e-01 -3.4415797644e+00 4.1041725647e+01 -3.3113737945e-01 -1.0834638154e-01 -3.3113737945e-01 3.3854894147e+01" charge=0 multiplicity=1 method=wB97M-V basis=def2-svpd config_type=h2so4 sample_index=472 temperature=300.0 units=atomic
S        -0.0038208132       0.0094075963       0.1198934802   7.083518263299e-03  -2.540494154489e-02   2.514481047641e-02
O        -0.0312691456       1.3011484581       0.7328860577   2.144422477119e-03   1.943348225808e-02   2.559818639589e-02
O         0.0276724683      -1.3254389062       0.7464585005   3.246867784451e-04   2.589104027759e-02  -2.886625224955e-03
O         1.3362235524       0.0336133614      -0.7665256310   1.525312709421e-02  -7.834430898306e-02  -3.950540200547e-03
O        -1.3065379888      -0.0177245388      -0.7565733996  -6.218103580433e-02   3.995602845314e-02  -2.942334047840e-02
H         1.6821263939      -0.9969468970      -0.6480848861  -2.138239676805e-02   7.305038086942e-02  -1.333243505179e-02
H        -1.9762994943       0.8307547873      -0.6794029219   5.874368370033e-02  -5.463350441877e-02  -1.118818622908e-03
7
Properties=species:S:1:pos:R:3:forces:R:3 energy=-6.997829000580e+02 dipole="-5.2007483807e-01 -7.9993163518e-02 -1.0985406885e+00" quadrupole="-2.4342695501e+01 -3.6777585771e+00 9.7923368188e-01 -3.6777585771e+00 -2.8478390200e+01 -3.2827670966e-01 9.7923368188e-01 -3.2827670966e-01 -2.6742126739e+01" polarizability="3.7047507149e+01 -9.1391016151e-01 1.3251095558e-01 -9.1391016151e-01 3.9272746648e+01 4.4773190000e-01 1.3251095558e-01 4.4773190000e-01 3.6009508872e+01" charge=0 multiplicity=1 method=wB97M-V basis=def2-svpd config_type=h2so4 sample_index=473 temperature=300.0 units=atomic
S        -0.0400818812      -0.0037066998       0.1637440766   4.509641012617e-02   7.597561659220e-02   1.036168992261e-02
O         0.0219487066       1.3247950979       0.8398415756  -1.465328640425e-02  -5.100668704540e-02  -2.073651583001e-02
O         0.0378656630      -1.2907035121       0.7957809206  -9.547385839145e-03  -6.378301105748e-03   6.340220278265e-03
O         1.2950768171       0.0409460980      -0.8498682923  -3.967064236478e-02   7.382667357159e-02   3.190619416725e-02
O        -1.2540841610      -0.0619455677      -0.8628123697   8.815330901106e-03  -4.564423866835e-02   7.013657496898e-03
H         1.3113591241      -0.8442174734      -1.0130162693   2.052529713938e-02  -8.795307475303e-02  -2.864268758740e-02
H        -1.6438135190       0.7489870391      -1.1067058254  -1.061935108779e-02   4.121525099302e-02  -6.257004166199e-03
7
Properties=species:S:1:pos:R:3:forces:R:3 energy=-6.997803515303e+02 dipole="-5.6293955398e-03 -3.7556602862e-01 -9.3542877866e-01" quadrupole="-2.3682755346e+01 -4.4483745518e+00 -3.0784118835e-02 -4.4483745518e+00 -2.7879603896e+01 -3.8418847698e-01 -3.0784118835e-02 -3.8418847698e-01 -2.7662658584e+01" polarizability="3.8486483172e+01 -2.3100971061e+00 3.2610764617e-02 -2.3100971061e+00 4.1066508462e+01 2.9971260758e-01 3.2610764617e-02 2.9971260758e-01 3.6997058178e+01" charge=0 multiplicity=1 method=wB97M-V basis=def2-svpd config_type=h2so4 sample_index=474 temperature=300.0 units=atomic
S        -0.0028880943      -0.0553702536       0.1731362524  -8.915314039230e-03   1.488598203486e-01  -2.613928351446e-02
O        -0.0138190735       1.3180371419       0.8031338426  -2.906876279164e-03  -6.278997372398e-02  -1.325492374351e-02
O         0.0367999468      -1.2878271129       0.8520259769  -2.800146635724e-03  -4.232807644098e-02   1.598955957314e-02
O         1.2538199683       0.0806082196      -0.8681154067   7.301655791887e-03  -9.101205025370e-02   6.142558461761e-03
O        -1.2661730703       0.0029757870      -0.8932205575   1.002768617224e-02  -2.025152851782e-02   1.138078217120e-02
H         1.5485292136      -0.9509371838      -0.9640413979  -1.179921547918e-02   6.922853890457e-02  -1.128462186725e-03
H        -1.6287494576       0.9025237978      -0.9851692707   9.077610278932e-03  -1.627202453964e-03   7.004036476550e-03
7
Properties=species:S:1:pos:R:3:forces:R:3 energy=-6.997394342049e+02 dipole="1.2460306026e-01 -4.7346242025e-02 -1.0227314681e+00" quadrupole="-2.2524515639e+01 -5.0322476328e+00 1.9769503931e+00 -5.0322476328e+00 -2.7891968695e+01 -1.6121078802e+00 1.9769503931e+00 -1.6121078802e+00 -2.7687437261e+01" polarizability="4.2327873543e+01 -5.0621922669e+00 -4.4541063260e-02 -5.0621922669e+00 4.2979285833e+01 -3.7447822208e-01 -4.4541063260e-02 -3.7447822208e-01 3.8547637978e+01" charge=0 multiplicity=1 method=wB97M-V basis=def2-svpd config_type=h2so4 sample_index=475 temperature=300.0 units=atomic
S         0.0092273579       0.0133857299       0.1468119193   1.557259169976e-03   5.465652155103e-02  -3.666657211316e-03
O        -0.0992343734       1.3009589454       0.8838978335   1.898262709052e-02  -3.806810110857e-02  -2.373028548550e-02
O         0.0366880835      -1.2709026158       0.7827690975   9.651936493288e-04  -1.613948184095e-02   1.401491567671e-02
O         1.3081685948      -0.0276419076      -0.9287834469   2.166349092369e-02  -8.115161924605e-02   5.685214181692e-02
O        -1.2809734816      -0.0202503404      -0.8011314829  -2.564064496221e-02   5.625410073596e-02  -4.952668168607e-02
H         1.8640844831      -1.0632680246      -0.5315782514  -5.029477593875e-02   9.269265405095e-02  -3.698208017651e-02
H        -1.5967355160       0.9236801037      -1.2769905270   3.274873600896e-02  -6.817557742915e-02   4.300340879786e-02
7
Properties=species:S:1:pos:R:3:forces:R:3 energy=-6.997847224559e+02 dipole="4.2042354501e-01 1.1412984486e-01 -1.4818232053e+00" quadrupole="-2.3924697871e+01 -4.0623298454e+00 -3.8440143708e-01 -4.0623298454e+00 -2.8114312767e+01 1.1890004821e-01 -3.8440143708e-01 1.1890004821e-01 -2.5603121529e+01" polarizability="3.6274676615e+01 -2.2383627202e+00 -5.6472674524e-02 -2.2383627202e+00 3.8338725260e+01 -7.5850742443e-01 -5.6472674524e-02 -7.5850742443e-01 3.6021244404e+01" charge=0 multiplicity=1 method=wB97M-V basis=def2-svpd config_type=h2so4 sample_index=476 temperature=300.0 units=atomic
S         0.0350400916       0.0143538070       0.1437960804  -4.597547424627e-02  -1.071977619676e-01  -5.055413242445e-03
O        -0.0566909452       1.2217812937       0.8077895555   1.182892361630e-02   9.040106803924e-02   4.662279952687e-02
O         0.0084629486      -1.2705511872       0.8422295965   4.794359753556e-03   1.671467856301e-02  -1.372942927956e-02
O         1.2303302165       0.0392564251      -0.8437709854   5.015095994214e-02  -2.886486476119e-02  -4.083019671041e-02
O        -1.2652695554      -0.0185983774      -0.8215778218  -3.094939786124e-03   2.036929089843e-02  -2.888208678603e-02
H         1.6114098311      -0.8677504129      -1.1524086286  -2.531477396355e-02   3.999353596322e-02   2.040689357483e-02
H        -1.4009265700       0.8641516501      -1.3015509753   7.671726369690e-03  -3.137044284228e-02   2.137185159745e-02
7
Properties=species:S:1:pos:R:3:forces:R:3 energy=-6.997163048716e+02 dipole="2.0894501917e-01 1.1999035232e-01 -1.4121183454e+00" quadrupole="-2.8253249504e+01 -2.0016324496e+00 -3.7806677754e-01 -2.0016324496e+00 -2.8180507940e+01 -3.3894821129e-01 -3.7806677754e-01 -3.3894821129e-01 -2.4238980726e+01" polarizability="3.8112674504e+01 -7.8431633890e-01 5.2152681631e-01 -7.8431633890e-01 4.1659753146e+01 -2.9314440887e+00 5.2152681631e-01 -2.9314440887e+00 4.1215644437e+01" charge=0 multiplicity=1 method=wB97M-V basis=def2-svpd config_type=h2so4 sample_index=477 temperature=300.0 units=atomic
S         0.0044322071       0.0087941830       0.1902571759  -2.093706467130e-02  -8.671902432243e-02  -4.249066572894e-02
O        -0.0254024495       1.2491272684       0.8055683273   2.101679981894e-03   7.548251813065e-02   4.887273877910e-02
O         0.0496192502      -1.3021024811       0.8462487131  -3.555171889326e-03   2.568710215223e-02  -9.154324971179e-03
O         1.2745324076       0.0683026884      -0.8610154847  -3.617429937860e-02  -5.783927492404e-02  -1.568443985560e-02
O        -1.3256858995      -0.0356137483      -0.8677313385   8.562137265551e-02   7.942404821000e-02  -5.217107787828e-02
H         1.0778648978      -0.8673731831      -1.2688470139   2.718343172009e-02   4.246144591291e-02   8.451435631862e-03
H        -0.7941174517       0.9194333603      -1.6576404095  -5.426177717932e-02  -7.852353355320e-02   6.217236501534e-02
7
Properties=species:S:1:pos:R:3:forces:R:3 energy=-6.997342157602e+02 dipole="3.4472843392e-01 -9.5629340531e-02 -5.5892810218e-01" quadrupole="-2.2872759402e+01 -4.7940953378e+00 1.0857040871e+00 -4.7940953378e+00 -2.7625921870e+01 -9.6444280651e-01 1.0857040871e+00 -9.6444280651e-01 -2.8359715865e+01" polarizability="3.9967354755e+01 -3.3524660501e+00 7.2496147244e-01 -3.3524660501e+00 4.0553510286e+01 -3.0060754140e-01 7.2496147244e-01 -3.0060754140e-01 3.6650047692e+01" charge=0 multiplicity=1 method=wB97M-V basis=def2-svpd config_type=h2so4 sample_index=478 temperature=300.0 units=atomic
S         0.0280373925       0.0134064759       0.1864132288  -3.816874806598e-02   9.186673394344e-03  -7.740088816713e-02
O        -0.0229524571       1.2654112582       0.8492714107   5.430726616180e-04   2.882883361849e-02   2.320194531321e-02
O         0.0109006917      -1.2710178253       0.8021330521   6.178104485314e-03  -2.644311499130e-02   2.008541046114e-02
O         1.2137964651       0.0411238857      -0.9154969475   4.661045344939e-02  -1.023738788804e-01   5.714781813605e-02
O        -1.2670074492      -0.0444576104      -0.8937648388   3.928392498961e-02  -5.574758783789e-02   3.291985145873e-02
H         1.7521772801      -1.0671710103      -0.4417465164  -3.885247113060e-02   9.268117133668e-02  -4.772407662140e-02
H        -1.6056168282       0.7853055240      -1.1033278753  -1.560759492456e-02   5.383028144550e-02  -8.266727905626e-03
7
Properties=species:S:1:pos:R:3:forces:R:3 energy=-6.997831273321e+02 dipole="6.4227588942e-01 -2.5699304853e-01 -9.9296987143e-01" quadrupole="-2.3702762601e+01 -4.2359793404e+00 -3.7704970247e-01 -4.2359793404e+00 -2.7882722721e+01 -6.1728234867e-01 -3.7704970247e-01 -6.1728234867e-01 -2.6745075002e+01" polarizability="3.7681462593e+01 -2.1867809939e+00 9.9102007504e-02 -2.1867809939e+00 3.8935345888e+01 -2.5057425221e-01 9.9102007504e-02 -2.5057425221e-01 3.6173663216e+01" charge=0 multiplicity=1 method=wB97M-V basis=def2-svpd config_type=h2so4 sample_index=479 temperature=300.0 units=atomic
S         0.0571022383      -0.0399134540       0.1825360225  -7.447040145448e-02   9.792451213871e-02  -5.336674569749e-02
O        -0.0569112509       1.2693218303       0.7887686858   1.714284135536e-02  -4.340510920809e-03   1.440047360935e-02
O        -0.0109266394      -1.2681017833       0.8406782635   8.880580431277e-03  -5.977637471955e-02   2.760612442372e-02
O         1.2191132549       0.0746418720      -0.8803286550   4.701046589757e-02  -6.079933869857e-02  -8.617416883620e-03
O        -1.2815240308       0.0022094362      -0.8597350652   2.247670523197e-02  -3.236676916769e-02   1.452836557573e-02
H         1.7041641906      -0.8488299483      -0.9644982822  -2.645228985784e-02   4.962727392989e-02   2.113699748600e-03
H        -1.4461130823       0.8821239774      -1.2067136711   5.465531413582e-03   9.755382767204e-03   3.269376332474e-03
7
Properties=species:S:1:pos:R:3:forces:R:3 energy=-6.997758507674e+02 dipole="3.0245446579e-01 5.7366482158e-02 -1.1633017851e+00" quadrupole="-2.4217251175e+01 -4.1009558487e+00 4.8040288532e-01 -4.1009558487e+00 -2.8382479429e+01 -9.5049257747e-01 4.8040288532e-01 -9.5049257747e-01 -2.6051851562e+01" polarizability="3.6538796711e+01 -1.4080870255e+00 1.9085749485e+00 -1.4080870255e+00 4.0595887129e+01 -1.0334214716e+00 1.9085749485e+00 -1.0334214716e+00 3.7040572396e+01" charge=0 multiplicity=1 method=wB97M-V basis=def2-svpd config_type=h2so4 sample_index=480 temperature=300.0 units=atomic
S         0.0234350978       0.0097305660       0.1874961130  -5.714067206902e-02   1.367582290733e-02  -1.629370169502e-02
O         0.0386342758       1.3046374009       0.8273621136  -6.136972740512e-03  -7.801367819361e-03   7.644016041647e-03
O        -0.0184867513      -1.2979306539       0.7817403908   7.987626363457e-03  -4.199971228765e-03   1.715404526087e-02
O         1.1760801249       0.0734351174      -0.8477855914   3.692428387566e-02   2.305147882746e-03  -1.984848100783e-02
O        -1.2512393309      -0.1036380031      -0.8725556927  -6.536068480161e-03   8.535087848250e-02  -3.069321848497e-02
H         1.5515563530      -0.8081435771      -0.8971243577   7.518925647160e-03  -9.918752440105e-03  -7.247125171387e-03
H        -1.4211579221       0.8742955054      -1.4207890323   1.737112688724e-02  -7.948385835826e-02   4.928634826519e-02
7
Properties=species:S:1:pos:R:3:forces:R:3 energy=-6.997781279185e+02 dipole="4.3067484160e-01 -1.5737782203e-01 -1.3007751092e+00" quadrupole="-2.4753575801e+01 -3.7495020150e+00 3.2747321420e-01 -3.7495020150e+00 -2.8118763694e+01 -1.0003627666e+00 3.2747321420e-01 -1.0003627666e+00 -2.6084510641e+01" polarizability="3.7361140006e+01 -2.1334787168e+00 -7.4260708547e-02 -2.1334787168e+00 4.0351193661e+01 -1.2021431465e+00 -7.4260708547e-02 -1.2021431465e+00 3.9244240549e+01" charge=0 multiplicity=1 method=wB97M-V basis=def2-svpd config_type=h2so4 sample_index=481 temperature=300.0 units=atomic
S         0.0174299088      -0.0199597731       0.1749227698  -2.635762406543e-02   3.612980166429e-02  -1.472931897671e-02
O        -0.0333449442       1.2509452584       0.8696153788   8.338294835970e-03  -5.734655827538e-03  -1.783965683847e-03
O         0.0050301325      -1.2698473474       0.8969391486   5.094677506877e-03  -2.812151148902e-03  -1.210566379958e-02
O         1.1935427511       0.0779789788      -0.9518709346   3.524520589973e-02  -7.943266841227e-02   1.983488090219e-02
O        -1.2299202346      -0.0144915667      -0.8892084718   4.069714648089e-03   4.163098908692e-02  -3.279890905613e-02
H         1.6427596252      -0.9037030658      -0.9201397041  -2.630653251014e-02   6.677628626935e-02  -7.415940385177e-03
H        -1.1725453278       0.8398421876      -1.5413185818  -1.612849931765e-05  -5.659506592622e-02   4.886618268712e-02
7
Properties=species:S:1:pos:R:3:forces:R:3 energy=-6.997859452693e+02 dipole="7.5254641431e-02 -3.8202417157e-02 -1.3632913794e+00" quadrupole="-2.5972392155e+01 -3.3634068147e+00 -6.7791795099e-01 -3.3634068147e+00 -2.7935605498e+01 1.3672375905e-01 -6.7791795099e-01 1.3672375905e-01 -2.5454125539e+01" polarizability="3.6137071626e+01 -1.8789032500e+00 8.8647119864e-01 -1.8789032500e+00 4.0248819665e+01 3.1717188825e-01 8.8647119864e-01 3.1717188825e-01 3.7227620564e+01" charge=0 multiplicity=1 method=wB97M-V basis=def2-svpd config_type=h2so4 sample_index=482 temperature=300.0 units=atomic
S        -0.0204152016      -0.0070085069       0.1759023164  -1.233207430042e-03  -6.063621763565e-03  -4.818030926095e-03
O         0.0108806144       1.2862217451       0.8143603989  -9.440620555961e-03  -1.404926113647e-03   5.835962966657e-03
O         0.0879111525      -1.2867098802       0.8328870726  -2.008368408067e-02  -3.485336106337e-04   6.347395948829e-03
O         1.2062739642       0.0425278609      -0.8090894693   3.036399294838e-02  -5.253365274902e-02  -5.662248129872e-02
O        -1.2711977449      -0.0299352498      -0.9108482278   1.899124847758e-02   3.701764788709e-02   7.285894388767e-03
H         1.3308883610      -0.8985679487      -1.2951789315  -8.708452603120e-03   5.948763156709e-02   3.341343973532e-02
H        -1.2230154983       0.9292679845      -1.2520421762  -9.892671741164e-03  -3.619236878622e-02   8.503032712178e-03
7
Properties=species:S:1:pos:R:3:forces:R:3 energy=-6.997690640536e+02 dipole="-1.2012650888e-01 -1.3918712916e-01 -1.1280956624e+00" quadrupole="-2.3679304329e+01 -4.2219574744e+00 -1.0455079499e+00 -4.2219574744e+00 -2.8353750783e+01 9.7332088701e-01 -1.0455079499e+00 9.7332088701e-01 -2.6775731297e+01" polarizability="3.7220433066e+01 -2.8664446809e+00 -9.0461128334e-01 -2.8664446809e+00 4.0869058103e+01 9.3918671148e-01 -9.0461128334e-01 9.3918671148e-01 3.5198428940e+01" charge=0 multiplicity=1 method=wB97M-V basis=def2-svpd config_type=h2so4 sample_index=483 temperature=300.0 units=atomic
S         0.0333360798      -0.0274035195       0.1511835521  -3.102276667072e-02   7.459163274739e-02   1.806052668618e-02
O        -0.0853877763       1.3216261330       0.7609622689   2.102845051903e-02  -3.477675511417e-02   2.967733377837e-03
O        -0.0047450821      -1.2907550078       0.7965469219   1.022171041521e-02  -2.896322348031e-02   2.387609774188e-02
O         1.2714834521       0.0343798756      -0.8151892992   1.436749190262e-02  -4.891024785626e-02  -4.193403815291e-02
O        -1.2198737416      -0.0167373345      -0.8081404019  -6.274461200742e-02   7.146088780449e-02  -9.366391424745e-03
H         1.2978441768      -0.8769063932      -1.3242803915   3.561933606357e-03   4.717508007444e-02   2.638737547959e-02
H        -1.7370597418       0.9686230889      -0.5893443491   4.458988791248e-02  -8.041547743435e-02  -2.006996169782e-02
7
Properties=species:S:1:pos:R:3:forces:R:3 energy=-6.997666269215e+02 dipole="-3.0277250008e-02 -1.2752432968e-02 -1.8014277796e+00" quadrupole="-2.4813677260e+01 -3.8393800865e+00 -9.8542145221e-01 -3.8393800865e+00 -2.8918833068e+01 1.4560257649e-01 -9.8542145221e-01 1.4560257649e-01 -2.4517714461e+01" polarizability="3.8123663939e+01 -1.3829744361e+00 -1.5052833875e+00 -1.3829744361e+00 4.1048796374e+01 8.0180713627e-01 -1.5052833875e+00 8.0180713627e-01 3.9758752138e+01" charge=0 multiplicity=1 method=wB97M-V basis=def2-svpd config_type=h2so4 sample_index=484 temperature=300.0 units=atomic
S        -0.0298265430      -0.0223543104       0.1332160604   4.117295595859e-02   1.043376628661e-02   4.855354863184e-02
O         0.0690078534       1.2763077976       0.8180016955  -1.780742544311e-02  -2.282698215355e-02  -1.348353692746e-02
O        -0.0306262592      -1.2735387173       0.8685016729  -4.983655950334e-04   7.040093693330e-03  -1.159522191838e-02
O         1.2717882502       0.1261222842      -0.8175263379   2.248938045856e-02  -6.985658482205e-02  -7.241953553030e-02
O        -1.2644388699      -0.0954256395      -0.8431918127  -1.033451273160e-02   6.621659115551e-02  -3.576910268508e-02
H         1.5343515752      -0.7094810179      -1.5580607955  -3.047010769752e-02   6.486151263513e-02   6.818373519384e-02
H        -1.3166162982       0.8905715862      -1.2174922462  -4.660626425465e-03  -5.585560575005e-02   1.651231067256e-02
7
Properties=species:S:1:pos:R:3:forces:R:3 energy=-6.997790233660e+02 dipole="-2.5364400372e-01 -1.3094377527e-01 -1.2651295785e+00" quadrupole="-2.4488655965e+01 -3.8063997296e+00 -1.4274960271e-01 -3.8063997296e+00 -2.8627828741e+01 7.0240780269e-01 -1.4274960271e-01 7.0240780269e-01 -2.6073302180e+01" polarizability="3.6594444653e+01 -1.6953196466e+00 -1.2122520425e+00 -1.6953196466e+00 4.1039662096e+01 8.5241092558e-01 -1.2122520425e+00 8.5241092558e-01 3.5463871854e+01" charge=0 multiplicity=1 method=wB97M-V basis=def2-svpd config_type=h2so4 sample_index=485 temperature=300.0 units=atomic
S         0.0085692750      -0.0179956197       0.1558541574   1.351854502866e-02   3.973665737461e-02   2.877647901095e-02
O        -0.0505188046       1.3294479099       0.7447181689   1.005536209013e-02  -2.853232982620e-02   9.045856786045e-03
O        -0.0113865106      -1.3242892813       0.7845661239   6.925797563681e-03   1.104024643256e-02   3.595158417207e-03
O         1.3036848222       0.0645714347      -0.8094551290  -1.812729508073e-02  -8.400787067116e-02  -4.150027202938e-02
O        -1.2342937273      -0.0288276743      -0.7787667868  -2.495808315469e-02  -2.579797241644e-02  -3.447685841114e-02
H         1.2474631919      -0.9166600328      -1.3192947235   1.363871047131e-02   7.269043308253e-02   3.483496790769e-02
H        -1.6359753635       0.8338935760      -0.8602543006  -1.108088185977e-03   1.496581656374e-02  -2.765554775950e-04
7
Properties=species:S:1:pos:R:3:forces:R:3 energy=-6.997794773506e+02 dipole="3.7356738817e-01 8.8747949208e-02 -1.1498307780e+00" quadrupole="-2.2512183689e+01 -4.4296989153e+00 -5.9653472061e-02 -4.4296989153e+00 -2.7977773594e+01 -6.5690860023e-01 -5.9653472061e-02 -6.5690860023e-01 -2.7174249624e+01" polarizability="3.7251850198e+01 -2.7806467577e+00 4.1408024232e-01 -2.7806467577e+00 3.8742785783e+01 -5.2223720442e-01 4.1408024232e-01 -5.2223720442e-01 3.5358478056e+01" charge=0 multiplicity=1 method=wB97M-V basis=def2-svpd config_type=h2so4 sample_index=486 temperature=300.0 units=atomic
S         0.0335816768      -0.0030552995       0.1407967353  -4.029387843669e-02   2.853571666155e-02  -3.453768051317e-03
O        -0.0864789132       1.2635057662       0.8258098593   2.006805795821e-02   5.197279162548e-03  -5.573540501143e-04
O         0.0287395988      -1.2478312141       0.8048461000   2.744164533941e-03  -4.356561322279e-02   2.476609561833e-02
O         1.2526507342      -0.0124652611      -0.8530674134  -1.134281073413e-02   6.155365038575e-02  -1.756607239866e-02
O        -1.2781378390      -0.0131439363      -0.8158849910  -9.439031487929e-03   6.816309736128e-02  -3.010271175570e-02
H         1.7920067426      -0.7641375642      -0.9321184503   1.682646944592e-02  -4.255810647302e-02   4.686265330315e-03
H        -1.5330032458       1.0218319090      -1.0780646743   2.144284777254e-02  -7.723779894138e-02   2.210987122742e-02
7
Properties=species:S:1:pos:R:3:forces:R:3 energy=-6.997784291699e+02 dipole="-3.4653177268e-01 -4.5165282995e-02 -9.4635665250e-01" quadrupole="-2.2282353442e+01 -4.0091684126e+00 -8.9767759462e-01 -4.0091684126e+00 -2.8580835296e+01 6.4616034177e-01 -8.9767759462e-01 6.4616034177e-01 -2.6946485007e+01" polarizability="3.7483320021e+01 -2.1777328692e+00 -4.7734711349e-01 -2.1777328692e+00 3.9296651693e+01 -9.0286539201e-03 -4.7734711349e-01 -9.0286539201e-03 3.6720327452e+01" charge=0 multiplicity=1 method=wB97M-V basis=def2-svpd config_type=h2so4 sample_index=487 temperature=300.0 units=atomic
S        -0.0606146181      -0.0186477763       0.1883859563   7.111337654732e-02  -1.409767763422e-02  -3.199190003456e-02
O        -0.0025936218       1.2920750575       0.7935686145  -1.037243884981e-02  -7.556611899012e-03   8.433423690091e-03
O         0.1004374015      -1.3015626541       0.8577700016  -2.707802433853e-02   1.692222712495e-02  -1.946648098373e-03
O         1.2397663923       0.0154929968      -0.8562662487  -7.335623367430e-03   2.273997594589e-02   2.073617882825e-03
O        -1.2176817858       0.0277167399      -0.9197634179   3.518700547207e-02  -8.562328512563e-02  -1.251082151477e-05
H         1.7109737654      -0.7317344032      -1.2703247177  -1.919354535963e-02  -5.333263271237e-03   1.526022494378e-02
H        -1.6975696982       0.7895910346      -0.8586632392  -4.225502743756e-02   7.290113247089e-02   8.184161291240e-03
7
Properties=species:S:1:pos:R:3:forces:R:3 energy=-6.997797101292e+02 dipole="1.0560765245e-01 -2.4092909107e-02 -9.4691038837e-01" quadrupole="-2.2593645190e+01 -4.8388042898e+00 7.2058616676e-01 -4.8388042898e+00 -2.8224974562e+01 -7.3560461086e-01 7.2058616676e-01 -7.3560461086e-01 -2.7826265920e+01" polarizability="4.0874470986e+01 -2.8731767833e+00 1.1538361110e-01 -2.8731767833e+00 4.2363003263e+01 7.4682281811e-02 1.1538361110e-01 7.4682281811e-02 3.8702181844e+01" charge=0 multiplicity=1 method=wB97M-V basis=def2-svpd config_type=h2so4 sample_index=488 temperature=300.0 units=atomic
S         0.0074873208       0.0013221955       0.1749682417  -8.415163503689e-03   3.636031534422e-02  -1.306553294346e-02
O        -0.0259991133       1.3229193184       0.8728193622   4.173873841458e-03  -5.178934927725e-02  -2.627207363185e-02
O         0.0033585183      -1.3003248673       0.8248956728   3.725403332322e-03   1.584671666771e-02  -3.517824778307e-03
O         1.2725671651       0.0301908397      -0.9245174672   1.241887104210e-02  -5.735909800993e-02   2.816950563387e-02
O        -1.2733961019      -0.0547569644      -0.8813204806  -5.139738231811e-03   5.032594508522e-02  -1.623025316320e-03
H         1.7897466581      -0.9042198595      -0.8307550746  -3.657372813468e-02   6.020903141653e-02  -4.972588270749e-03
H        -1.6546560869       0.8941058384      -1.1455064359   2.981867576743e-02  -5.359733448368e-02   2.123433736808e-02
7
Properties=species:S:1:pos:R:3:forces:R:3 energy=-6.997774350203e+02 dipole="2.6177759706e-01 -1.6130022805e-01 -1.2056853991e+00" quadrupole="-2.4046054241e+01 -3.9170660898e+00 -3.4468461819e-01 -3.9170660898e+00 -2.8265791537e+01 -2.1672731772e-02 -3.4468461819e-01 -2.1672731772e-02 -2.6431168232e+01" polarizability="3.7310131747e+01 -7.9027312623e-01 -8.9407142419e-01 -7.9027312623e-01 3.7563032357e+01 -6.3658437723e-02 -8.9407142419e-01 -6.3658437723e-02 3.6746478778e+01" charge=0 multiplicity=1 method=wB97M-V basis=def2-svpd config_type=h2so4 sample_index=489 temperature=300.0 units=atomic
S         0.0158194903      -0.0250905107       0.1542145441  -1.390647290327e-02   2.492206994734e-02  -1.639927129875e-02
O        -0.0113618595       1.2426466894       0.8305625027   4.250192429329e-03   9.536335636358e-03   1.111253420673e-03
O        -0.0307376783      -1.2550896151       0.8847642831   7.601093257170e-03  -1.597044496394e-02  -8.073057725467e-03
O         1.2796873407       0.0966987801      -0.8984489879  -1.179586627823e-02  -1.717614695256e-02   1.082679568769e-02
O        -1.2819231095      -0.0312758689      -0.8624997166   5.308234665693e-02  -1.845613015394e-01   7.376433787790e-02
H         1.6398118571      -0.7846080365      -1.1375117395  -6.824409311941e-03   7.379544534337e-03   3.520228418746e-03
H        -1.4386120446       0.7447616365      -1.1619406070  -3.236568501759e-02   1.758145329480e-01  -6.482990675044e-02
7
Properties=species:S:1:pos:R:3:forces:R:3 energy=-6.997353217340e+02 dipole="-5.9205284414e-01 1.8354788122e-01 -8.7582948341e-01" quadrupole="-2.0004161977e+01 -5.0306902236e+00 -1.2599197685e-01 -5.0306902236e+00 -2.8540773568e+01 9.1372031658e-01 -1.2599197685e-01 9.1372031658e-01 -2.7907193972e+01" polarizability="4.2413915152e+01 -4.5840521643e+00 1.7663083286e+00 -4.5840521643e+00 4.0493158429e+01 2.7401952548e-01 1.7663083286e+00 2.7401952548e-01 3.5189417148e+01" charge=0 multiplicity=1 method=wB97M-V basis=def2-svpd config_type=h2so4 sample_index=490 temperature=300.0 units=atomic
S        -0.0290313994       0.0479634044       0.1651511208   5.461788465741e-03  -1.076964130658e-01  -3.278861667454e-02
O         0.0369204116       1.2799866332       0.8019934641  -1.241640750024e-02   7.128976346527e-02   4.187971720493e-02
O         0.0821863105      -1.2853298686       0.7439723109  -2.503952287405e-02   5.108280376060e-03   2.547969681500e-02
O         1.2287627743      -0.0160374333      -0.7576945169   4.465976221624e-02  -1.214608780903e-02  -5.172219485708e-02
O        -1.2495240282      -0.0628966417      -0.8952194046  -8.388490993323e-02   7.624976068310e-02   1.088706419759e-02
H         1.5559696338      -0.9599463853      -0.9601605396  -2.176807196271e-02   3.863691615817e-02   1.351576580868e-02
H        -2.1949222201       0.7637244794      -0.7526447807   9.296490025684e-02  -7.149495478507e-02  -7.302295563813e-03
7
Properties=species:S:1:pos:R:3:forces:R:3 energy=-6.997723502870e+02 dipole="-6.1586638250e-02 3.7132183384e-01 -1.2049928645e+00" quadrupole="-2.3947556936e+01 -4.2355121211e+00 -3.6469044332e-02 -4.2355121211e+00 -2.7761657997e+01 4.5954206053e-01 -3.6469044332e-02 4.5954206053e-01 -2.8098214808e+01" polarizability="3.7283878692e+01 -2.5885814808e+00 6.4884778630e-02 -2.5885814808e+00 4.0276700749e+01 -1.0490076917e+00 6.4884778630e-02 -1.0490076917e+00 3.6679596179e+01" charge=0 multiplicity=1 method=wB97M-V basis=def2-svpd config_type=h2so4 sample_index=491 temperature=300.0 units=atomic
S        -0.0302562164       0.0402331463       0.1152197350   4.988522240571e-02  -1.709192782709e-01   4.789607839159e-02
O        -0.0325871473       1.2296341409       0.8474018048  -5.327793085124e-03   7.024936821269e-02   2.388273968752e-02
O         0.0816744836      -1.3070947748       0.8855379038  -1.589629237687e-02   7.442012609013e-02  -5.094877425191e-02
O         1.2576908154       0.0124689438      -0.8603060755   9.452012107545e-03  -3.494377828384e-02  -6.489211941938e-03
O        -1.2592292554      -0.0179618998      -0.8720337901  -9.081024532126e-03   6.195737895973e-02  -5.968376917327e-03
H         1.5934324244      -0.9621536094      -0.8833575665  -1.730014685044e-02   4.457942402756e-02   2.789479815128e-03
H        -1.3921846654       1.0092172380      -0.9159656082  -1.175186775133e-02  -4.543054346530e-02  -1.120916410829e-02
7
Properties=species:S:1:pos:R:3:forces:R:3 energy=-6.997758372562e+02 dipole="1.6780183962e-01 -2.3688544428e-01 -9.4688016608e-01" quadrupole="-2.4495247430e+01 -4.2306575544e+00 -1.9490398443e-01 -4.2306575544e+00 -2.7831914797e+01 -2.9198015547e-01 -1.9490398443e-01 -2.9198015547e-01 -2.7636049701e+01" polarizability="3.6818609615e+01 -1.7002082881e+00 -8.9960314866e-03 -1.7002082881e+00 4.0658419733e+01 2.7982590503e-01 -8.9960314866e-03 2.7982590503e-01 3.5271045505e+01" charge=0 multiplicity=1 method=wB97M-V basis=def2-svpd config_type=h2so4 sample_index=492 temperature=300.0 units=atomic
S        -0.0012480917      -0.0316473476       0.1625579439  -6.899430584006e-03   7.813712997427e-02  -1.936210292455e-03
O         0.0215857073       1.3077686288       0.7854554105  -1.305285311070e-02  -3.189415051161e-02  -5.564805706708e-04
O        -0.0019689946      -1.2903120467       0.8104754039   6.048195098544e-03  -3.348289893690e-02   2.125626409941e-02
O         1.2291410836       0.1067468156      -0.8372893666   3.445790840886e-02  -1.074580196766e-01  -6.852877280799e-03
O        -1.2577277329      -0.0591290985      -0.8535417771   3.875874703450e-03   4.016450762686e-02   5.209029620463e-03
H         1.5403051166      -0.9649387458      -0.8637425712  -1.378335420509e-02   8.264931446152e-02  -8.582287221561e-03
H        -1.3602612262       0.9385445959      -0.9390811213  -1.065588520012e-02  -2.803951296437e-02  -8.525073231117e-03
7
Properties=species:S:1:pos:R:3:forces:R:3 energy=-6.997503350621e+02 dipole="3.3555987888e-01 -1.1374591700e-01 -9.1584608180e-01" quadrupole="-2.1605904172e+01 -4.8087008489e+00 4.2434650772e-01 -4.8087008489e+00 -2.8766965118e+01 -9.8965141185e-01 4.2434650772e-01 -9.8965141185e-01 -2.7387674553e+01" polarizability="4.1195515388e+01 -2.7847599369e+00 -1.0994799555e+00 -2.7847599369e+00 4.2028906050e+01 -3.7321989258e-01 -1.0994799555e+00 -3.7321989258e-01 3.7001803650e+01" charge=0 multiplicity=1 method=wB97M-V basis=def2-svpd config_type=h2so4 sample_index=493 temperature=300.0 units=atomic
S        -0.0048710898      -0.0321651262       0.1961064450   1.956572706532e-02   7.159607860493e-02  -3.687179502174e-02
O         0.0449365333       1.3162954626       0.7855539663  -1.064381115711e-02  -3.256033444735e-02   8.406217113176e-03
O        -0.0736897753      -1.3084932485       0.8096975760   1.314699504064e-02  -2.486455078263e-02   2.515674874881e-02
O         1.2111571886       0.1311726339      -0.9132935868   7.573656478689e-02  -9.462983986654e-02   1.780384257692e-02
O        -1.2108024942      -0.0814828409      -0.8319567136  -3.192371319829e-02   5.165234330283e-02  -2.756512882276e-02
H         2.0519963408      -0.7531066306      -0.8159654166  -8.118225000069e-02   7.828766437052e-02  -6.565679900335e-03
H        -1.4510749592       0.8715679955      -1.1745479716   1.536792173309e-02  -4.943775590681e-02   1.960603554723e-02
7
Properties=species:S:1:pos:R:3:forces:R:3 energy=-6.997590305990e+02 dipole="-4.1932266449e-01 -7.1069683203e-02 -5.4615677213e-01" quadrupole="-2.1906224679e+01 -4.6721548693e+00 -4.2066183310e-01 -4.6721548693e+00 -2.7728938107e+01 4.3006073179e-01 -4.2066183310e-01 4.3006073179e-01 -2.9496280140e+01" polarizability="4.0514230574e+01 -4.5073419394e+00 -4.2721731440e-01 -4.5073419394e+00 4.0423450857e+01 2.4368092908e-01 -4.2721731440e-01 2.4368092908e-01 3.7132353797e+01" charge=0 multiplicity=1 method=wB97M-V basis=def2-svpd config_type=h2so4 sample_index=494 temperature=300.0 units=atomic
S        -0.0487436399      -0.0249356898       0.1579399938   5.626322110013e-02   3.149431312134e-02  -2.608306315073e-02
O        -0.0683869558       1.2667127323       0.8375559985  -4.390278547913e-03  -9.416924615344e-03  -1.727831164056e-03
O         0.1317666138      -1.2532020700       0.8765361743  -1.834551226036e-02  -1.834143729215e-02   6.967533960754e-03
O         1.2649434044      -0.0234873265      -0.9004288160  -1.191578181145e-02  -2.897672732090e-02   1.902252552786e-02
O        -1.2236513301       0.0557756786      -0.9327292041  -5.326538535206e-02   7.228050047648e-02   5.079673925450e-02
H         1.6861114255      -0.9385932076      -0.7922488190  -1.509441385941e-02   3.372342506442e-02  -3.669131412279e-03
H        -1.8059437000       1.0022470717      -0.4591237949   4.681485122501e-02  -8.085225486776e-02  -4.537595612192e-02
7
Properties=species:S:1:pos:R:3:forces:R:3 energy=-6.997864615128e+02 dipole="5.4182265009e-02 1.3892423642e-01 -8.0099556495e-01" quadrupole="-2.3337542184e+01 -4.5682255174e+00 -2.0907300969e-01 -4.5682255174e+00 -2.7545731837e+01 3.0775710017e-01 -2.0907300969e-01 3.0775710017e-01 -2.7201559501e+01" polarizability="3.7750209882e+01 -2.4115919956e+00 2.8881981723e-01 -2.4115919956e+00 3.8130438124e+01 -8.2075424396e-02 2.8881981723e-01 -8.2075424396e-02 3.4544003636e+01" charge=0 multiplicity=1 method=wB97M-V basis=def2-svpd config_type=h2so4 sample_index=495 temperature=300.0 units=atomic
S         0.0124328927       0.0217317844       0.1777249978  -1.272992897347e-02  -8.344725066657e-02  -9.194358803467e-02
O        -0.0367920579       1.2525664137       0.7822043333   2.638183408023e-03   1.000210320793e-01   5.604941198321e-02
O         0.0279242126      -1.2659907371       0.7682718204  -8.860520413360e-04  -3.200801302857e-02   3.013499736158e-02
O         1.2796898787       0.0129340259      -0.8278618056   5.117508294109e-03  -4.034224958212e-03  -7.016071082324e-03
O        -1.2917114679      -0.0433132618      -0.8417912785  -1.842872802186e-03   4.718916871224e-02   2.950197758489e-03
H         1.6180295622      -0.9059543978      -0.9862224062  -1.262751335864e-02   1.805108390599e-02   6.571027830408e-03
H        -1.6782076710       0.9099507501      -0.9230703037   2.035321770885e-02  -4.576205514209e-02   3.238789604641e-03
7
Properties=species:S:1:pos:R:3:forces:R:3 energy=-6.997889881252e+02 dipole="1.2151799978e-02 3.7517521412e-03 -1.0514715977e+00" quadrupole="-2.3740251088e+01 -4.0176722676e+00 3.0144430002e-01 -4.0176722676e+00 -2.8215463169e+01 1.6366755530e-01 3.0144430002e-01 1.6366755530e-01 -2.7209627272e+01" polarizability="3.5318218219e+01 -1.9088862140e+00 9.6292562211e-02 -1.9088862140e+00 4.0125563350e+01 7.4780057684e-03 9.6292562211e-02 7.4780057684e-03 3.4922925508e+01" charge=0 multiplicity=1 method=wB97M-V basis=def2-svpd config_type=h2so4 sample_index=496 temperature=300.0 units=atomic
S         0.0336797361       0.0136016531       0.1717952965  -5.210372940069e-02  -1.377974337228e-02   2.208513849340e-02
O        -0.0544851280       1.3080794043       0.8035654042   1.064030235404e-02  -3.097218731085e-03   1.259827760273e-02
O         0.0096497348      -1.3244954804       0.7984537047   7.741792550412e-03   3.609862951542e-02  -6.684494591310e-03
O         1.1956518769       0.0314033245      -0.8555084999   3.843517924042e-02  -5.202342970762e-02  -1.682320051641e-02
O        -1.1988125138      -0.0313087499      -0.8490296835  -1.360327514418e-02  -1.896057748434e-02  -9.037594705536e-03
H         1.3370108676      -0.9817527099      -0.9501141953   6.270292410539e-03   4.192986407493e-02  -6.217263787989e-03
H        -1.6402402028       0.8060279342      -1.0108368030   2.637437257969e-03   9.817094598934e-03   4.044641837505e-03
7
Properties=species:S:1:pos:R:3:forces:R:3 energy=-6.997717384478e+02 dipole="3.9032385936e-02 -1.7091707485e-01 -1.1018453646e+00" quadrupole="-2.2731535965e+01 -4.8089199311e+00 -1.7996402316e-02 -4.8089199311e+00 -2.7904396184e+01 -6.1286239200e-01 -1.7996402316e-02 -6.1286239200e-01 -2.7856193343e+01" polarizability="3.7757786892e+01 -2.5379542671e+00 1.2321582176e-02 -2.5379542671e+00 4.0032670944e+01 3.7048975382e-01 1.2321582176e-02 3.7048975382e-01 3.5843473382e+01" charge=0 multiplicity=1 method=wB97M-V basis=def2-svpd config_type=h2so4 sample_index=497 temperature=300.0 units=atomic
S        -0.0239417570      -0.0322309115       0.1397405487   2.901134964164e-02   1.144401304828e-01   3.500000700647e-03
O         0.0251190005       1.2828368760       0.8372423604  -1.473838813053e-02  -3.590038826914e-02  -2.152540520666e-02
O         0.0145223036      -1.2364133703       0.8264487745   2.689869062799e-04  -8.072154561095e-02   4.050536749010e-02
O         1.2336378681       0.0721189137      -0.8519897485   4.210639611652e-02  -6.782547432781e-02  -1.214913355066e-02
O        -1.2429282290      -0.0629345958      -0.8581913205  -3.100870398113e-02   8.593645249710e-02  -1.539225020341e-02
H         1.7617271024      -0.8648490850      -0.8865935715  -3.880615382319e-02   6.255866061933e-02   2.482751836702e-03
H        -1.4870945529       1.0067557471      -0.9534862796   1.307449467245e-02  -7.847620450605e-02   2.523294243591e-03
7
Properties=species:S:1:pos:R:3:forces:R:3 energy=-6.997796566558e+02 dipole="1.2644869496e-01 -1.2966766914e-01 -1.6759865275e+00" quadrupole="-2.6486692194e+01 -2.9496424123e+00 -5.6915741033e-01 -2.9496424123e+00 -2.8708647035e+01 -1.5373772896e-01 -5.6915741033e-01 -1.5373772896e-01 -2.4121732554e+01" polarizability="3.5935387646e+01 -9.7169936193e-01 -1.0965736072e+00 -9.7169936193e-01 4.0380924608e+01 -3.8029489396e-01 -1.0965736072e+00 -3.8029489396e-01 3.8512857393e+01" charge=0 multiplicity=1 method=wB97M-V basis=def2-svpd config_type=h2so4 sample_index=498 temperature=300.0 units=atomic
S         0.0089295086      -0.0421389380       0.1642193897  -7.969262009495e-04   4.647626569962e-02   1.936665352949e-02
O        -0.0186015893       1.2824226900       0.7876617075   7.664051799954e-03  -2.141549544442e-02   3.993798994671e-03
O        -0.0295030366      -1.2895802271       0.8749246966   6.885334815406e-03  -4.633893726403e-03  -2.701643114733e-03
O         1.2508192059       0.1160878140      -0.8646942849   8.781540099605e-04  -6.490076035149e-02  -4.528494870310e-02
O        -1.2313150769      -0.0357271844      -0.8267894419   1.295194562736e-03   5.114792516744e-02  -5.128065187161e-02
H         1.2713844255      -0.7164789544      -1.5381132597   2.927103114194e-04   5.148553289175e-02   4.559632764018e-02
H        -1.1018791753       0.8979546699      -1.3323051331  -1.619699977604e-02  -5.813835323069e-02   3.027884097372e-02
7
Properties=species:S:1:pos:R:3:forces:R:3 energy=-6.997646395892e+02 dipole="-3.0937241040e-01 7.1792395444e-03 -7.9566473998e-01" quadrupole="-2.2493296485e+01 -4.5688735029e+00 -8.0137349494e-01 -4.5688735029e+00 -2.8533671318e+01 6.3709180094e-01 -8.0137349494e-01 6.3709180094e-01 -2.8534371210e+01" polarizability="3.9475582693e+01 -2.3760114886e+00 4.1448361149e-01 -2.3760114886e+00 4.0835114207e+01 4.1007129718e-01 4.1448361149e-01 4.1007129718e-01 3.5712998641e+01" charge=0 multiplicity=1 method=wB97M-V basis=def2-svpd config_type=h2so4 sample_index=499 temperature=300.0 units=atomic
S        -0.0217472619      -0.0062704325       0.1368845028   2.130491662966e-02   1.509957158396e-02   2.199303205704e-02
O         0.0171178023       1.3161713700       0.8060490783  -1.518847774157e-02  -3.584174926200e-02  -1.487614084942e-02
O         0.0397095888      -1.2971778259       0.8134704591  -5.422163759209e-03   1.411926072682e-02  -2.629517621266e-03
O         1.2884036914       0.0393743532      -0.8069125383  -3.278838061789e-02   6.704668987661e-02   2.425064610406e-03
O        -1.2854113344      -0.0527083677      -0.8829464259  -3.366245354234e-02   9.320499796473e-02   4.499686592561e-02
H         1.5572847925      -0.8218860814      -0.9102352911   2.599154273676e-02  -7.185870072329e-02  -1.167102362749e-02
H        -1.8165826780       0.9258012522      -0.4894698724   3.968951306952e-02  -8.176660209653e-02  -4.026872846933e-02
