4
Properties=species:S:1:pos:R:3:forces:R:3 energy=-7.661302844424e+01 dipole="6.0439890479e-02 9.6039110472e-03 -5.7413840943e-01" quadrupole="-1.6443002300e+00 -4.7817162055e-02 -5.7921133421e-02 -4.7817162055e-02 -2.1383931169e+00 -3.6850034083e-02 -5.7921133421e-02 -3.6850034083e-02 -4.6572712659e+00" polarizability="7.1989642185e+00 -1.1789794485e-01 -8.1116876110e-02 -1.1789794485e-01 6.7943162839e+00 -8.9388154385e-04 -8.1116876110e-02 -8.9388154385e-04 5.6486165809e+00" charge=1 multiplicity=1 method=wB97M-V basis=def2-svpd config_type=h3o+ sample_index=0 temperature=300.0 units=atomic
O        -0.0034025706      -0.0018455047       0.0622671486   4.154675779674e-02  -1.493181157866e-02   3.174964163245e-03
H         0.0105350532       0.9150722383      -0.2111650459  -1.650523280747e-03   2.489801091253e-02  -4.168865503038e-03
H         0.8691436176      -0.4454207607      -0.2098403933  -2.734006182532e-02   4.419208388737e-03   7.063109357934e-03
H        -0.8252338564      -0.4322502621      -0.1928580281  -1.255715041160e-02  -1.437649711559e-02  -6.071503508782e-03
4
Properties=species:S:1:pos:R:3:forces:R:3 energy=-7.660251896503e+01 dipole="-7.4061612921e-03 -5.3156600536e-02 -8.4312264353e-01" quadrupole="-2.0999960385e+00 -3.8692646218e-01 5.2316543821e-02 -3.8692646218e-01 -1.6922971079e+00 9.1593468786e-02 5.2316543821e-02 9.1593468786e-02 -4.4233477853e+00" polarizability="7.9547966063e+00 -3.8811980041e-01 -1.1335635170e-02 -3.8811980041e-01 8.2178386543e+00 9.3328116042e-02 -1.1335635170e-02 9.3328116042e-02 6.3817514292e+00" charge=1 multiplicity=1 method=wB97M-V basis=def2-svpd config_type=h3o+ sample_index=1 temperature=300.0 units=atomic
O         0.0029321625       0.0050246649       0.0825914874   8.929942611149e-03  -1.484726917662e-02  -5.808204982881e-02
H        -0.0738965864       0.9724604907      -0.2999847726   1.418414800005e-02  -3.748314889970e-02   1.633488602109e-02
H         0.8238580842      -0.5728057243      -0.3123173113  -3.784053859860e-02   4.167378665026e-02   2.352959126718e-02
H        -0.7968945231      -0.4718127184      -0.3269942408   1.472437240971e-02   1.065970498388e-02   1.822328342080e-02
4
Properties=species:S:1:pos:R:3:forces:R:3 energy=-7.660359119718e+01 dipole="6.5122556714e-02 -4.1005992515e-02 -5.1472835809e-02" quadrupole="-1.8643644697e+00 -3.2239352409e-02 -4.0602259556e-02 -3.2239352409e-02 -9.2121918163e-01 7.3730291635e-02 -4.0602259556e-02 7.3730291635e-02 -5.0984597628e+00" polarizability="7.6389196122e+00 -1.3033119404e-01 -3.2201437329e-02 -1.3033119404e-01 8.2962353348e+00 4.6354787821e-02 -3.2201437329e-02 4.6354787821e-02 5.8506339616e+00" charge=1 multiplicity=1 method=wB97M-V basis=def2-svpd config_type=h3o+ sample_index=2 temperature=300.0 units=atomic
O        -0.0039573712       0.0066156591       0.0262068129   3.379769752079e-02  -5.739608820078e-03  -2.582451905517e-03
H         0.0169582262       1.0589898006       0.0060091884  -3.772179409168e-03  -5.490858702878e-02  -2.388439755597e-04
H         0.8585062506      -0.5825712572      -0.0308622853  -3.483570071473e-02   3.825794421624e-02   2.493118729733e-03
H        -0.8121299184      -0.5754081058      -0.0111056903   4.807376051057e-03   2.238306703481e-02   3.223926058563e-04
4
Properties=species:S:1:pos:R:3:forces:R:3 energy=-7.660205825929e+01 dipole="-6.8157086011e-03 -4.2000215229e-02 -6.0405480260e-01" quadrupole="-2.0849194894e+00 -3.8190063197e-01 5.4131481920e-02 -3.8190063197e-01 -2.1218455103e+00 3.8539929243e-02 5.4131481920e-02 3.8539929243e-02 -4.4991148157e+00" polarizability="6.3285121265e+00 -2.8414946954e-01 -1.0786666490e-02 -2.8414946954e-01 6.2219771485e+00 4.7686742319e-02 -1.0786666490e-02 4.7686742319e-02 5.3445839745e+00" charge=1 multiplicity=1 method=wB97M-V basis=def2-svpd config_type=h3o+ sample_index=3 temperature=300.0 units=atomic
O         0.0033189171       0.0028945051       0.0645125203   5.161821695984e-02  -3.462479934916e-02   4.505692106720e-02
H        -0.0812308296       0.8695665269      -0.2095301302   1.128406420433e-02   8.101521487945e-02  -2.126088405940e-02
H         0.7838353780      -0.5090412953      -0.2118324347   1.188907918632e-02   3.495721748508e-03  -2.812938208912e-03
H        -0.7557224977      -0.3989088092      -0.2284423735  -7.479013049386e-02  -4.988373775332e-02  -2.098767331333e-02
4
Properties=species:S:1:pos:R:3:forces:R:3 energy=-7.660904956935e+01 dipole="3.4749181102e-02 -7.0121124972e-02 -7.5665426477e-01" quadrupole="-2.0669656220e+00 -1.0670578002e-01 -3.2217412843e-02 -1.0670578002e-01 -1.6927168006e+00 1.0929732947e-01 -3.2217412843e-02 1.0929732947e-01 -4.5235422656e+00" polarizability="7.6789073991e+00 -1.6340578855e-01 -7.1300715967e-02 -1.6340578855e-01 7.8188841829e+00 1.2321567477e-01 -7.1300715967e-02 1.2321567477e-01 6.1262635230e+00" charge=1 multiplicity=1 method=wB97M-V basis=def2-svpd config_type=h3o+ sample_index=4 temperature=300.0 units=atomic
O        -0.0015977053       0.0061321295       0.0758882843   2.073025495373e-02  -2.728218564230e-02  -3.860507349738e-02
H        -0.0073746194       0.9597682435      -0.2609672973   1.270308926810e-03  -2.164553832795e-02   6.849097341269e-03
H         0.8256537481      -0.5386684067      -0.2894569121  -3.274880936713e-02   3.217906005606e-02   2.030121262761e-02
H        -0.7927199210      -0.5111286972      -0.2814918261   1.074968120014e-02   1.675235167874e-02   1.145191478209e-02
4
Properties=species:S:1:pos:R:3:forces:R:3 energy=-7.661331298284e+01 dipole="-7.9109982729e-03 -4.3581366408e-02 -3.1818189408e-01" quadrupole="-1.7780248792e+00 9.8127638467e-02 -3.5498247451e-03 9.8127638467e-02 -1.8002641857e+00 3.5618088210e-02 -3.5498247451e-03 3.5618088210e-02 -4.8382397155e+00" polarizability="6.8235471517e+00 8.5108575520e-02 6.7481429567e-03 8.5108575520e-02 6.6978287002e+00 3.5759875585e-02 6.7481429567e-03 3.5759875585e-02 5.4553443622e+00" charge=1 multiplicity=1 method=wB97M-V basis=def2-svpd config_type=h3o+ sample_index=5 temperature=300.0 units=atomic
O        -0.0002733298       0.0030862793       0.0441734208  -1.470458594002e-02  -3.480302827410e-02   1.176839688628e-02
H         0.0162477168       0.9336726669      -0.1002354636  -2.400524330890e-03   3.777136350336e-02  -7.541486304453e-03
H         0.8180578309      -0.4750059989      -0.1125371599   1.541639696388e-02  -8.217667509078e-03  -3.463735150774e-03
H        -0.8299250715      -0.5006416276      -0.1111621495   1.686992411748e-03   5.246255905735e-03  -7.562149548622e-04
4
Properties=species:S:1:pos:R:3:forces:R:3 energy=-7.658028503142e+01 dipole="1.3353702372e-01 -8.0786181864e-02 -3.7679025631e-01" quadrupole="-1.4738999922e+00 -1.7028528167e-01 -9.9816675714e-02 -1.7028528167e-01 -2.3852571418e+00 2.6902951821e-02 -9.9816675714e-02 2.6902951821e-02 -4.6939480983e+00" polarizability="6.6852658669e+00 -2.6344434899e-01 -1.2365628493e-01 -2.6344434899e-01 5.7547024327e+00 9.4454020088e-02 -1.2365628493e-01 9.4454020088e-02 5.2297457315e+00" charge=1 multiplicity=1 method=wB97M-V basis=def2-svpd config_type=h3o+ sample_index=6 temperature=300.0 units=atomic
O        -0.0068573557       0.0027635517       0.0480075949   1.092569105860e-01  -1.833979633137e-01   5.464198444557e-02
H         0.0105162807       0.8192530968      -0.1216881996   2.566324447855e-03   2.241479420163e-01  -4.383045693044e-02
H         0.8969852647      -0.4504975444      -0.1490058635  -3.799310034080e-02   7.865260929443e-03   6.652411246819e-03
H        -0.7977734677      -0.4053820590      -0.1147864158  -7.383352671274e-02  -4.861136225318e-02  -1.747030710352e-02
4
Properties=species:S:1:pos:R:3:forces:R:3 energy=-7.659114470210e+01 dipole="-1.8488449501e-01 -1.4627662693e-01 -8.3593312029e-01" quadrupole="-1.6188810964e+00 3.3371356667e-02 2.4833582539e-01 3.3371356667e-02 -2.3975749883e+00 1.4896219296e-01 2.4833582539e-01 1.4896219296e-01 -4.3365479678e+00" polarizability="8.1226157327e+00 3.3855555135e-01 3.9194080628e-01 3.3855555135e-01 6.8619196101e+00 3.2577852892e-01 3.9194080628e-01 3.2577852892e-01 6.0945564170e+00" charge=1 multiplicity=1 method=wB97M-V basis=def2-svpd config_type=h3o+ sample_index=7 temperature=300.0 units=atomic
O         0.0118662879       0.0081856226       0.0816274327  -6.650618352710e-02  -1.262866141492e-01  -5.943200145998e-03
H        -0.0612186787       0.8262161053      -0.2857529733   3.260496438076e-03   9.856286636551e-02  -3.462799233439e-02
H         0.7932972311      -0.4726853783      -0.2894908497  -1.792583404004e-03   2.985078484670e-03   3.983843948992e-03
H        -0.9219635794      -0.4761913915      -0.3487323418   6.504470612494e-02   2.474213670995e-02   3.658976150627e-02
4
Properties=species:S:1:pos:R:3:forces:R:3 energy=-7.659814633005e+01 dipole="-8.5370984046e-02 -3.1215197705e-02 -9.3700440386e-01" quadrupole="-1.7914285361e+00 -3.8413923888e-01 1.7218975544e-01 -3.8413923888e-01 -2.2217652338e+00 1.7673313255e-02 1.7218975544e-01 1.7673313255e-02 -4.2525078812e+00" polarizability="8.4436201327e+00 -2.3665121010e-01 1.8952749988e-01 -2.3665121010e-01 7.8841051234e+00 7.9317813347e-02 1.8952749988e-01 7.9317813347e-02 6.5829850549e+00" charge=1 multiplicity=1 method=wB97M-V basis=def2-svpd config_type=h3o+ sample_index=8 temperature=300.0 units=atomic
O         0.0081819506       0.0013590040       0.0901037014  -2.563375565465e-02  -1.957939825392e-02  -7.494770884490e-02
H        -0.1025490992       0.9154507794      -0.3507132946   1.993904477543e-02  -1.606950295665e-02   1.884827070036e-02
H         0.8391320283      -0.5154360923      -0.3340734840  -3.963918105335e-02   2.892026070169e-02   2.235616193474e-02
H        -0.8675229887      -0.4132753891      -0.3749600644   4.533602942605e-02   6.734698685422e-03   3.374205149209e-02
4
Properties=species:S:1:pos:R:3:forces:R:3 energy=-7.660319617957e+01 dipole="8.8233619182e-02 8.5438892151e-02 -2.5316063165e-01" quadrupole="-1.7374221707e+00 -3.0779678722e-01 -3.5981876997e-02 -3.0779678722e-01 -1.7767891680e+00 -7.1716357336e-02 -3.5981876997e-02 -7.1716357336e-02 -4.8612492263e+00" polarizability="6.6218272243e+00 -3.4124553259e-01 -5.4439177388e-02 -3.4124553259e-01 6.8438082163e+00 -6.4171343728e-02 -5.4439177388e-02 -6.4171343728e-02 5.4284384081e+00" charge=1 multiplicity=1 method=wB97M-V basis=def2-svpd config_type=h3o+ sample_index=9 temperature=300.0 units=atomic
O        -0.0032188895      -0.0054834778       0.0396507150   1.202107919203e-01   7.333414634025e-02   1.453642706599e-02
H        -0.0305080392       0.9791136047      -0.1007525152   5.773103913537e-03  -1.378563377726e-02   1.797542955607e-03
H         0.8658977341      -0.4833277967      -0.0834137166  -1.823256861290e-02   6.132117819080e-03   1.610855829399e-04
H        -0.7838823968      -0.4007174771      -0.0673719713  -1.077517990934e-01  -6.568269424352e-02  -1.649169150610e-02
4
Properties=species:S:1:pos:R:3:forces:R:3 energy=-7.660562160803e+01 dipole="4.4667641868e-02 1.3313965030e-01 -4.6862506647e-01" quadrupole="-1.2007124363e+00 4.2515920608e-01 -9.8995365222e-02 4.2515920608e-01 -2.1673476717e+00 -1.8276541086e-01 -9.8995365222e-02 -1.8276541086e-01 -4.8391534173e+00" polarizability="7.7495709702e+00 2.9162894516e-01 -7.0068582085e-02 2.9162894516e-01 7.3186747712e+00 -1.5542640490e-01 -7.0068582085e-02 -1.5542640490e-01 5.8157419931e+00" charge=1 multiplicity=1 method=wB97M-V basis=def2-svpd config_type=h3o+ sample_index=10 temperature=300.0 units=atomic
O        -0.0057491082      -0.0116782089       0.0546847974   7.686060821294e-03   4.495766779334e-02  -9.384165326641e-03
H         0.0915241420       0.9698920701      -0.1989551332  -2.062070016537e-02  -2.461235984534e-02   1.041035918490e-02
H         0.9073227254      -0.3348930755      -0.1611298088  -1.822085238660e-02  -2.406212405895e-02   7.682183935845e-04
H        -0.9068421736      -0.4404180176      -0.1323884060   3.115464207764e-02   3.712999069899e-03  -1.798331139880e-03
4
Properties=species:S:1:pos:R:3:forces:R:3 energy=-7.658791809104e+01 dipole="-9.0848780649e-02 -1.6209104913e-02 -9.1908901925e-01" quadrupole="-1.4843438435e+00 -3.9796120343e-01 1.8179942241e-01 -3.9796120343e-01 -2.1198311592e+00 -1.4417247315e-02 1.8179942241e-01 -1.4417247315e-02 -4.3796439725e+00" polarizability="9.2632370083e+00 -2.5237932616e-01 2.1466575825e-01 -2.5237932616e-01 8.4896707631e+00 4.8207591619e-02 2.1466575825e-01 4.8207591619e-02 6.8354060907e+00" charge=1 multiplicity=1 method=wB97M-V basis=def2-svpd config_type=h3o+ sample_index=11 temperature=300.0 units=atomic
O         0.0084817372      -0.0002375192       0.0884450866  -2.828074003881e-02  -9.275876318561e-03  -8.432978002608e-02
H        -0.1029212399       0.9539640031      -0.3464300398   2.058328627494e-02  -3.787751411012e-02   2.502573489511e-02
H         0.8855340947      -0.5208883696      -0.3221782104  -5.523403546874e-02   3.404677575768e-02   2.382384439854e-02
H        -0.9183487374      -0.4208517790      -0.3645602167   6.293063016815e-02   1.311206384320e-02   3.548038431637e-02
4
Properties=species:S:1:pos:R:3:forces:R:3 energy=-7.659671924012e+01 dipole="1.0925934247e-01 4.4077799438e-02 -7.8705538706e-01" quadrupole="-1.0859070710e+00 8.0659933571e-02 -1.4916569796e-01 8.0659933571e-02 -2.5122281462e+00 -1.2546814384e-01 -1.4916569796e-01 -1.2546814384e-01 -4.5266924904e+00" polarizability="8.8659659444e+00 -8.3217759585e-02 -2.1040655784e-01 -8.3217759585e-02 7.4802398810e+00 -2.4516832533e-02 -2.1040655784e-01 -2.4516832533e-02 6.3303729426e+00" charge=1 multiplicity=1 method=wB97M-V basis=def2-svpd config_type=h3o+ sample_index=12 temperature=300.0 units=atomic
O        -0.0070553237      -0.0064385100       0.0780965712   3.837312001009e-02  -8.201221920699e-03  -4.630648644955e-02
H         0.0486818970       0.9069348247      -0.3089999682  -9.021227252497e-03  -1.454714356004e-03   1.154081727310e-02
H         0.9675964844      -0.3882196371      -0.2968753989  -7.061569549433e-02   5.831499936967e-03   2.483735918293e-02
H        -0.9033856654      -0.4074247927      -0.2616457214   4.126261782208e-02   3.823787704177e-03   9.927514014783e-03
4
Properties=species:S:1:pos:R:3:forces:R:3 energy=-7.660170484695e+01 dipole="-1.0693296584e-01 1.1648914708e-01 -5.7673011828e-01" quadrupole="-1.8566581394e+00 -6.8278239084e-01 1.8440695506e-01 -6.8278239084e-01 -1.6040727458e+00 -1.2167948096e-01 1.8440695506e-01 -1.2167948096e-01 -4.7397685160e+00" polarizability="7.3146203717e+00 -5.0244201154e-01 1.2374261667e-01 -5.0244201154e-01 7.9269985843e+00 -1.8886863631e-01 1.2374261667e-01 -1.8886863631e-01 5.9036767646e+00" charge=1 multiplicity=1 method=wB97M-V basis=def2-svpd config_type=h3o+ sample_index=13 temperature=300.0 units=atomic
O         0.0106841513      -0.0060242666       0.0623393353  -1.431266937179e-02   6.540457424920e-02  -1.149065878302e-02
H        -0.1561313806       1.0242271690      -0.2235700226   3.358040268747e-02  -5.550327399688e-02   1.653167238508e-02
H         0.8165362344      -0.5459689728      -0.1689901638  -8.055546481772e-03   1.545390180975e-02  -3.659744134275e-03
H        -0.8313806666      -0.3740518014      -0.2223920754  -1.120376698368e-02  -2.536167827872e-02  -1.378493449254e-03
4
Properties=species:S:1:pos:R:3:forces:R:3 energy=-7.658647402324e+01 dipole="4.3713020675e-02 -1.1594740842e-01 -2.4165680315e-01" quadrupole="-1.3898147057e+00 -3.1034345137e-01 2.1120392254e-03 -3.1034345137e-01 -2.2547488864e+00 4.7137868731e-02 2.1120392254e-03 4.7137868731e-02 -4.8052891217e+00" polarizability="6.8705389714e+00 -2.3847497268e-01 -2.1096105049e-02 -2.3847497268e-01 5.9256371797e+00 7.6454073764e-02 -2.1096105049e-02 7.6454073764e-02 5.2861023374e+00" charge=1 multiplicity=1 method=wB97M-V basis=def2-svpd config_type=h3o+ sample_index=14 temperature=300.0 units=atomic
O         0.0003090220       0.0048422730       0.0388041450   5.574526243621e-02  -2.070862101712e-01   2.971746156765e-02
H        -0.0489291843       0.8344267000      -0.0664958696   2.303082216932e-04   2.174277698701e-01  -2.711324909233e-02
H         0.8843332104      -0.4932517609      -0.0849731492  -3.142500126577e-02   1.627619557730e-02   1.983995167169e-03
H        -0.8403487232      -0.4113015297      -0.0865438173  -2.455426376364e-02  -2.661814313694e-02  -4.585185686595e-03
4
Properties=species:S:1:pos:R:3:forces:R:3 energy=-7.660479792537e+01 dipole="-1.1636538474e-01 -1.2485988204e-01 -5.0721692339e-01" quadrupole="-1.6305718754e+00 -4.3276383874e-01 1.7241486099e-01 -4.3276383874e-01 -1.7235000118e+00 1.1588889268e-01 1.7241486099e-01 1.1588889268e-01 -4.8177438353e+00" polarizability="7.8640079201e+00 -1.7102917034e-01 1.6062429220e-01 -1.7102917034e-01 7.4275789686e+00 1.4469325865e-01 1.6062429220e-01 1.4469325865e-01 5.8767739408e+00" charge=1 multiplicity=1 method=wB97M-V basis=def2-svpd config_type=h3o+ sample_index=15 temperature=300.0 units=atomic
O         0.0110319898       0.0080305358       0.0573663066  -3.710701278007e-02  -7.310693184972e-02  -1.203197950287e-02
H        -0.1229792208       0.9347658701      -0.1564924446   1.843015222471e-02   2.142122491144e-02  -7.573348518733e-03
H         0.8297164217      -0.5834170473      -0.1618075825  -2.523163894595e-02   3.502775704591e-02   3.540367554827e-03
H        -0.8832729134      -0.4721723721      -0.2169237922   4.391357704721e-02   1.665418775179e-02   1.606594577615e-02
4
Properties=species:S:1:pos:R:3:forces:R:3 energy=-7.660047884248e+01 dipole="-1.2710338158e-02 -1.9029366792e-01 -6.1859128976e-01" quadrupole="-1.9089302959e+00 2.7343897600e-01 -1.3419309659e-02 2.7343897600e-01 -1.3865671972e+00 2.3643459187e-01 -1.3419309659e-02 2.3643459187e-01 -4.7579909871e+00" polarizability="8.1167401744e+00 2.7830853007e-01 2.8001302309e-02 2.7830853007e-01 8.0826378382e+00 2.7477437231e-01 2.8001302309e-02 2.7477437231e-01 6.1259989947e+00" charge=1 multiplicity=1 method=wB97M-V basis=def2-svpd config_type=h3o+ sample_index=16 temperature=300.0 units=atomic
O        -0.0012238946       0.0135438357       0.0653443136  -9.571943069881e-03  -8.534529826907e-02  -2.868408057705e-02
H         0.0453411097       0.9626762434      -0.1832380517  -6.516518628443e-03  -2.283276573689e-03  -5.699487107143e-03
H         0.8205517809      -0.5521581174      -0.2429114632  -2.862376433172e-02   3.351254061999e-02   1.574961452906e-02
H        -0.8463046520      -0.6194384226      -0.2367774955   4.471458413890e-02   5.411197895481e-02   1.862944641047e-02
4
Properties=species:S:1:pos:R:3:forces:R:3 energy=-7.660324778589e+01 dipole="1.4089654187e-01 2.9425611171e-03 -5.4666763932e-01" quadrupole="-1.2193192114e+00 2.1427215747e-01 -1.7729235436e-01 2.1427215747e-01 -2.0048522591e+00 -4.1870868386e-02 -1.7729235436e-01 -4.1870868386e-02 -4.8273891426e+00" polarizability="8.3840621380e+00 -2.0116913025e-02 -2.0200331055e-01 -2.0116913025e-02 7.6104501737e+00 7.7318473634e-03 -2.0200331055e-01 7.7318473634e-03 6.0276160109e+00" charge=1 multiplicity=1 method=wB97M-V basis=def2-svpd config_type=h3o+ sample_index=17 temperature=300.0 units=atomic
O        -0.0101377623      -0.0020452859       0.0601669857   5.615881272848e-02  -1.173386901956e-02  -2.204234619483e-02
H         0.0841370149       0.9588428183      -0.2004904196  -1.636799108099e-02  -1.407917919265e-02   4.833108423253e-03
H         0.9525424488      -0.4330742144      -0.2151677539  -6.617601127390e-02   1.296413188476e-02   1.695590080936e-02
H        -0.8744550011      -0.4852572906      -0.1645363151   2.638239351416e-02   1.285028526044e-02   2.542737788240e-04
4
Properties=species:S:1:pos:R:3:forces:R:3 energy=-7.661238450085e+01 dipole="-1.5891055945e-02 -5.5922406177e-02 -4.7909990940e-02" quadrupole="-1.7121203983e+00 -1.3531995142e-01 2.0760609955e-02 -1.3531995142e-01 -1.4156149509e+00 4.9065604894e-02 2.0760609955e-02 4.9065604894e-02 -5.0128640388e+00" polarizability="7.2742440345e+00 -8.8546510778e-02 1.0413701991e-02 -8.8546510778e-02 7.3756252870e+00 2.8667399242e-02 1.0413701991e-02 2.8667399242e-02 5.6309627959e+00" charge=1 multiplicity=1 method=wB97M-V basis=def2-svpd config_type=h3o+ sample_index=18 temperature=300.0 units=atomic
O         0.0020577195       0.0049477322       0.0259335800  -1.502551588149e-04  -2.382869226496e-02  -2.459254290345e-04
H        -0.0302387209       0.9910224647       0.0026432887   5.078828165967e-03  -9.027124493776e-03  -6.748508252654e-04
H         0.8417633751      -0.5483323476      -0.0120164042  -1.565923162216e-02   2.111904792909e-02   4.220896095747e-04
H        -0.8444429945      -0.5149292525      -0.0222989581   1.073462524405e-02   1.173726511005e-02   4.942600795875e-04
4
Properties=species:S:1:pos:R:3:forces:R:3 energy=-7.659862050307e+01 dipole="-3.6385940730e-02 -4.5135472535e-03 -6.7786042880e-01" quadrupole="-1.4658525516e+00 3.4474617556e-01 -1.0235341980e-02 3.4474617556e-01 -2.6099721777e+00 -5.7697172122e-02 -1.0235341980e-02 -5.7697172122e-02 -4.4794570287e+00" polarizability="7.2521273440e+00 2.9088437593e-01 4.5323319821e-02 2.9088437593e-01 6.2270801079e+00 5.5142160184e-02 4.5323319821e-02 5.5142160184e-02 5.5949890824e+00" charge=1 multiplicity=1 method=wB97M-V basis=def2-svpd config_type=h3o+ sample_index=19 temperature=300.0 units=atomic
O        -0.0007070760      -0.0028428659       0.0699112820  -4.549200894865e-02  -8.195467998720e-02   2.561699010400e-02
H         0.0592568497       0.8285167112      -0.2549202755  -9.284995320223e-03   1.110523081850e-01  -2.971800733585e-02
H         0.8392269529      -0.3393650718      -0.2425319735   1.731026897032e-02  -3.603453105626e-02  -4.952510269151e-03
H        -0.8871655376      -0.4355382550      -0.2389673819   3.746894643162e-02   6.936955257925e-03   9.052784939015e-03
4
Properties=species:S:1:pos:R:3:forces:R:3 energy=-7.660408810462e+01 dipole="-4.6227608335e-02 7.8414258337e-02 -7.4576092580e-01" quadrupole="-1.8834079433e+00 -2.8504319830e-01 8.8340959762e-02 -2.8504319830e-01 -1.6632919783e+00 -8.6000248131e-02 8.8340959762e-02 -8.6000248131e-02 -4.5880380085e+00" polarizability="7.8696210271e+00 -2.1827205564e-01 7.1635281528e-02 -2.1827205564e-01 8.3446829205e+00 -1.4958488399e-01 7.1635281528e-02 -1.4958488399e-01 6.2547538823e+00" charge=1 multiplicity=1 method=wB97M-V basis=def2-svpd config_type=h3o+ sample_index=20 temperature=300.0 units=atomic
O         0.0046190129      -0.0037402331       0.0749682396  -1.116507384699e-02   3.523624259787e-02  -4.479594506188e-02
H        -0.0658200933       1.0227661076      -0.2844853803   1.390216503789e-02  -6.101471171208e-02   2.293983567121e-02
H         0.8342485527      -0.5131232775      -0.2548317198  -2.628979869539e-02   2.080779573377e-02   9.237741058055e-03
H        -0.8423488793      -0.4417100105      -0.2779184488   2.355275331694e-02   4.974228886425e-03   1.261778705524e-02
4
Properties=species:S:1:pos:R:3:forces:R:3 energy=-7.660488225159e+01 dipole="8.7392218630e-02 -6.5600248472e-02 -2.6505778116e-01" quadrupole="-1.5941055813e+00 -2.8095772374e-01 -4.7222253961e-02 -2.8095772374e-01 -1.3277700337e+00 6.7737501084e-02 -4.7222253961e-02 6.7737501084e-02 -5.0282885395e+00" polarizability="7.8605648524e+00 -3.7669692643e-01 -7.0613880127e-02 -3.7669692643e-01 7.9284657402e+00 5.8211837039e-02 -7.0613880127e-02 5.8211837039e-02 5.8564805140e+00" charge=1 multiplicity=1 method=wB97M-V basis=def2-svpd config_type=h3o+ sample_index=21 temperature=300.0 units=atomic
O        -0.0033800471       0.0052093509       0.0405035775   5.114175489927e-02  -2.031889685295e-02  -7.036667232224e-03
H        -0.0200539310       1.0123008813      -0.0744690898   2.660170827753e-03  -2.995149326286e-02   2.906254712445e-04
H         0.9035953650      -0.5771968460      -0.1037179633  -5.502897899180e-02   4.334566522982e-02   7.532760881255e-03
H        -0.8294536342      -0.5112169996      -0.0868656916   1.228167971254e-03   6.924125600965e-03  -7.836423953698e-04
4
Properties=species:S:1:pos:R:3:forces:R:3 energy=-7.659240843857e+01 dipole="-2.0848965514e-01 -9.4290988704e-02 -6.0450430026e-01" quadrupole="-1.8496378602e+00 -1.3246620910e-01 2.4951788082e-01 -1.3246620910e-01 -2.2261639718e+00 8.5289883514e-02 2.4951788082e-01 8.5289883514e-02 -4.5298671402e+00" polarizability="6.8417590023e+00 2.0493307508e-01 3.0129715655e-01 2.0493307508e-01 6.2140926194e+00 1.4971112946e-01 3.0129715655e-01 1.4971112946e-01 5.4648962104e+00" charge=1 multiplicity=1 method=wB97M-V basis=def2-svpd config_type=h3o+ sample_index=22 temperature=300.0 units=atomic
O         0.0149802995       0.0060029149       0.0642493724  -1.199337623077e-01  -9.393336190469e-02   4.283887301893e-02
H        -0.1034828996       0.8411964703      -0.1991646977   6.499097311687e-03   1.240057804188e-01  -3.587445323003e-02
H         0.7354815255      -0.4851529257      -0.1858114288   7.500409458877e-02  -3.776264550594e-02  -2.699181958650e-02
H        -0.8717111418      -0.4441705658      -0.2606145051   3.843442514735e-02   7.686780413960e-03   2.002447640038e-02
4
Properties=species:S:1:pos:R:3:forces:R:3 energy=-7.661024045216e+01 dipole="-1.1138552064e-01 -1.2527735975e-02 -1.3191528294e-02" quadrupole="-1.4155810449e+00 -3.1816794089e-01 9.7894254354e-02 -3.1816794089e-01 -1.7766951742e+00 -8.0414209166e-03 9.7894254354e-02 -8.0414209166e-03 -4.9936291565e+00" polarizability="7.3762280360e+00 -1.0536360007e-01 5.5492857113e-02 -1.0536360007e-01 7.0348042762e+00 -8.1824451374e-04 5.5492857113e-02 -8.1824451374e-04 5.5884577171e+00" charge=1 multiplicity=1 method=wB97M-V basis=def2-svpd config_type=h3o+ sample_index=23 temperature=300.0 units=atomic
O         0.0094454273       0.0000481861       0.0236428858  -4.388560706297e-02  -1.919883888204e-02  -6.386936152745e-04
H        -0.0958894983       0.9618143810       0.0007605428   1.662271941657e-02   1.114303892975e-02  -3.114349011242e-05
H         0.8470621521      -0.5172997086       0.0256745944  -3.928657719448e-03   7.352485290133e-03  -6.784050798569e-04
H        -0.9023083675      -0.4383513465      -0.0215064031   3.120117307967e-02   7.059205255342e-04   1.352860002203e-03
4
Properties=species:S:1:pos:R:3:forces:R:3 energy=-7.660068289927e+01 dipole="9.0490143279e-02 -2.3428726461e-01 -6.2269491573e-01" quadrupole="-2.2714184155e+00 -4.5959624313e-02 -1.0255999841e-01 -4.5959624313e-02 -1.4675171798e+00 3.0038907291e-01 -1.0255999841e-01 3.0038907291e-01 -4.6332935838e+00" polarizability="7.2335116385e+00 -2.0835522035e-01 -1.4975608634e-01 -2.0835522035e-01 7.3236052830e+00 3.2734420218e-01 -1.4975608634e-01 3.2734420218e-01 5.8140257970e+00" charge=1 multiplicity=1 method=wB97M-V basis=def2-svpd config_type=h3o+ sample_index=24 temperature=300.0 units=atomic
O        -0.0060666176       0.0174755991       0.0655879900   4.247942308644e-02  -1.284950305673e-01  -2.569804494537e-03
H         0.0278284720       0.9113826481      -0.1732334417  -2.859618821778e-03   5.727142531714e-02  -2.303949315878e-02
H         0.8023346416      -0.5954981652      -0.2619352314  -2.710656864048e-02   4.654752095958e-02   2.128235331144e-02
H        -0.7330902924      -0.5876926831      -0.2316521469  -1.251138637169e-02   2.467388823725e-02   4.326355247789e-03
4
Properties=species:S:1:pos:R:3:forces:R:3 energy=-7.660577637727e+01 dipole="-5.0432323268e-03 9.8526325916e-02 -5.0214781610e-01" quadrupole="-2.2245952686e+00 -2.8363306461e-02 7.4799060456e-03 -2.8363306461e-02 -1.1837051865e+00 -3.5306717878e-02 7.4799060456e-03 -3.5306717878e-02 -4.7925592472e+00" polarizability="6.8770809723e+00 -2.0747032381e-02 4.2130900475e-03 -2.0747032381e-02 7.9770292627e+00 -1.0990022312e-01 4.2130900475e-03 -1.0990022312e-01 5.7705881292e+00" charge=1 multiplicity=1 method=wB97M-V basis=def2-svpd config_type=h3o+ sample_index=25 temperature=300.0 units=atomic
O         0.0004770494      -0.0014169020       0.0569677109  -3.803672603127e-04   7.140050339618e-02  -1.819720828154e-03
H        -0.0066648921       1.0592529613      -0.1815753434   1.368576027160e-03  -6.726945276439e-02   1.139791957936e-02
H         0.7770100745      -0.5180481258      -0.1724215592   2.261627886356e-02  -1.224492309968e-03  -4.769219458081e-03
H        -0.7779779196      -0.5109029878      -0.1748058020  -2.360517499509e-02  -2.908379349538e-03  -4.806428481154e-03
4
Properties=species:S:1:pos:R:3:forces:R:3 energy=-7.659286141675e+01 dipole="-4.0194789346e-02 -4.6720336581e-02 -6.6916978557e-01" quadrupole="-1.9548603664e+00 1.2897104399e-01 3.5417207908e-02 1.2897104399e-01 -1.0684416650e+00 1.1055014366e-01 3.5417207908e-02 1.1055014366e-01 -4.7874757277e+00" polarizability="8.4750935579e+00 2.1572342143e-01 7.5103498051e-02 2.1572342143e-01 9.1945934906e+00 9.3436413914e-02 7.5103498051e-02 9.3436413914e-02 6.4385120027e+00" charge=1 multiplicity=1 method=wB97M-V basis=def2-svpd config_type=h3o+ sample_index=26 temperature=300.0 units=atomic
O         0.0018152878       0.0063974215       0.0691601987  -1.744860897379e-02  -1.425009815549e-02  -4.856950641808e-02
H         0.0079558796       1.0614668338      -0.2242052677  -1.078582548598e-03  -6.936181646078e-02   1.347273863770e-02
H         0.8230323362      -0.5627128837      -0.2453908518  -3.033402012156e-02   3.524122480479e-02   1.438288794891e-02
H        -0.8600349470      -0.5932701783      -0.2544431187   4.885963421901e-02   4.837170266196e-02   2.070786163670e-02
4
Properties=species:S:1:pos:R:3:forces:R:3 energy=-7.660238613082e+01 dipole="8.8205754532e-03 2.4720064576e-01 -4.3958807784e-01" quadrupole="-1.4735588246e+00 8.9098810785e-02 -1.9044474442e-02 8.9098810785e-02 -2.0129757405e+00 -2.7087928140e-01 -1.9044474442e-02 -2.7087928140e-01 -4.8129157039e+00" polarizability="7.0759445713e+00 6.5154023302e-02 -1.1551337734e-02 6.5154023302e-02 7.4155404171e+00 -2.8491731082e-01 -1.1551337734e-02 -2.8491731082e-01 5.6973959497e+00" charge=1 multiplicity=1 method=wB97M-V basis=def2-svpd config_type=h3o+ sample_index=27 temperature=300.0 units=atomic
O        -0.0010857565      -0.0180675595       0.0525031051  -1.425193637106e-03   1.136354506863e-01   1.746541728877e-03
H         0.0187371716       1.0166278351      -0.2057061735  -4.582902072680e-03  -5.386311403854e-02   1.743082437956e-02
H         0.8695379669      -0.3487035975      -0.1286330509   1.973165114720e-02  -3.294495798840e-02  -9.772407916857e-03
H        -0.8708969192      -0.3711495844      -0.1232030505  -1.372457254858e-02  -2.682161780959e-02  -9.408231453518e-03
4
Properties=species:S:1:pos:R:3:forces:R:3 energy=-7.660403239462e+01 dipole="-1.4610007694e-01 4.4243821323e-02 -8.7996341319e-01" quadrupole="-1.7878095393e+00 -1.1967904257e-01 2.1101659105e-01 -1.1967904257e-01 -2.5116289495e+00 -9.6204430845e-02 2.1101659105e-01 -9.6204430845e-02 -4.2360066035e+00" polarizability="7.5821157937e+00 1.0195109642e-01 2.9977434563e-01 1.0195109642e-01 6.9864675536e+00 -4.9417567319e-02 2.9977434563e-01 -4.9417567319e-02 6.0953822025e+00" charge=1 multiplicity=1 method=wB97M-V basis=def2-svpd config_type=h3o+ sample_index=28 temperature=300.0 units=atomic
O         0.0101071860      -0.0044394343       0.0856284187  -7.408475369420e-02   6.177016209623e-03  -3.187217630807e-02
H        -0.0715865956       0.8773007635      -0.3435224170   1.290297641182e-02   1.265156394632e-02   1.090443470017e-02
H         0.7908125560      -0.4142611144      -0.2970819379   1.752756843767e-02  -1.680747293342e-02  -6.927768293632e-03
H        -0.8809665546      -0.3835484170      -0.3475538220   4.365841428009e-02  -2.018439346614e-03   2.789479810154e-02
4
Properties=species:S:1:pos:R:3:forces:R:3 energy=-7.658659848999e+01 dipole="1.6717669296e-01 -7.7836447540e-02 -6.5712317487e-01" quadrupole="-2.4937528414e+00 -2.6149895970e-01 -1.6595548743e-01 -2.6149895970e-01 -1.6331388591e+00 1.4868154776e-01 -1.6595548743e-01 1.4868154776e-01 -4.4709540435e+00" polarizability="6.3421417925e+00 -4.9913927547e-01 -2.8846672702e-01 -4.9913927547e-01 6.8017569544e+00 1.1697383514e-01 -2.8846672702e-01 1.1697383514e-01 5.5064030165e+00" charge=1 multiplicity=1 method=wB97M-V basis=def2-svpd config_type=h3o+ sample_index=29 temperature=300.0 units=atomic
O        -0.0102086635       0.0084787748       0.0681632990   1.786856397361e-01   3.775969490498e-02   5.033163607717e-02
H         0.0120107461       0.9234939679      -0.2129410424  -2.362370787529e-03   2.194780566395e-02  -1.004866783411e-02
H         0.7874396087      -0.5623553482      -0.2730751806  -1.366062708690e-02   3.419741073429e-02   1.935644674708e-02
H        -0.6361046864      -0.4888739745      -0.2221374522  -1.626652491408e-01  -9.390291638762e-02  -5.964267243796e-02
4
Properties=species:S:1:pos:R:3:forces:R:3 energy=-7.661084285883e+01 dipole="1.0840280894e-01 -4.9287642319e-03 -5.1187289862e-01" quadrupole="-1.5102401142e+00 2.4048518985e-01 -1.4102222483e-01 2.4048518985e-01 -2.0611972786e+00 -2.3847543719e-02 -1.4102222483e-01 -2.3847543719e-02 -4.7569575381e+00" polarizability="7.4875249440e+00 4.3897126015e-02 -1.3984807082e-01 4.3897126015e-02 6.9712572073e+00 1.4539671568e-02 -1.3984807082e-01 1.4539671568e-02 5.7119091920e+00" charge=1 multiplicity=1 method=wB97M-V basis=def2-svpd config_type=h3o+ sample_index=30 temperature=300.0 units=atomic
O        -0.0086128223      -0.0009112473       0.0577319534   4.850973700197e-02  -2.261182289125e-02  -2.414599113551e-03
H         0.0815743780       0.9265385844      -0.1842241880  -1.440758271579e-02   1.913219497167e-02  -3.468307538486e-03
H         0.8942916162      -0.4211898461      -0.1999964062  -3.731564387312e-02   1.117911911941e-03   1.016362040363e-02
H        -0.8380419975      -0.4830173878      -0.1569747427   3.205119832545e-03   2.363203984211e-03  -4.280418734943e-03
4
Properties=species:S:1:pos:R:3:forces:R:3 energy=-7.658648303500e+01 dipole="8.6519875208e-02 1.3097637341e-01 -4.6344392924e-01" quadrupole="-1.7519424794e+00 -7.4980342200e-01 1.7549243301e-03 -7.4980342200e-01 -1.5216449152e+00 -1.2975835630e-01 1.7549243301e-03 -1.2975835630e-01 -4.8255127174e+00" polarizability="7.1361056296e+00 -7.9291695622e-01 -9.2938782406e-02 -7.9291695622e-01 7.8658531491e+00 -1.8489382018e-01 -9.2938782406e-02 -1.8489382018e-01 5.7662986163e+00" charge=1 multiplicity=1 method=wB97M-V basis=def2-svpd config_type=h3o+ sample_index=31 temperature=300.0 units=atomic
O        -0.0006605596      -0.0080838921       0.0540350686   1.537180704974e-01   1.059145712026e-01   1.449375625756e-02
H        -0.1079133065       1.0392649444      -0.1851152250   2.280438582535e-02  -5.930140393681e-02   1.402297582358e-02
H         0.8898008288      -0.5477143519      -0.1500239562  -4.765074817889e-02   3.128453412302e-02   5.827612662762e-03
H        -0.7713296085      -0.3545764971      -0.1467954508  -1.288651674719e-01  -7.789459382459e-02  -3.434253595074e-02
4
Properties=species:S:1:pos:R:3:forces:R:3 energy=-7.658992674980e+01 dipole="1.0857365984e-01 3.0965342990e-02 -7.3528584797e-01" quadrupole="-2.3995869818e+00 -1.6470226168e-01 -1.0762175008e-01 -1.6470226168e-01 -2.0966708208e+00 -1.4822410385e-02 -1.0762175008e-01 -1.4822410385e-02 -4.2958865013e+00" polarizability="6.0214844004e+00 -2.8849938371e-01 -1.9788453596e-01 -2.8849938371e-01 6.3396032621e+00 -5.9598197893e-02 -1.9788453596e-01 -5.9598197893e-02 5.3813881316e+00" charge=1 multiplicity=1 method=wB97M-V basis=def2-svpd config_type=h3o+ sample_index=32 temperature=300.0 units=atomic
O        -0.0064638069      -0.0006017813       0.0743701641   1.512104245549e-01   7.408947666068e-02   6.733288356427e-02
H         0.0041642157       0.8931756911      -0.2723008595   1.821074422850e-04   2.767522090542e-02  -2.854798842300e-03
H         0.7702312728      -0.4639358972      -0.2838347447   1.693908611727e-02  -4.471328603694e-03   4.111650882706e-03
H        -0.6709738361      -0.4114466553      -0.2515854154  -1.683349564802e-01  -9.729473148064e-02  -6.858529179211e-02
4
Properties=species:S:1:pos:R:3:forces:R:3 energy=-7.660235892212e+01 dipole="1.1871393568e-01 -1.2269749723e-01 -4.6623044421e-01" quadrupole="-1.7289830506e+00 -4.7247201736e-01 -7.0047163677e-02 -4.7247201736e-01 -1.5763556584e+00 1.2479633813e-01 -7.0047163677e-02 1.2479633813e-01 -4.8345317685e+00" polarizability="7.5910573504e+00 -5.8459648631e-01 -1.4920587539e-01 -5.8459648631e-01 7.4478607321e+00 1.3381627637e-01 -1.4920587539e-01 1.3381627637e-01 5.7883346498e+00" charge=1 multiplicity=1 method=wB97M-V basis=def2-svpd config_type=h3o+ sample_index=33 temperature=300.0 units=atomic
O        -0.0040280036       0.0080325389       0.0543291235   8.170134831868e-02  -4.827123529574e-02  -7.233438193186e-04
H        -0.0455382653       0.9523527538      -0.1402507768   6.163825414570e-03   1.323813008208e-02  -6.394018642286e-03
H         0.8954312956      -0.5947131080      -0.1831827675  -5.661002751278e-02   4.942259510966e-02   1.448240775632e-02
H        -0.7854452759      -0.4785786219      -0.1631150206  -3.125687226633e-02  -1.439265165208e-02  -7.361836233638e-03
4
Properties=species:S:1:pos:R:3:forces:R:3 energy=-7.660151851485e+01 dipole="7.4451749420e-02 -1.1286787138e-01 -7.4786369334e-01" quadrupole="-1.5088816537e+00 5.7902042065e-02 -1.0322095847e-01 5.7902042065e-02 -2.0689461693e+00 1.0628825333e-01 -1.0322095847e-01 1.0628825333e-01 -4.5689182846e+00" polarizability="8.4830002214e+00 -7.5889262862e-02 -1.4408843140e-01 -7.5889262862e-02 7.5498354902e+00 2.1396546479e-01 -1.4408843140e-01 2.1396546479e-01 6.2139075761e+00" charge=1 multiplicity=1 method=wB97M-V basis=def2-svpd config_type=h3o+ sample_index=34 temperature=300.0 units=atomic
O        -0.0052377517       0.0060308042       0.0750246250   2.515322591866e-02  -7.437091882997e-02  -3.612013296415e-02
H         0.0372989257       0.9068073168      -0.2566443242  -5.645141684061e-03   2.154666366778e-02  -5.594000165224e-03
H         0.9071895098      -0.4894640838      -0.2938318445  -5.957888195824e-02   2.726588158945e-02   2.604246075802e-02
H        -0.8606791032      -0.5057292915      -0.2676777131   4.006804233502e-02   2.555913711373e-02   1.567203832970e-02
4
Properties=species:S:1:pos:R:3:forces:R:3 energy=-7.660302947794e+01 dipole="-1.2687586883e-01 -1.0526144834e-01 -5.6461875444e-01" quadrupole="-2.0542080603e+00 -6.8036973210e-01 2.0792183332e-01 -6.8036973210e-01 -1.7972632276e+00 1.1207476282e-01 2.0792183332e-01 1.1207476282e-01 -4.6436367536e+00" polarizability="6.8971557744e+00 -3.7420131627e-01 1.3982833780e-01 -3.7420131627e-01 6.8825516662e+00 1.0364936422e-01 1.3982833780e-01 1.0364936422e-01 5.6104608693e+00" charge=1 multiplicity=1 method=wB97M-V basis=def2-svpd config_type=h3o+ sample_index=35 temperature=300.0 units=atomic
O         0.0134947662       0.0080084268       0.0616186741  -1.429829828220e-02  -5.047538908799e-02   9.849549949184e-03
H        -0.1803762141       0.9025374939      -0.1793087971   2.532426240572e-02   4.318272274174e-02  -1.171040643407e-02
H         0.7628120630      -0.6054277741      -0.1783045383   3.340033786555e-03   2.626505364807e-02  -2.079593767246e-03
H        -0.7983875255      -0.4174513082      -0.2457445250  -1.436699707648e-02  -1.897386383270e-02   3.938312538967e-03
4
Properties=species:S:1:pos:R:3:forces:R:3 energy=-7.652728671204e+01 dipole="4.6636165682e-02 1.3123138284e-01 -4.8084440914e-01" quadrupole="-2.7038148901e+00 1.3417306722e-01 -5.4307267756e-02 1.3417306722e-01 -1.6993876439e+00 -5.8035100120e-02 -5.4307267756e-02 -5.8035100120e-02 -4.4445452230e+00" polarizability="4.9455690376e+00 5.8807990709e-02 -2.6134906094e-02 5.8807990709e-02 5.8389390862e+00 -1.5931845056e-01 -2.6134906094e-02 -1.5931845056e-01 4.8564294440e+00" charge=1 multiplicity=1 method=wB97M-V basis=def2-svpd config_type=h3o+ sample_index=36 temperature=300.0 units=atomic
O        -0.0038626372      -0.0038401679       0.0552459555   1.580697812163e-02   3.038805184734e-01   1.550811031564e-01
H         0.0436486576       0.9432036614      -0.1794173346  -8.988962142525e-03   4.504105795144e-03  -1.239334145595e-03
H         0.6499342207      -0.4170365035      -0.1706071896   2.625651392200e-01  -1.472870382650e-01  -7.653081953357e-02
H        -0.6317717527      -0.4570090155      -0.1513095393  -2.693823774072e-01  -1.610974081500e-01  -7.731177530110e-02
4
Properties=species:S:1:pos:R:3:forces:R:3 energy=-7.660024808339e+01 dipole="-1.3229164512e-01 -1.3795683106e-02 -3.7883656845e-01" quadrupole="-2.1038258029e+00 -3.2893619034e-02 1.2090660393e-01 -3.2893619034e-02 -1.7919866430e+00 3.3512970074e-02 1.2090660393e-01 3.3512970074e-02 -4.7108594350e+00" polarizability="6.1937948383e+00 1.4735759610e-01 1.1942674194e-01 1.4735759610e-01 6.3576601568e+00 1.7413246864e-02 1.1942674194e-01 1.7413246864e-02 5.2701169418e+00" charge=1 multiplicity=1 method=wB97M-V basis=def2-svpd config_type=h3o+ sample_index=37 temperature=300.0 units=atomic
O         0.0090467367       0.0027732951       0.0483123942  -1.188020166137e-01   2.623624709781e-02   3.530904381726e-02
H        -0.0532053772       0.9238463021      -0.1232745178   8.554904634281e-03   4.197346181653e-02  -9.515597955469e-03
H         0.7196193469      -0.4846777318      -0.1108975751   1.192450757122e-01  -6.485217953637e-02  -2.636258946672e-02
H        -0.8111731423      -0.4760274453      -0.1560652288  -9.001894191369e-03  -3.359556170001e-03   5.760455776529e-04
4
Properties=species:S:1:pos:R:3:forces:R:3 energy=-7.659389086678e+01 dipole="-6.6275000234e-02 -2.1293595570e-01 -4.8782371265e-01" quadrupole="-1.4477600274e+00 5.5504573273e-01 7.6983724688e-03 5.5504573273e-01 -1.5444910991e+00 1.9615076530e-01 7.6983724688e-03 1.9615076530e-01 -4.8989636121e+00" polarizability="8.4742073546e+00 5.7687818503e-01 7.6600513028e-02 5.7687818503e-01 7.8558016909e+00 2.3652067882e-01 7.6600513028e-02 2.3652067882e-01 6.0386032918e+00" charge=1 multiplicity=1 method=wB97M-V basis=def2-svpd config_type=h3o+ sample_index=38 temperature=300.0 units=atomic
O        -0.0004842730       0.0124130184       0.0557829898  -2.731738742737e-02  -1.051526548957e-01  -1.430200078044e-02
H         0.0780263068       0.9418509807      -0.1353883775  -9.731669348952e-03   2.740987836406e-02  -1.021246926144e-02
H         0.8511764048      -0.5010553482      -0.1884432745  -2.800449801582e-02   1.854125726854e-02   9.224128290875e-03
H        -0.9214416981      -0.6318176716      -0.1859777212   6.505542578407e-02   5.919607847194e-02   1.529347750621e-02
4
Properties=species:S:1:pos:R:3:forces:R:3 energy=-7.656298517607e+01 dipole="3.5463961026e-01 2.6978800538e-02 -3.0535829372e-01" quadrupole="-2.1283471954e+00 -1.7525686110e-01 -2.8438241724e-01 -1.7525686110e-01 -6.5371229757e-01 8.7332772071e-02 -2.8438241724e-01 8.7332772071e-02 -4.9954197045e+00" polarizability="7.5807381392e+00 -7.6727634677e-01 -3.1905044235e-01 -7.6727634677e-01 8.6193625708e+00 8.5031751740e-02 -3.1905044235e-01 8.5031751740e-02 5.9398562652e+00" charge=1 multiplicity=1 method=wB97M-V basis=def2-svpd config_type=h3o+ sample_index=39 temperature=300.0 units=atomic
O        -0.0222480051       0.0059598363       0.0429403822   2.355820975134e-01   1.112862858450e-01   1.868967494407e-03
H         0.0925291722       1.0916515393      -0.0853231748  -2.148525884835e-02  -7.386832002743e-02   3.979345676883e-03
H         0.9151766403      -0.6124601757      -0.1648555674  -6.333980482969e-02   5.565026252316e-02   1.682780185199e-02
H        -0.6517011543      -0.5673245963      -0.0537999870  -1.507609195013e-01  -9.306886680951e-02  -2.267492581317e-02
4
Properties=species:S:1:pos:R:3:forces:R:3 energy=-7.660001387923e+01 dipole="-1.4229921224e-01 3.3135405843e-02 -8.2664239020e-01" quadrupole="-1.7014991323e+00 3.7872244221e-01 1.3156147563e-01 3.7872244221e-01 -2.2769603137e+00 -7.6041510529e-02 1.3156147563e-01 -7.6041510529e-02 -4.3721852514e+00" polarizability="7.7689237506e+00 5.4722434383e-01 2.7940278741e-01 5.4722434383e-01 7.3501805472e+00 -4.8645473122e-02 2.7940278741e-01 -4.8645473122e-02 6.1193727939e+00" charge=1 multiplicity=1 method=wB97M-V basis=def2-svpd config_type=h3o+ sample_index=40 temperature=300.0 units=atomic
O         0.0062736626      -0.0039283741       0.0811749249  -9.532702848769e-02   1.951539568406e-02  -2.576338232649e-02
H         0.0267622730       0.9170365521      -0.3182312642  -7.167965966767e-03  -7.830207960628e-03   1.465498810386e-02
H         0.7849153738      -0.3707633386      -0.2836291187   4.128061499868e-02  -3.604096094566e-02  -1.564047275131e-02
H        -0.9120642629      -0.4750987656      -0.3149131843   6.121445331329e-02   2.434977539649e-02   2.674965309740e-02
4
Properties=species:S:1:pos:R:3:forces:R:3 energy=-7.659715417504e+01 dipole="-1.8612789432e-01 -1.0322177871e-02 -4.9721436548e-01" quadrupole="-1.6506320995e+00 -7.7419480546e-01 2.6751001296e-01 -7.7419480546e-01 -1.4658905023e+00 1.0703719665e-02 2.6751001296e-01 1.0703719665e-02 -4.8896105220e+00" polarizability="8.0528673140e+00 -4.4112231309e-01 2.3371766074e-01 -4.4112231309e-01 8.1865757848e+00 -2.6460064436e-03 2.3371766074e-01 -2.6460064436e-03 6.0557411837e+00" charge=1 multiplicity=1 method=wB97M-V basis=def2-svpd config_type=h3o+ sample_index=41 temperature=300.0 units=atomic
O         0.0169046033       0.0022055157       0.0567388364  -5.978075112714e-02   3.858584191404e-03  -2.245211925453e-02
H        -0.1992629228       1.0087853887      -0.1699094616   3.895915002489e-02  -4.303663280551e-02   7.895837599528e-03
H         0.8196289310      -0.6128261277      -0.1353961774  -2.147739060794e-02   3.547311108340e-02  -8.642827219691e-04
H        -0.8908778656      -0.4236120320      -0.2198589693   4.229955073443e-02   3.709774692952e-03   1.542360028491e-02
4
Properties=species:S:1:pos:R:3:forces:R:3 energy=-7.660661220723e+01 dipole="1.2232049395e-01 4.2415351962e-02 -7.4855000412e-01" quadrupole="-1.9048844249e+00 1.5669293994e-01 -1.6696995163e-01 1.5669293994e-01 -2.4023262093e+00 -7.7732093496e-02 -1.6696995163e-01 -7.7732093496e-02 -4.3648889304e+00" polarizability="6.8254683613e+00 -3.4182480394e-02 -2.0344438155e-01 -3.4182480394e-02 6.4921517590e+00 -4.8010680796e-02 -2.0344438155e-01 -4.8010680796e-02 5.6398414311e+00" charge=1 multiplicity=1 method=wB97M-V basis=def2-svpd config_type=h3o+ sample_index=42 temperature=300.0 units=atomic
O        -0.0089664909      -0.0037872376       0.0753884098   7.565003179219e-02   8.435547300756e-03   1.302968498830e-02
H         0.0721985876       0.8733061493      -0.2869159551  -1.255531015738e-02   3.784473239460e-02  -3.178787682687e-03
H         0.8413979871      -0.3810869011      -0.2909864948  -1.298955926854e-02  -1.451208494557e-02   1.128036299128e-02
H        -0.7701208898      -0.4233976877      -0.2462078265  -5.010262702679e-02  -3.176826754857e-02  -2.113323189205e-02
4
Properties=species:S:1:pos:R:3:forces:R:3 energy=-7.659780760493e+01 dipole="-5.4880065318e-02 -2.1982733345e-02 -3.8090341695e-01" quadrupole="-1.8603036741e+00 -9.1448691073e-01 1.3295228151e-01 -9.1448691073e-01 -1.3161008373e+00 2.9735533658e-02 1.3295228151e-01 2.9735533658e-02 -4.9128964852e+00" polarizability="7.3276619069e+00 -7.5619410429e-01 3.8426468560e-02 -7.5619410429e-01 7.8655833653e+00 -1.0974133607e-02 3.8426468560e-02 -1.0974133607e-02 5.7825380743e+00" charge=1 multiplicity=1 method=wB97M-V basis=def2-svpd config_type=h3o+ sample_index=43 temperature=300.0 units=atomic
O         0.0095404852       0.0030927966       0.0485833745   3.686243743523e-02   2.153277883882e-02   1.421350326203e-04
H        -0.1829467845       1.0095784301      -0.1237674025   3.426769034816e-02  -3.662098992985e-02   4.220843548831e-03
H         0.8322812929      -0.6402891117      -0.1115102756  -3.211131696542e-02   4.682214712231e-02   2.824912902023e-03
H        -0.8020100162      -0.4113309154      -0.1592224731  -3.901834692225e-02  -3.172562119436e-02  -7.187336611225e-03
4
Properties=species:S:1:pos:R:3:forces:R:3 energy=-7.660141740316e+01 dipole="7.3233085534e-02 3.4594204854e-02 -5.5497944163e-01" quadrupole="-2.1103708943e+00 -4.5962104060e-01 -2.9089334590e-02 -4.5962104060e-01 -1.4786815677e+00 -1.0008121238e-03 -2.9089334590e-02 -1.0008121238e-03 -4.7063693004e+00" polarizability="6.8930647592e+00 -5.3607003962e-01 -1.1976193159e-01 -5.3607003962e-01 7.5600290289e+00 -5.4601566595e-02 -1.1976193159e-01 -5.4601566595e-02 5.7159953582e+00" charge=1 multiplicity=1 method=wB97M-V basis=def2-svpd config_type=h3o+ sample_index=44 temperature=300.0 units=atomic
O        -0.0019926331       0.0002442200       0.0607452558   1.078074270838e-01   6.049243291452e-02   9.284594173380e-03
H        -0.0597259419       1.0040881520      -0.1969923868   1.111715520136e-02  -4.079379304388e-02   8.472986390858e-03
H         0.8307211010      -0.5610844964      -0.2011327751  -2.750235991400e-02   3.178170018310e-02   9.407970616413e-03
H        -0.7391190988      -0.4391609058      -0.1912291860  -9.141998571658e-02  -5.147902929016e-02  -2.717053547185e-02
4
Properties=species:S:1:pos:R:3:forces:R:3 energy=-7.658412670266e+01 dipole="9.5865632194e-03 -5.5874225686e-02 -1.1141074004e+00" quadrupole="-2.4149406553e+00 -4.5118661286e-01 3.1323396568e-02 -4.5118661286e-01 -1.9622663119e+00 1.1199340716e-01 3.1323396568e-02 1.1199340716e-01 -3.8877545547e+00" polarizability="8.3560337091e+00 -5.4637203774e-01 -8.4556174767e-02 -5.4637203774e-01 8.7121372180e+00 1.2551887500e-01 -8.4556174767e-02 1.2551887500e-01 7.1579454611e+00" charge=1 multiplicity=1 method=wB97M-V basis=def2-svpd config_type=h3o+ sample_index=45 temperature=300.0 units=atomic
O         0.0018309802       0.0052439136       0.1049103388   1.125720012904e-02  -1.188629305632e-02  -1.163549755553e-01
H        -0.0811840093       0.9463190254      -0.4186610180   1.632946107017e-02  -4.201104968411e-02   3.668970722752e-02
H         0.8056661420      -0.5726239836      -0.4344962285  -3.985976954154e-02   4.492877754221e-02   4.454049105389e-02
H        -0.7538032824      -0.4488289678      -0.4436856802   1.227431388086e-02   8.967112520300e-03   3.512255312072e-02
4
Properties=species:S:1:pos:R:3:forces:R:3 energy=-7.660035671280e+01 dipole="1.1216790065e-02 -4.9044221797e-02 -5.2387851095e-01" quadrupole="-2.4569047346e+00 2.6911658812e-01 -3.6777589775e-02 2.6911658812e-01 -1.6337422638e+00 9.9518698452e-02 -3.6777589775e-02 9.9518698452e-02 -4.5850996151e+00" polarizability="6.0124432829e+00 2.1334576996e-01 1.4063754477e-02 2.1334576996e-01 6.5099867749e+00 4.6779698958e-02 1.4063754477e-02 4.6779698958e-02 5.3024170871e+00" charge=1 multiplicity=1 method=wB97M-V basis=def2-svpd config_type=h3o+ sample_index=46 temperature=300.0 units=atomic
O        -0.0024615643       0.0066554323       0.0586558495  -4.379142984323e-02   2.107979736730e-02   4.458384921489e-02
H         0.0577549621       0.9263192434      -0.1673783310  -8.470204394835e-03   3.142538290791e-02  -1.116538866647e-02
H         0.7051900691      -0.4738614309      -0.2004045785   9.953731710729e-02  -4.829508034230e-02  -2.494218101307e-02
H        -0.7235507360      -0.5512249757      -0.1880881198  -4.727366879544e-02  -4.216267202396e-03  -8.479963066694e-03
4
Properties=species:S:1:pos:R:3:forces:R:3 energy=-7.659058268020e+01 dipole="1.2014318472e-01 -8.4864510916e-02 -5.0130601768e-01" quadrupole="-2.8042121168e+00 -3.0285364202e-02 -1.1810277253e-01 -3.0285364202e-02 -7.1499810902e-01 2.2658959607e-01 -1.1810277253e-01 2.2658959607e-01 -4.7670006531e+00" polarizability="6.6208091414e+00 -2.3940404166e-01 -1.5053169629e-01 -2.3940404166e-01 7.9790947437e+00 1.5399766502e-01 -1.5053169629e-01 1.5399766502e-01 5.7383004273e+00" charge=1 multiplicity=1 method=wB97M-V basis=def2-svpd config_type=h3o+ sample_index=47 temperature=300.0 units=atomic
O        -0.0083974908       0.0139310929       0.0569530839   7.862448036502e-02   1.562721359470e-02   5.585374959392e-03
H         0.0410094850       1.0330524679      -0.1372779069  -8.013990319333e-03  -4.463035472988e-02  -1.973499080672e-03
H         0.7317490821      -0.6274529929      -0.2165183220   1.141554027435e-02   4.164996777817e-02   1.113333044846e-02
H        -0.6383855724      -0.6209622543      -0.1745979773  -8.202720317522e-02  -1.264373134879e-02  -1.473828811129e-02
4
Properties=species:S:1:pos:R:3:forces:R:3 energy=-7.660113660803e+01 dipole="-1.0398741094e-01 -1.5130985918e-01 -4.4809455754e-01" quadrupole="-1.7551560105e+00 -1.0862777551e-01 1.1672955415e-01 -1.0862777551e-01 -1.2653578462e+00 1.7379428824e-01 1.1672955415e-01 1.7379428824e-01 -4.9373578769e+00" polarizability="8.1341246519e+00 8.6393153692e-02 1.3366742903e-01 8.6393153692e-02 8.1384137464e+00 1.8071286793e-01 1.3366742903e-01 1.8071286793e-01 6.0235215094e+00" charge=1 multiplicity=1 method=wB97M-V basis=def2-svpd config_type=h3o+ sample_index=48 temperature=300.0 units=atomic
O         0.0076570543       0.0113099082       0.0531485667  -3.886041957115e-02  -6.505459422252e-02  -1.913662191669e-02
H        -0.0574854317       0.9921423433      -0.1244792399   9.891329262365e-03  -1.731247575664e-02  -2.735397092473e-03
H         0.8193684939      -0.5972557539      -0.1524226065  -2.364675836463e-02   3.870238585102e-02   5.642812189058e-03
H        -0.8844068817      -0.5683505925      -0.1906597589   5.260972674163e-02   4.366093433475e-02   1.623289835376e-02
4
Properties=species:S:1:pos:R:3:forces:R:3 energy=-7.660467456109e+01 dipole="8.9652765186e-02 -1.0394122711e-01 -3.3677037520e-01" quadrupole="-1.6806202375e+00 -3.9008406437e-01 -3.8391098422e-02 -3.9008406437e-01 -1.7874312761e+00 8.1033834464e-02 -3.8391098422e-02 8.1033834464e-02 -4.8475719090e+00" polarizability="7.0878652604e+00 -4.1776843703e-01 -8.1327196384e-02 -4.1776843703e-01 6.7817331632e+00 8.4393690665e-02 -8.1327196384e-02 8.4393690665e-02 5.5207954300e+00" charge=1 multiplicity=1 method=wB97M-V basis=def2-svpd config_type=h3o+ sample_index=49 temperature=300.0 units=atomic
O        -0.0025319393       0.0061943053       0.0453517372   8.261762607210e-02  -6.862002217518e-02   1.309104451041e-02
H        -0.0436747418       0.9188462387      -0.0975759349   5.225394317632e-03   5.960472026232e-02  -1.145245510709e-02
H         0.8784639882      -0.5548105979      -0.1289110425  -4.332275493288e-02   3.540656855514e-02   7.315678514093e-03
H        -0.7942771325      -0.4557251873      -0.1163053978  -4.452041274082e-02  -2.639129641219e-02  -8.948246544024e-03
4
Properties=species:S:1:pos:R:3:forces:R:3 energy=-7.656864859803e+01 dipole="-6.8625935165e-02 4.0937546568e-02 -8.8192624757e-01" quadrupole="-1.2796831962e+00 -1.6563656555e-01 1.1528186045e-01 -1.6563656555e-01 -1.6463909082e+00 -7.7781505103e-02 1.1528186045e-01 -7.7781505103e-02 -4.5826333006e+00" polarizability="1.0210419706e+01 -6.3639002450e-02 1.5835767673e-01 -6.3639002450e-02 9.9278263074e+00 -9.0421102289e-02 1.5835767673e-01 -9.0421102289e-02 7.1965962356e+00" charge=1 multiplicity=1 method=wB97M-V basis=def2-svpd config_type=h3o+ sample_index=50 temperature=300.0 units=atomic
O         0.0052179551      -0.0031684468       0.0852756479  -1.913918710094e-02   1.235400789183e-02  -8.970369379221e-02
H        -0.0496623121       1.0596858693      -0.3379001573   1.006491189670e-02  -7.744533393090e-02   3.256214118115e-02
H         0.9260232321      -0.5192912973      -0.3091841803  -6.674187032634e-02   3.576613785882e-02   2.498706077448e-02
H        -0.9598648477      -0.4814154023      -0.3352490099   7.581525496299e-02   2.932208361068e-02   3.215865918974e-02
4
Properties=species:S:1:pos:R:3:forces:R:3 energy=-7.661280399813e+01 dipole="6.6137281116e-02 4.8423849392e-02 -5.0931716691e-01" quadrupole="-1.9530501938e+00 1.4329893900e-01 -8.1485848518e-02 1.4329893900e-01 -1.8364411459e+00 -4.1762872290e-02 -8.1485848518e-02 -4.1762872290e-02 -4.6941650141e+00" polarizability="6.6898586733e+00 3.2988481497e-02 -7.3343883383e-02 3.2988481497e-02 6.9070132290e+00 -5.8960353063e-02 -7.3343883383e-02 -5.8960353063e-02 5.5334052370e+00" charge=1 multiplicity=1 method=wB97M-V basis=def2-svpd config_type=h3o+ sample_index=51 temperature=300.0 units=atomic
O        -0.0052020512      -0.0021505319       0.0575792253   3.651271677454e-02   4.034484308699e-02   1.209568062272e-02
H         0.0492678147       0.9582650247      -0.1869833847  -9.865644467023e-03  -8.976094051662e-03   2.636729693733e-03
H         0.8185289452      -0.4393913285      -0.1888581874   1.153225005375e-02  -1.269385957528e-02  -2.270044445775e-03
H        -0.7845524587      -0.4767306337      -0.1628737523  -3.818274930473e-02  -1.866806475368e-02  -1.246408521682e-02
4
Properties=species:S:1:pos:R:3:forces:R:3 energy=-7.660563185249e+01 dipole="1.5067709638e-01 9.6697896181e-02 -7.9718770647e-01" quadrupole="-1.8403971866e+00 1.9945054862e-01 -2.1088785785e-01 1.9945054862e-01 -2.3378466199e+00 -1.4850549929e-01 -2.1088785785e-01 -1.4850549929e-01 -4.3617329397e+00" polarizability="7.2212920693e+00 -2.5005469453e-02 -2.6684908582e-01 -2.5005469453e-02 7.0365564243e+00 -1.5814971488e-01 -2.6684908582e-01 -1.5814971488e-01 5.9149432597e+00" charge=1 multiplicity=1 method=wB97M-V basis=def2-svpd config_type=h3o+ sample_index=52 temperature=300.0 units=atomic
O        -0.0107721142      -0.0073601182       0.0790264719   8.761358755866e-02   4.612468592322e-02  -1.496634083024e-02
H         0.0866042801       0.9159878370      -0.3166454856  -1.794155195311e-02  -9.204328472782e-03   1.634161809509e-02
H         0.8666073720      -0.3696624443      -0.3097710818  -2.985406465472e-02  -1.022417819550e-02   1.784076937409e-02
H        -0.7808433838      -0.4202625538      -0.2559750796  -3.981343561266e-02  -2.669196600779e-02  -1.921742215021e-02
4
Properties=species:S:1:pos:R:3:forces:R:3 energy=-7.660795964396e+01 dipole="7.0070744459e-02 -1.1959629898e-02 -3.6537789915e-01" quadrupole="-1.4427848123e+00 -4.0729283702e-01 -1.6439196251e-02 -4.0729283702e-01 -1.7752359251e+00 -9.0492457763e-03 -1.6439196251e-02 -9.0492457763e-03 -4.9154195194e+00" polarizability="7.6261495251e+00 -4.2188782945e-01 -5.7158375669e-02 -4.2188782945e-01 7.3501141272e+00 5.4784606077e-03 -5.7158375669e-02 5.4784606077e-03 5.7392434558e+00" charge=1 multiplicity=1 method=wB97M-V basis=def2-svpd config_type=h3o+ sample_index=53 temperature=300.0 units=atomic
O        -0.0010770335      -0.0003444933       0.0473934593   5.673448424411e-02  -6.584527967891e-03  -2.337822510453e-03
H        -0.0523831938       0.9705515968      -0.1273160285   9.425828677532e-03  -7.303613574391e-03   3.070432981764e-04
H         0.9120039099      -0.5291532180      -0.1267791685  -5.305329810469e-02   3.085119376484e-02   6.573012545257e-03
H        -0.8423895744      -0.4284134017      -0.1214373482  -1.310645495673e-02  -1.696216067729e-02  -4.542617583393e-03
4
Properties=species:S:1:pos:R:3:forces:R:3 energy=-7.661300314704e+01 dipole="1.5773771069e-03 5.4046212808e-02 -7.5436554812e-01" quadrupole="-1.9023417815e+00 4.4308256691e-02 -7.4427054605e-03 4.4308256691e-02 -2.0482940524e+00 -7.5727455939e-02 -7.4427054605e-03 -7.5727455939e-02 -4.4725637711e+00" polarizability="7.3511189476e+00 3.8271364412e-02 -1.3953615105e-03 3.8271364412e-02 7.3853553500e+00 -9.3369033954e-02 -1.3953615105e-03 -9.3369033954e-02 5.9634302173e+00" charge=1 multiplicity=1 method=wB97M-V basis=def2-svpd config_type=h3o+ sample_index=54 temperature=300.0 units=atomic
O        -0.0003929953      -0.0035691540       0.0757935598  -1.925147736214e-03   2.523031102903e-02  -2.697907627650e-02
H         0.0089447212       0.9504042587      -0.2884271780  -1.900888420335e-03  -2.411497936776e-02   1.509330914558e-02
H         0.8224590950      -0.4366283983      -0.2720312082  -7.641234113151e-03  -2.612144915646e-03   5.489821703496e-03
H        -0.8251189906      -0.4485015337      -0.2700659009   1.146782401985e-02   1.493904781827e-03   6.395321630018e-03
4
Properties=species:S:1:pos:R:3:forces:R:3 energy=-7.660908730140e+01 dipole="6.8170184013e-02 7.1702829460e-02 -6.1721645458e-01" quadrupole="-1.7226118657e+00 5.1090746917e-01 -1.3649338690e-01 5.1090746917e-01 -1.9913690362e+00 -1.0059524664e-01 -1.3649338690e-01 -1.0059524664e-01 -4.6509033115e+00" polarizability="7.2931869570e+00 3.5304538102e-01 -9.2574556245e-02 3.5304538102e-01 7.3014768062e+00 -1.1597849996e-01 -9.2574556245e-02 -1.1597849996e-01 5.8077269274e+00" charge=1 multiplicity=1 method=wB97M-V basis=def2-svpd config_type=h3o+ sample_index=55 temperature=300.0 units=atomic
O        -0.0077133891      -0.0052112003       0.0654051864   7.725137376168e-03   3.583727665724e-02  -9.833533018154e-03
H         0.1178477384       0.9598345949      -0.2376288844  -2.500445139886e-02  -2.186599201247e-02   1.096608850056e-02
H         0.8423719923      -0.3677577725      -0.2325258409   3.721078069535e-03  -2.443984013239e-02   3.799599876767e-04
H        -0.8367851285      -0.5007628381      -0.1939693638   1.355395206224e-02   1.046549021174e-02  -1.511242008716e-03
4
Properties=species:S:1:pos:R:3:forces:R:3 energy=-7.659711419564e+01 dipole="1.7787743068e-01 6.0695100293e-02 -6.5881959300e-01" quadrupole="-1.1957042919e+00 1.6420099691e-01 -2.2428526500e-01 1.6420099691e-01 -2.0522711446e+00 -1.1128384935e-01 -2.2428526500e-01 -1.1128384935e-01 -4.7385706421e+00" polarizability="8.6958869037e+00 -1.0587484663e-01 -2.8775200613e-01 -1.0587484663e-01 7.9952533851e+00 -7.7840597709e-02 -2.8775200613e-01 -7.7840597709e-02 6.2561611451e+00" charge=1 multiplicity=1 method=wB97M-V basis=def2-svpd config_type=h3o+ sample_index=56 temperature=300.0 units=atomic
O        -0.0116957350      -0.0058531282       0.0682904837   7.050297316121e-02   2.071059116240e-02  -3.721545664909e-02
H         0.0841215822       0.9800410971      -0.2548801059  -1.770805745224e-02  -3.920853366543e-02   1.598842749711e-02
H         0.9732770701      -0.4203204703      -0.2569373973  -7.430975047862e-02   1.261011852439e-02   2.215672937849e-02
H        -0.8702476275      -0.4580857338      -0.1985335983   2.151759870537e-02   5.889498374503e-03  -9.262131326914e-04
4
Properties=species:S:1:pos:R:3:forces:R:3 energy=-7.660325571436e+01 dipole="-1.4002690324e-03 -1.4309856647e-02 -8.7709111229e-01" quadrupole="-1.9959019122e+00 -1.1529351068e-01 1.5327031866e-02 -1.1529351068e-01 -1.8405485459e+00 2.8682454668e-02 1.5327031866e-02 2.8682454668e-02 -4.3753633236e+00" polarizability="8.1272745345e+00 -1.1728598094e-01 -3.1910081707e-03 -1.1728598094e-01 8.2380935281e+00 2.8353056889e-02 -3.1910081707e-03 2.8353056889e-02 6.4784331665e+00" charge=1 multiplicity=1 method=wB97M-V basis=def2-svpd config_type=h3o+ sample_index=57 temperature=300.0 units=atomic
O         0.0008218384       0.0018998065       0.0852892738   2.392106531518e-03  -4.239750002451e-03  -6.804320226142e-02
H        -0.0217060909       0.9728791273      -0.3234090800   4.364359963298e-03  -4.223838603620e-02   2.176541184193e-02
H         0.8330713765      -0.5124916387      -0.3275141466  -3.680619607505e-02   2.776486406931e-02   2.387261888625e-02
H        -0.8245253231      -0.4824622705      -0.3316297641   3.005084047682e-02   1.871295474668e-02   2.241030407779e-02
4
Properties=species:S:1:pos:R:3:forces:R:3 energy=-7.658737913915e+01 dipole="-1.4231041989e-02 -2.6618043284e-02 -8.4195257782e-01" quadrupole="-2.8983906749e+00 -2.0889918273e-01 3.8275885423e-02 -2.0889918273e-01 -1.8856461910e+00 1.0331982741e-01 3.8275885423e-02 1.0331982741e-01 -4.1113763780e+00" polarizability="5.7924253630e+00 -1.7668320857e-01 -1.7718783636e-02 -1.7668320857e-01 6.5088567914e+00 1.2485181824e-02 -1.7718783636e-02 1.2485181824e-02 5.4767038545e+00" charge=1 multiplicity=1 method=wB97M-V basis=def2-svpd config_type=h3o+ sample_index=58 temperature=300.0 units=atomic
O         0.0020097727       0.0057706570       0.0829547834   3.450261872194e-02   5.811097544713e-02   5.595256853363e-02
H        -0.0487371775       0.8940116185      -0.2998305532   8.710024944858e-03   1.917593031081e-02  -1.947438489532e-03
H         0.6495684013      -0.5219678043      -0.3176274289   7.993281466135e-02  -2.002571804961e-02  -1.495380772655e-02
H        -0.6330038600      -0.4560611316      -0.3276878206  -1.231406371737e-01  -5.726288194314e-02  -3.905185830475e-02
4
Properties=species:S:1:pos:R:3:forces:R:3 energy=-7.660578980197e+01 dipole="-7.1527481901e-02 -1.1158053566e-01 -8.4305819622e-01" quadrupole="-2.0985080348e+00 1.5024417334e-01 7.8264980138e-02 1.5024417334e-01 -2.1902037712e+00 1.3869888610e-01 7.8264980138e-02 1.3869888610e-01 -4.2733086555e+00" polarizability="7.2943833249e+00 2.4990971538e-01 1.5771653723e-01 2.4990971538e-01 6.8835430683e+00 2.2329121572e-01 1.5771653723e-01 2.2329121572e-01 5.9428615542e+00" charge=1 multiplicity=1 method=wB97M-V basis=def2-svpd config_type=h3o+ sample_index=59 temperature=300.0 units=atomic
O         0.0037469656       0.0075072300       0.0827017942  -4.434243987277e-02  -7.833117851779e-02  -1.432774687469e-02
H         0.0036413918       0.8594202756      -0.2934539361  -1.460956288728e-03   5.720420086377e-02  -1.700380213849e-02
H         0.7598142316      -0.4651491502      -0.3144985949   1.342166187674e-02  -4.257344867106e-03   4.844737528731e-03
H        -0.8234169371      -0.5060719628      -0.3331920746   3.238463913573e-02   2.538127053486e-02   2.649363180536e-02
4
Properties=species:S:1:pos:R:3:forces:R:3 energy=-7.659816571153e+01 dipole="-5.4540444066e-02 1.4552919893e-01 -2.5895689402e-01" quadrupole="-1.4171991244e+00 -7.8386214574e-01 1.2642036139e-01 -7.8386214574e-01 -1.6670448255e+00 -1.4638871999e-01 1.2642036139e-01 -1.4638871999e-01 -4.9829898864e+00" polarizability="7.4459970020e+00 -6.0656723615e-01 6.5456944059e-02 -6.0656723615e-01 7.7562421886e+00 -1.4553359010e-01 6.5456944059e-02 -1.4553359010e-01 5.7581520144e+00" charge=1 multiplicity=1 method=wB97M-V basis=def2-svpd config_type=h3o+ sample_index=60 temperature=300.0 units=atomic
O         0.0085338316      -0.0102085366       0.0401350769   2.135830924553e-02   7.478281477500e-02  -1.073624528871e-03
H        -0.1555983107       1.0319508638      -0.1169377305   3.445079748404e-02  -5.217332571933e-02   8.644486068437e-03
H         0.8852224950      -0.5260678931      -0.0498509612  -3.025219869948e-02   1.797433661578e-02  -2.570677494125e-03
H        -0.8661860320      -0.3352115320      -0.0925224172  -2.555945655451e-02  -4.057841495975e-02  -5.000688461362e-03
4
Properties=species:S:1:pos:R:3:forces:R:3 energy=-7.660940543490e+01 dipole="1.1168413825e-02 -1.2601355674e-02 -5.5671725089e-01" quadrupole="-2.2645593647e+00 2.3795722390e-01 -3.6259307993e-02 2.3795722390e-01 -1.7087421464e+00 4.6548457976e-02 -3.6259307993e-02 4.6548457976e-02 -4.6079470989e+00" polarizability="6.3748547543e+00 1.8931629089e-01 3.4616410710e-03 1.8931629089e-01 6.7814701404e+00 8.2102725988e-03 3.4616410710e-03 8.2102725988e-03 5.4587018690e+00" charge=1 multiplicity=1 method=wB97M-V basis=def2-svpd config_type=h3o+ sample_index=61 temperature=300.0 units=atomic
O        -0.0022855914       0.0033050292       0.0610411590  -2.648443735331e-02   2.362608270547e-02   2.379382013817e-02
H         0.0503498610       0.9427401602      -0.1897742650  -8.753828222536e-03   7.090949638942e-03  -3.495408187152e-03
H         0.7457968854      -0.4608403445      -0.2078865422   6.210382058329e-02  -3.084708042567e-02  -1.513499554673e-02
H        -0.7595695081      -0.5269948185      -0.1964525200  -2.686275325662e-02   1.297552740485e-04  -5.172158513986e-03
4
Properties=species:S:1:pos:R:3:forces:R:3 energy=-7.660346150524e+01 dipole="-1.6843420137e-01 -1.3569979805e-01 -7.1749377814e-01" quadrupole="-2.0788970509e+00 -2.2986958641e-01 2.3441383200e-01 -2.2986958641e-01 -1.6786883277e+00 1.8703316519e-01 2.3441383200e-01 1.8703316519e-01 -4.5578263119e+00" polarizability="7.6512924309e+00 8.3731704998e-02 2.9167413162e-01 8.3731704998e-02 7.5850057595e+00 2.2930374134e-01 2.9167413162e-01 2.2930374134e-01 6.0421300423e+00" charge=1 multiplicity=1 method=wB97M-V basis=def2-svpd config_type=h3o+ sample_index=62 temperature=300.0 units=atomic
O         0.0130715522       0.0106906204       0.0727640202  -6.555975454676e-02  -5.992141735110e-02  -2.487998002643e-02
H        -0.1070878765       0.9300065859      -0.2311375076   1.667222275169e-02   7.513272161500e-03  -5.295689484268e-03
H         0.7483810213      -0.5789578051      -0.2427110915   5.999243282664e-03   2.216577940141e-02   1.335064163194e-03
H        -0.8504665203      -0.5140960471      -0.3079943731   4.288949989787e-02   3.024254665061e-02   2.884296259674e-02
4
Properties=species:S:1:pos:R:3:forces:R:3 energy=-7.660079716348e+01 dipole="5.3205134790e-03 -8.8905034797e-02 -6.3252010409e-01" quadrupole="-1.9610867535e+00 -5.1850887991e-01 4.5832627863e-02 -5.1850887991e-01 -1.3175071508e+00 1.3256769019e-01 4.5832627863e-02 1.3256769019e-01 -4.7510829278e+00" polarizability="7.9721036971e+00 -5.2512821215e-01 -2.9657756869e-02 -5.2512821215e-01 8.3642230183e+00 1.2515780973e-01 -2.9657756869e-02 1.2515780973e-01 6.1554924859e+00" charge=1 multiplicity=1 method=wB97M-V basis=def2-svpd config_type=h3o+ sample_index=63 temperature=300.0 units=atomic
O         0.0031156652       0.0077832810       0.0664800171   1.820723120423e-02  -2.475908881976e-02  -3.208248767640e-02
H        -0.0907189900       1.0053870431      -0.2059037192   1.610235227541e-02  -4.052488720053e-02   6.516056289885e-03
H         0.8460527378      -0.6252783028      -0.2298181280  -4.415354793037e-02   5.330041370590e-02   1.629061936475e-02
H        -0.8051999856      -0.4968233725      -0.2454199438   9.843801502073e-03   1.198116989646e-02   9.270815255480e-03
4
Properties=species:S:1:pos:R:3:forces:R:3 energy=-7.660753787907e+01 dipole="1.2358483684e-01 -9.7775952532e-02 -3.9433056242e-01" quadrupole="-1.8629610651e+00 -3.4791670569e-02 -1.1421595480e-01 -3.4791670569e-02 -1.3865358980e+00 1.1890149500e-01 -1.1421595480e-01 1.1890149500e-01 -4.9009479741e+00" polarizability="7.4862673627e+00 -2.2874951617e-01 -1.3570486249e-01 -2.2874951617e-01 7.6077633711e+00 1.0955848176e-01 -1.3570486249e-01 1.0955848176e-01 5.7813168098e+00" charge=1 multiplicity=1 method=wB97M-V basis=def2-svpd config_type=h3o+ sample_index=64 temperature=300.0 units=atomic
O        -0.0078452736       0.0082477327       0.0493949274   6.545601536636e-02  -3.727457195302e-02  -5.973349478816e-03
H         0.0380486432       0.9820165846      -0.1132509762  -7.166087526049e-03  -9.176491837189e-03  -3.120818336536e-03
H         0.8706817493      -0.5565295520      -0.1666924463  -4.416869608404e-02   3.766036500097e-02   1.233977301870e-02
H        -0.7831907648      -0.5500078047      -0.1275273661  -1.411686560950e-02   8.788388961158e-03  -3.237317485250e-03
4
Properties=species:S:1:pos:R:3:forces:R:3 energy=-7.661183338868e+01 dipole="-1.7145111961e-02 -2.2744937700e-02 -7.2684309394e-01" quadrupole="-1.9574691489e+00 2.2905481927e-01 -6.1389031486e-03 2.2905481927e-01 -1.8639058247e+00 3.1946583918e-02 -6.1389031486e-03 3.1946583918e-02 -4.5325493880e+00" polarizability="7.4768029177e+00 2.3898544959e-01 3.9358228332e-02 2.3898544959e-01 7.5046501029e+00 3.5364871171e-02 3.9358228332e-02 3.5364871171e-02 5.9821455637e+00" charge=1 multiplicity=1 method=wB97M-V basis=def2-svpd config_type=h3o+ sample_index=65 temperature=300.0 units=atomic
O        -0.0004481846       0.0021607159       0.0736542165  -2.155595507299e-02  -8.086439386981e-03  -2.717960278998e-02
H         0.0373412394       0.9497497036      -0.2604759249  -7.164062164063e-03  -1.602333217027e-02   7.473048184234e-03
H         0.8027870203      -0.4578334634      -0.2689844918  -8.941556303479e-04  -6.796154226032e-04   5.343695434367e-03
H        -0.8329559793      -0.5184138097      -0.2667260318   2.961440508257e-02   2.479417190537e-02   1.435961433559e-02
4
Properties=species:S:1:pos:R:3:forces:R:3 energy=-7.660736777575e+01 dipole="1.0348247495e-01 -2.2065703751e-02 -8.5950654782e-01" quadrupole="-2.0103313987e+00 2.4324246366e-01 -1.7021266197e-01 2.4324246366e-01 -2.3907018219e+00 7.6672486198e-03 -1.7021266197e-01 7.6672486198e-03 -4.2302567212e+00" polarizability="7.2138472801e+00 5.5173032787e-02 -2.0034470674e-01 5.5173032787e-02 6.7773438131e+00 6.1824362310e-02 -2.0034470674e-01 6.1824362310e-02 5.9316384604e+00" charge=1 multiplicity=1 method=wB97M-V basis=def2-svpd config_type=h3o+ sample_index=66 temperature=300.0 units=atomic
O        -0.0085714969       0.0010049745       0.0841472228   4.212750708511e-02  -2.961881033245e-02  -1.900849458365e-02
H         0.0856194672       0.8606203458      -0.3199219706  -1.429803351715e-02   3.787495486088e-02  -3.323230944678e-03
H         0.8267517772      -0.3995403779      -0.3436346151  -1.910560212008e-02  -6.511663444734e-03   2.168916497943e-02
H        -0.7752166743      -0.4687610606      -0.3008189439  -8.728993127241e-03  -1.740149090635e-03   6.453385633746e-04
4
Properties=species:S:1:pos:R:3:forces:R:3 energy=-7.659130651510e+01 dipole="-1.6112224474e-02 -2.1759900236e-01 -2.1179661890e-01" quadrupole="-1.9338902913e+00 -8.1215680997e-01 7.7614407529e-02 -8.1215680997e-01 -1.4968721548e+00 1.6339585354e-01 7.7614407529e-02 1.6339585354e-01 -4.8818403562e+00" polarizability="6.8170693306e+00 -5.8618879985e-01 3.4512049245e-03 -5.8618879985e-01 6.8325944801e+00 1.0535669698e-01 3.4512049245e-03 1.0535669698e-01 5.4599926217e+00" charge=1 multiplicity=1 method=wB97M-V basis=def2-svpd config_type=h3o+ sample_index=67 temperature=300.0 units=atomic
O         0.0078688751       0.0142396532       0.0369764421   7.097599857456e-02  -1.113497744736e-01   1.264169326593e-02
H        -0.1653382235       0.9018589724      -0.0296304067   1.187638343409e-02   9.061934780801e-02  -8.879794035693e-03
H         0.8114377822      -0.6681967453      -0.0697743463  -2.604239459392e-02   5.481569390869e-02   3.674810091264e-03
H        -0.7720227477      -0.4543168231      -0.1091352738  -5.680994029301e-02  -3.408415133059e-02  -7.434179374763e-03
4
Properties=species:S:1:pos:R:3:forces:R:3 energy=-7.656529211871e+01 dipole="1.4585445492e-02 2.8826941268e-01 -4.4992837059e-01" quadrupole="-2.3661575591e+00 -8.9645450603e-02 -3.2672534948e-03 -8.9645450603e-02 -1.3862537716e+00 -2.2596615591e-01 -3.2672534948e-03 -2.2596615591e-01 -4.6637886292e+00" polarizability="5.7451400069e+00 -9.9301171042e-02 -1.7851889859e-02 -9.9301171042e-02 7.2019250714e+00 -3.2708144784e-01 -1.7851889859e-02 -3.2708144784e-01 5.3462383079e+00" charge=1 multiplicity=1 method=wB97M-V basis=def2-svpd config_type=h3o+ sample_index=68 temperature=300.0 units=atomic
O        -0.0005559833      -0.0141645626       0.0527855433   5.764209125606e-02   2.510826335712e-01   6.484613224961e-02
H        -0.0122852745       1.0648922490      -0.1959772670   2.588901789936e-03  -7.245490250900e-02   1.712737553000e-02
H         0.7389721971      -0.4285261352      -0.1343635626   1.303160349637e-01  -7.293172022227e-02  -3.328785058633e-02
H        -0.7177903764      -0.4020974367      -0.1315971835  -1.905520240094e-01  -1.056872590725e-01  -4.868729330333e-02
4
Properties=species:S:1:pos:R:3:forces:R:3 energy=-7.660712264105e+01 dipole="-1.0434039509e-01 -1.3071272335e-02 -3.6852486472e-01" quadrupole="-1.9961742187e+00 1.1177138665e-01 8.1420269710e-02 1.1177138665e-01 -1.7020692042e+00 3.0286156289e-02 8.1420269710e-02 3.0286156289e-02 -4.7779242911e+00" polarizability="6.5202800645e+00 2.2920009181e-01 9.8640382043e-02 2.2920009181e-01 6.7021544703e+00 1.5934551506e-02 9.8640382043e-02 1.5934551506e-02 5.4051717054e+00" charge=1 multiplicity=1 method=wB97M-V basis=def2-svpd config_type=h3o+ sample_index=69 temperature=300.0 units=atomic
O         0.0060224622       0.0024285585       0.0476034934  -1.009184033797e-01   1.859430017157e-02   2.097775663824e-02
H        -0.0146256744       0.9480917957      -0.1204676641   3.051443799391e-03   1.705292085908e-02  -5.154230884755e-03
H         0.7486848082      -0.4745945701      -0.1141719736   8.784839485583e-02  -4.658976000959e-02  -1.898524940155e-02
H        -0.8304218479      -0.5048752728      -0.1442269033   1.001567092486e-02   1.093861893451e-02   3.171637109940e-03
4
Properties=species:S:1:pos:R:3:forces:R:3 energy=-7.658972629261e+01 dipole="-3.1156590336e-01 1.1152901397e-01 -2.3502864614e-01" quadrupole="-1.2272024719e+00 -8.6969767573e-02 2.4865414725e-01 -8.6969767573e-02 -1.8559177157e+00 -1.0564883537e-01 2.4865414725e-01 -1.0564883537e-01 -4.9735009339e+00" polarizability="7.6976044665e+00 2.8288956370e-01 2.1343897791e-01 2.8288956370e-01 7.3784893473e+00 -6.2512282191e-02 2.1343897791e-01 -6.2512282191e-02 5.7355120306e+00" charge=1 multiplicity=1 method=wB97M-V basis=def2-svpd config_type=h3o+ sample_index=70 temperature=300.0 units=atomic
O         0.0187350140      -0.0080806628       0.0382501240  -1.931929209038e-01   7.813054647042e-02  -3.431703872072e-03
H        -0.1082469972       0.9983647466      -0.1007347232   2.393646797060e-02  -3.368380086933e-02   5.281707665115e-03
H         0.7983743294      -0.4381647537      -0.0174295809   9.322560735298e-02  -5.407419921663e-02  -1.177414237994e-02
H        -0.9899100109      -0.4236075155      -0.1109653950   7.602720429867e-02   9.630729785842e-03   9.924681817497e-03
4
Properties=species:S:1:pos:R:3:forces:R:3 energy=-7.659170746830e+01 dipole="-1.9219869651e-01 1.4580531776e-01 -3.2930175654e-01" quadrupole="-1.2917013218e+00 3.8350268893e-01 1.1513915758e-01 3.8350268893e-01 -1.6765399329e+00 -1.4722773249e-01 1.1513915758e-01 -1.4722773249e-01 -4.9746812770e+00" polarizability="7.7636883640e+00 5.5336718694e-01 1.4007622117e-01 5.5336718694e-01 7.9279746337e+00 -1.4191702743e-01 1.4007622117e-01 -1.4191702743e-01 5.8568591883e+00" charge=1 multiplicity=1 method=wB97M-V basis=def2-svpd config_type=h3o+ sample_index=71 temperature=300.0 units=atomic
O         0.0083688831      -0.0106422491       0.0447159239  -1.439977170329e-01   8.801206449938e-02  -3.116147851930e-03
H         0.0119519482       1.0427978857      -0.1426658369  -1.718226711673e-03  -6.067058997520e-02   1.092350530833e-02
H         0.8230658167      -0.3835348310      -0.0741411347   7.489930689023e-02  -4.999542863927e-02  -1.541467500497e-02
H        -0.9689197910      -0.4815541126      -0.1158846231   7.081649614642e-02   2.265244695907e-02   7.606129190184e-03
4
Properties=species:S:1:pos:R:3:forces:R:3 energy=-7.658945485101e+01 dipole="1.0294389257e-01 -1.3253187325e-01 -7.2428604973e-01" quadrupole="-1.9761837802e+00 -3.8379286847e-01 -7.6126862241e-02 -3.8379286847e-01 -2.2896056021e+00 1.3253958752e-01 -7.6126862241e-02 1.3253958752e-01 -4.3677127457e+00" polarizability="6.8057229227e+00 -4.4535513573e-01 -1.9515243528e-01 -4.4535513573e-01 6.2184895185e+00 2.2025953291e-01 -1.9515243528e-01 2.2025953291e-01 5.5228229863e+00" charge=1 multiplicity=1 method=wB97M-V basis=def2-svpd config_type=h3o+ sample_index=72 temperature=300.0 units=atomic
O        -0.0037914539       0.0079009767       0.0732928067   1.018044904198e-01  -1.325279043670e-01   5.133355108175e-02
H        -0.0421997064       0.8172127004      -0.2420400830   4.833934616067e-03   1.493754552391e-01  -4.987631579751e-02
H         0.8410505974      -0.5218295296      -0.2836528582  -3.621067553295e-02   2.922024326769e-02   2.040458174583e-02
H        -0.7381945174      -0.4136668366      -0.2647648192  -7.042798455462e-02  -4.606840297557e-02  -2.186113364863e-02
4
Properties=species:S:1:pos:R:3:forces:R:3 energy=-7.658034191315e+01 dipole="-4.7731331813e-02 -1.2306267448e-01 -5.1533662776e-01" quadrupole="-1.4361796312e+00 2.8042361632e-01 9.3413467086e-03 2.8042361632e-01 -2.4559338005e+00 6.4282344048e-02 9.3413467086e-03 6.4282344048e-02 -4.6190634594e+00" polarizability="7.0522603711e+00 2.3664506696e-01 5.0156614066e-02 2.3664506696e-01 5.8807078697e+00 1.7017429297e-01 5.0156614066e-02 1.7017429297e-01 5.3691438407e+00" charge=1 multiplicity=1 method=wB97M-V basis=def2-svpd config_type=h3o+ sample_index=73 temperature=300.0 units=atomic
O         0.0002966361       0.0053299392       0.0577609052  -5.093359262217e-02  -2.386977886518e-01   6.011175952416e-02
H         0.0423011251       0.7981220450      -0.1664255772   2.976925476348e-04   2.460710007804e-01  -6.440103213889e-02
H         0.8358713214      -0.3997672915      -0.1869184189   1.335057160902e-02  -2.324377544408e-02  -3.501258827751e-03
H        -0.8829130280      -0.4758239295      -0.1883713879   3.728080364838e-02   1.587853836255e-02   7.789060401290e-03
4
Properties=species:S:1:pos:R:3:forces:R:3 energy=-7.660937121307e+01 dipole="-1.3347237225e-01 -2.9703072271e-02 -7.6824750229e-01" quadrupole="-2.2029640048e+00 -2.7109055112e-01 1.9707660926e-01 -2.7109055112e-01 -1.9092421320e+00 5.6473071357e-02 1.9707660926e-01 5.6473071357e-02 -4.4120490682e+00" polarizability="7.0624971895e+00 -4.0981859796e-02 2.2206177714e-01 -4.0981859796e-02 7.2089881327e+00 4.9012554038e-02 2.2206177714e-01 4.9012554038e-02 5.8839470049e+00" charge=1 multiplicity=1 method=wB97M-V basis=def2-svpd config_type=h3o+ sample_index=74 temperature=300.0 units=atomic
O         0.0107187426       0.0037054305       0.0768659561  -5.985429530621e-02  -2.402668665048e-03  -1.649167999205e-02
H        -0.1003641099       0.9261357317      -0.2732047736   1.834197170836e-02  -3.114348198450e-03   4.300375172051e-03
H         0.7387632969      -0.5261034412      -0.2604428717   2.659997449562e-02   1.494673488045e-04  -6.931944036456e-03
H        -0.8099263483      -0.4511622585      -0.3139839112   1.491092118777e-02   5.376858297926e-03   1.912776303613e-02
4
Properties=species:S:1:pos:R:3:forces:R:3 energy=-7.661073673827e+01 dipole="3.5167371728e-03 1.2859211736e-01 -6.1631533075e-01" quadrupole="-1.7826583505e+00 -1.8122688896e-01 1.8993776584e-02 -1.8122688896e-01 -1.9937543066e+00 -1.5753062397e-01 1.8993776584e-02 -1.5753062397e-01 -4.6308026928e+00" polarizability="7.0501697406e+00 -1.6209607649e-01 -6.0922106351e-03 -1.6209607649e-01 7.2724941489e+00 -1.9092894347e-01 -6.0922106351e-03 -1.9092894347e-01 5.7495243749e+00" charge=1 multiplicity=1 method=wB97M-V basis=def2-svpd config_type=h3o+ sample_index=75 temperature=300.0 units=atomic
O         0.0009691917      -0.0088277462       0.0653053700   1.973358242167e-02   6.758562381621e-02  -3.806575018686e-03
H        -0.0330228356       0.9772662318      -0.2475172293   7.452323351855e-03  -3.493264244402e-02   1.552148162646e-02
H         0.8411360957      -0.4381789121      -0.2050872101  -3.993479029258e-03  -6.132281633838e-03  -2.402542381991e-03
H        -0.8236267689      -0.3898961171      -0.2099433595  -2.319172971601e-02  -2.651791777824e-02  -9.311372231612e-03
4
Properties=species:S:1:pos:R:3:forces:R:3 energy=-7.657977845078e+01 dipole="2.9260904673e-02 1.7531216317e-01 -3.4202424111e-01" quadrupole="-2.1259751582e+00 -5.4500418872e-01 2.7978440485e-02 -5.4500418872e-01 -1.4228845153e+00 -1.2359432235e-01 2.7978440485e-02 -1.2359432235e-01 -4.7928435336e+00" polarizability="6.1789059665e+00 -5.1834565349e-01 -3.6841452024e-02 -5.1834565349e-01 7.2160758558e+00 -1.7172679475e-01 -3.6841452024e-02 -1.7172679475e-01 5.4142060620e+00" charge=1 multiplicity=1 method=wB97M-V basis=def2-svpd config_type=h3o+ sample_index=76 temperature=300.0 units=atomic
O         0.0010963160      -0.0083957742       0.0455625035   1.687103473003e-01   1.710089839400e-01   3.731086661625e-02
H        -0.0912312309       1.0375385869      -0.1407407855   1.924137570789e-02  -5.579023275435e-02   9.452670243909e-03
H         0.8029886549      -0.5218784567      -0.0999669574   1.548323173280e-02  -1.812058493323e-03  -5.474350242480e-03
H        -0.7293068474      -0.3738824589      -0.1054929353  -2.034419719075e-01  -1.134045053019e-01  -4.128773997339e-02
4
Properties=species:S:1:pos:R:3:forces:R:3 energy=-7.660753153533e+01 dipole="7.8106861921e-03 7.4663798232e-02 -3.1428435160e-01" quadrupole="-1.4277554355e+00 -4.8184238788e-01 5.1356436572e-02 -4.8184238788e-01 -2.0273357559e+00 -9.7682716901e-02 5.1356436572e-02 -9.7682716901e-02 -4.8710679604e+00" polarizability="7.0988601543e+00 -3.7196003358e-01 9.8143142489e-03 -3.7196003358e-01 6.8649517378e+00 -7.0736254172e-02 9.8143142489e-03 -7.0736254172e-02 5.5405870549e+00" charge=1 multiplicity=1 method=wB97M-V basis=def2-svpd config_type=h3o+ sample_index=77 temperature=300.0 units=atomic
O         0.0032946180      -0.0069252270       0.0439222222   4.426063161981e-02   2.912842910247e-02   8.375852506341e-03
H        -0.0891106164       0.9532277331      -0.1277392635   1.820118264866e-02   3.025432985885e-03   1.005984832687e-03
H         0.8868994799      -0.4794886718      -0.0878937404  -2.635615113743e-02   8.829039975917e-03  -1.274512770743e-03
H        -0.8505118490      -0.3554740685      -0.1043850546  -3.610595090483e-02  -4.098404645536e-02  -8.110266854935e-03
4
Properties=species:S:1:pos:R:3:forces:R:3 energy=-7.659042543292e+01 dipole="3.5281709940e-02 -3.3009354533e-01 -5.1167408892e-01" quadrupole="-2.1863605319e+00 6.2910298599e-02 -4.4343607563e-02 6.2910298599e-02 -1.0705286464e+00 3.8577001352e-01 -4.4343607563e-02 3.8577001352e-01 -4.8339922752e+00" polarizability="7.7810985883e+00 -1.7090235959e-02 -5.0311239863e-02 -1.7090235959e-02 7.9622520929e+00 3.9570815996e-01 -5.0311239863e-02 3.9570815996e-01 5.9817824342e+00" charge=1 multiplicity=1 method=wB97M-V basis=def2-svpd config_type=h3o+ sample_index=78 temperature=300.0 units=atomic
O        -0.0030275790       0.0233247349       0.0574134344   9.987480401123e-03  -1.684325259788e-01  -1.281885181706e-02
H         0.0265036813       0.9387889875      -0.1126664011  -2.241047435791e-03   5.002840141558e-02  -1.993927022877e-02
H         0.8018693456      -0.6432355216      -0.2191177506  -3.008443420223e-02   5.893369427714e-02   1.827178969521e-02
H        -0.7799246590      -0.6612057202      -0.2039968564   2.233898363946e-02   5.947108226177e-02   1.449014702788e-02
4
Properties=species:S:1:pos:R:3:forces:R:3 energy=-7.654907900664e+01 dipole="2.7736430356e-01 -1.1665401931e-01 -6.0313171689e-01" quadrupole="-1.6676382933e+00 -1.0875273933e+00 -1.8069729703e-01 -1.0875273933e+00 -1.6679963499e+00 1.1371224985e-01 -1.8069729703e-01 1.1371224985e-01 -4.6481634865e+00" polarizability="7.4719940873e+00 -1.3468253640e+00 -4.2603657148e-01 -1.3468253640e+00 7.4474848582e+00 1.2214166445e-01 -4.2603657148e-01 1.2214166445e-01 5.7774326084e+00" charge=1 multiplicity=1 method=wB97M-V basis=def2-svpd config_type=h3o+ sample_index=79 temperature=300.0 units=atomic
O        -0.0099509521       0.0050783841       0.0634048369   2.926734929717e-01   6.822958926575e-02   6.522059332774e-02
H        -0.1085711783       0.9345718519      -0.1972856501   1.802493393966e-02   1.433218879185e-02  -2.690927100314e-03
H         0.9545590777      -0.6440458309      -0.2421366827  -7.307229252190e-02   5.934732496715e-02   2.184838361887e-02
H        -0.6867791490      -0.3639514477      -0.1925592799  -2.376205601025e-01  -1.419092008669e-01  -8.438029834755e-02
4
Properties=species:S:1:pos:R:3:forces:R:3 energy=-7.660114640980e+01 dipole="-6.5023168041e-02 7.6387578667e-02 -6.6264601329e-01" quadrupole="-2.2481711295e+00 -6.2385211824e-01 1.3569690377e-01 -6.2385211824e-01 -1.5934413690e+00 -5.5907601819e-02 1.3569690377e-01 -5.5907601819e-02 -4.5636909785e+00" polarizability="6.7355669286e+00 -5.0968049017e-01 4.6304500230e-02 -5.0968049017e-01 7.5557955059e+00 -1.4959172588e-01 4.6304500230e-02 -1.4959172588e-01 5.7638189269e+00" charge=1 multiplicity=1 method=wB97M-V basis=def2-svpd config_type=h3o+ sample_index=80 temperature=300.0 units=atomic
O         0.0076313818      -0.0022020114       0.0687284930   3.074489929337e-02   7.141493316086e-02   5.015394381557e-03
H        -0.1375649342       0.9971403410      -0.2467212089   2.864639646017e-02  -4.372009401566e-02   1.514972537622e-02
H         0.7696603261      -0.5609425574      -0.2161937311   6.706604736552e-03   1.526155616465e-02  -1.808908047379e-03
H        -0.7542243849      -0.3930062061      -0.2543544825  -6.609903660827e-02  -4.296383689191e-02  -1.835786301270e-02
4
Properties=species:S:1:pos:R:3:forces:R:3 energy=-7.660916537228e+01 dipole="1.0479086484e-01 7.4125387655e-02 -3.9699410447e-01" quadrupole="-1.2951501715e+00 -2.2859404616e-02 -9.0853495697e-02 -2.2859404616e-02 -2.1665506076e+00 -1.0869467982e-01 -9.0853495697e-02 -1.0869467982e-01 -4.8408299613e+00" polarizability="7.4101506776e+00 -1.3450267037e-01 -9.8532100571e-02 -1.3450267037e-01 6.8694802725e+00 -6.2190935322e-02 -9.8532100571e-02 -6.2190935322e-02 5.6268301045e+00" charge=1 multiplicity=1 method=wB97M-V basis=def2-svpd config_type=h3o+ sample_index=81 temperature=300.0 units=atomic
O        -0.0059639899      -0.0073803382       0.0496149282   6.714365204539e-02   1.466919746355e-02   3.334441135044e-03
H         0.0273286080       0.9410718813      -0.1594784248  -5.194062907301e-03   8.478218265386e-03   4.912378608003e-04
H         0.9240641664      -0.4115531760      -0.1407640820  -4.295032758700e-02   5.652100198095e-06   5.079155784396e-03
H        -0.8559567905      -0.4038290358      -0.1109907741  -1.899964483661e-02  -2.315047167551e-02  -8.910172433777e-03
4
Properties=species:S:1:pos:R:3:forces:R:3 energy=-7.659855051669e+01 dipole="6.5156628948e-02 1.4867269866e-02 -6.4027148135e-01" quadrupole="-1.0927855245e+00 1.8056980376e-01 -9.9332735788e-02 1.8056980376e-01 -2.0653719408e+00 -6.7626750568e-02 -9.9332735788e-02 -6.7626750568e-02 -4.7777326342e+00" polarizability="8.9217917419e+00 6.3624357371e-02 -1.1388218979e-01 6.3624357371e-02 7.9683160595e+00 -1.0492709821e-02 -1.1388218979e-01 -1.0492709821e-02 6.2664848121e+00" charge=1 multiplicity=1 method=wB97M-V basis=def2-svpd config_type=h3o+ sample_index=82 temperature=300.0 units=atomic
O        -0.0052610893      -0.0035159043       0.0670300226   2.288693248294e-02  -6.400738408473e-03  -3.914709444594e-02
H         0.0530166921       0.9680940219      -0.2414057692  -1.071804972279e-02  -2.808253027462e-02   1.133449781654e-02
H         0.9531921477      -0.4303007176      -0.2375121377  -6.620641185724e-02   1.369848148962e-02   1.774258219317e-02
H        -0.9220211047      -0.4735923403      -0.2112305652   5.403961803190e-02   2.078472857149e-02   1.007204104017e-02
4
Properties=species:S:1:pos:R:3:forces:R:3 energy=-7.659509107754e+01 dipole="1.4914090045e-01 1.3973224057e-01 -2.4842850848e-01" quadrupole="-1.4208411015e+00 -3.7892334203e-01 -6.8603676445e-02 -3.7892334203e-01 -1.9621024308e+00 -1.3791180840e-01 -6.8603676445e-02 -1.3791180840e-01 -4.8915565137e+00" polarizability="6.9522846285e+00 -4.3698016702e-01 -7.8551359441e-02 -4.3698016702e-01 6.9664020293e+00 -1.0586547144e-01 -7.8551359441e-02 -1.0586547144e-01 5.5163982135e+00" charge=1 multiplicity=1 method=wB97M-V basis=def2-svpd config_type=h3o+ sample_index=83 temperature=300.0 units=atomic
O        -0.0058696759      -0.0111890981       0.0392937306   1.650924677592e-01   8.935051690017e-02   1.004729597392e-02
H        -0.0276042175       0.9830249421      -0.1152833696   6.118507026754e-03  -2.165996303969e-02   4.569798729753e-03
H         0.9266654953      -0.4493487643      -0.0799386697  -4.621259614778e-02   7.949156836558e-03   2.441922696530e-03
H        -0.8051384576      -0.3472857192      -0.0506697343  -1.249961702296e-01  -7.564149358579e-02  -1.705493898754e-02
4
Properties=species:S:1:pos:R:3:forces:R:3 energy=-7.660839471616e+01 dipole="-8.2181743123e-02 6.3037664647e-02 -7.9033018516e-01" quadrupole="-2.2423914670e+00 2.1902273646e-02 9.8545393827e-02 2.1902273646e-02 -2.0239617463e+00 -6.4707013646e-02 9.8545393827e-02 -6.4707013646e-02 -4.3363108323e+00" polarizability="6.7105249088e+00 1.3828217371e-01 1.5050858910e-01 1.3828217371e-01 7.0790370636e+00 -1.2058333570e-01 1.5050858910e-01 -1.2058333570e-01 5.7887613650e+00" charge=1 multiplicity=1 method=wB97M-V basis=def2-svpd config_type=h3o+ sample_index=84 temperature=300.0 units=atomic
O         0.0053194507      -0.0028975477       0.0786200335  -6.811183261759e-02   5.414788629301e-02  -1.984709060561e-03
H        -0.0234293764       0.9390261203      -0.3016129510   4.604690097275e-03  -1.898718721625e-02   1.495271637783e-02
H         0.7346817675      -0.4379485167      -0.2738117497   6.257000165452e-02  -3.398726687213e-02  -2.228480852444e-02
H        -0.7963770486      -0.4464772618      -0.3003671099   9.401816412988e-04  -1.175034546931e-03   9.323590689068e-03
4
Properties=species:S:1:pos:R:3:forces:R:3 energy=-7.660290892449e+01 dipole="-1.2579429088e-01 6.0753343005e-02 -4.9357715719e-01" quadrupole="-2.0874821537e+00 1.6600409799e-01 1.0615974028e-01 1.6600409799e-01 -1.4464011150e+00 -1.9226475976e-02 1.0615974028e-01 -1.9226475976e-02 -4.7607646002e+00" polarizability="6.8368762660e+00 3.3192570718e-01 1.5240690488e-01 3.3192570718e-01 7.5047359230e+00 -6.4068194165e-02 1.5240690488e-01 -6.4068194165e-02 5.6679692220e+00" charge=1 multiplicity=1 method=wB97M-V basis=def2-svpd config_type=h3o+ sample_index=85 temperature=300.0 units=atomic
O         0.0071236395      -0.0008447241       0.0563069198  -1.194444917286e-01   7.313621386487e-02   9.292380673737e-03
H        -0.0115192720       1.0149802317      -0.1764047123   3.468781809947e-03  -4.545915841557e-02   7.805694900003e-03
H         0.7369944036      -0.4739899308      -0.1531531069   9.170911866437e-02  -4.867795544028e-02  -2.555687297483e-02
H        -0.8394594948      -0.5198264902      -0.1887005136   2.426277610212e-02   2.100138227545e-02   8.460553976592e-03
4
Properties=species:S:1:pos:R:3:forces:R:3 energy=-7.659467979105e+01 dipole="-1.5894288989e-01 -4.1843372372e-02 -9.3632613465e-01" quadrupole="-2.7330574124e+00 -4.6312247560e-01 2.6427933890e-01 -4.6312247560e-01 -1.5655426127e+00 1.3398355544e-01 2.6427933890e-01 1.3398355544e-01 -4.1731432109e+00" polarizability="7.1459009025e+00 -2.4044532962e-01 2.7314429589e-01 -2.4044532962e-01 8.0930966605e+00 6.6604730745e-02 2.7314429589e-01 6.6604730745e-02 6.3545099828e+00" charge=1 multiplicity=1 method=wB97M-V basis=def2-svpd config_type=h3o+ sample_index=86 temperature=300.0 units=atomic
O         0.0133975435       0.0074800336       0.0902173711  -4.835794653220e-02   7.557993438805e-03  -5.456808867632e-02
H        -0.1470225590       0.9676910518      -0.3336885535   2.770744262310e-02  -4.095261280981e-02   2.058227115321e-02
H         0.6704302856      -0.6050180697      -0.3303912146   2.538410357579e-02   2.262282039242e-02   6.188164539745e-03
H        -0.7378081979      -0.4739527655      -0.3973277932  -4.740657783355e-03   1.077330238139e-02   2.778996958452e-02
4
Properties=species:S:1:pos:R:3:forces:R:3 energy=-7.660089782554e+01 dipole="-1.7261193379e-01 1.2912036228e-02 -4.0552508934e-01" quadrupole="-1.3298119228e+00 3.9299448634e-01 1.1159502593e-01 3.9299448634e-01 -1.9176914153e+00 -4.0517517714e-02 1.1159502593e-01 -4.0517517714e-02 -4.8760345670e+00" polarizability="7.6793155574e+00 5.3174594947e-01 1.6282710238e-01 5.3174594947e-01 7.2449102944e+00 -9.9516706479e-03 1.6282710238e-01 -9.9516706479e-03 5.7397574674e+00" charge=1 multiplicity=1 method=wB97M-V basis=def2-svpd config_type=h3o+ sample_index=87 temperature=300.0 units=atomic
O         0.0072683052      -0.0028271942       0.0500524198  -1.177926368791e-01   1.308591459307e-02   2.323986136422e-03
H         0.0182793591       0.9609042501      -0.1486861718  -3.286540542656e-03  -4.038559139416e-03   1.028757565920e-03
H         0.8196860582      -0.4046439357      -0.1166163273   5.232647769195e-02  -3.791868669480e-02  -1.423879974466e-02
H        -0.9542584131      -0.5034638591      -0.1528655931   6.875537093327e-02   2.887385029413e-02   1.088175406373e-02
4
Properties=species:S:1:pos:R:3:forces:R:3 energy=-7.659360679143e+01 dipole="-4.7285621621e-02 -1.1938648706e-01 -5.2211219871e-01" quadrupole="-1.3761008710e+00 -4.7415939665e-01 1.1664117831e-01 -4.7415939665e-01 -2.3174387569e+00 6.3554057117e-02 1.1664117831e-01 6.3554057117e-02 -4.6915987817e+00" polarizability="7.4944324417e+00 -2.5432285342e-01 8.3251982706e-02 -2.5432285342e-01 6.3666301537e+00 1.5067584941e-01 8.3251982706e-02 1.5067584941e-01 5.5807871434e+00" charge=1 multiplicity=1 method=wB97M-V basis=def2-svpd config_type=h3o+ sample_index=88 temperature=300.0 units=atomic
O         0.0074500187       0.0051790103       0.0583301028   5.826467857831e-03  -1.628111478597e-01   2.503174044102e-02
H        -0.1129018092       0.8362496904      -0.1698892138   6.296125099019e-03   1.502151763664e-01  -3.756943116403e-02
H         0.8712573545      -0.5190939602      -0.1718360320  -3.477019712461e-02   2.497755331897e-02   4.051444874900e-03
H        -0.8775761684      -0.3922284659      -0.2090750817   2.265535189411e-02  -1.238507138284e-02   8.487771191541e-03
4
Properties=species:S:1:pos:R:3:forces:R:3 energy=-7.659086171122e+01 dipole="1.0356754577e-01 6.4847328657e-02 -7.1176749923e-01" quadrupole="-2.7056765376e+00 -1.1318827385e-01 -1.0972370410e-01 -1.1318827385e-01 -1.2796310418e+00 2.4633906727e-02 -1.0972370410e-01 2.4633906727e-02 -4.4679601937e+00" polarizability="6.3552511000e+00 -2.8063134779e-01 -1.8413240391e-01 -2.8063134779e-01 7.6369637347e+00 -9.8628469274e-02 -1.8413240391e-01 -9.8628469274e-02 5.7311611831e+00" charge=1 multiplicity=1 method=wB97M-V basis=def2-svpd config_type=h3o+ sample_index=89 temperature=300.0 units=atomic
O        -0.0067334034       0.0020509276       0.0723063914   1.122904189981e-01   1.040102991897e-01   2.220494734332e-02
H         0.0158244990       1.0204980592      -0.2535912918  -4.009344581967e-03  -5.610392399114e-02   1.437197945715e-02
H         0.7391393886      -0.5400458824      -0.2772523701   1.910457218430e-02   1.498286419920e-02   8.024543775576e-03
H        -0.6472257767      -0.5052759699      -0.2436508366  -1.273840335546e-01  -6.288252607432e-02  -4.460099764963e-02
4
Properties=species:S:1:pos:R:3:forces:R:3 energy=-7.660266145012e+01 dipole="-9.8576722088e-02 1.9146272673e-01 -4.8636874556e-01" quadrupole="-1.6736371293e+00 3.3991981861e-02 8.5886945720e-02 3.3991981861e-02 -2.0016859767e+00 -2.1068209570e-01 8.5886945720e-02 -2.1068209570e-01 -4.7313276434e+00" polarizability="6.8015982359e+00 1.3244960113e-01 9.9759327503e-02 1.3244960113e-01 7.1104374087e+00 -2.2770196883e-01 9.9759327503e-02 -2.2770196883e-01 5.5936589614e+00" charge=1 multiplicity=1 method=wB97M-V basis=def2-svpd config_type=h3o+ sample_index=90 temperature=300.0 units=atomic
O         0.0056030559      -0.0134839068       0.0557785051  -9.465802622705e-02   1.087405177210e-01   1.265419897705e-02
H        -0.0218982167       0.9910080228      -0.2100130373   5.113611688210e-03  -3.953292944204e-02   1.432820587483e-02
H         0.8054540631      -0.3768543788      -0.1359984780   8.084128799868e-02  -5.327099578072e-02  -2.507820351708e-02
H        -0.8732107788      -0.3906562590      -0.1639654263   8.703824138444e-03  -1.593133646659e-02  -1.909031488524e-03
4
Properties=species:S:1:pos:R:3:forces:R:3 energy=-7.661007162185e+01 dipole="-8.5851322526e-02 1.0055062365e-01 -5.4350113290e-01" quadrupole="-1.6954725967e+00 8.8214578565e-02 7.4586224304e-02 8.8214578565e-02 -2.0348258311e+00 -1.2354616929e-01 7.4586224304e-02 -1.2354616929e-01 -4.6896221912e+00" polarizability="6.9998781657e+00 1.7668534872e-01 1.0350660802e-01 1.7668534872e-01 7.0111201346e+00 -1.2511391067e-01 1.0350660802e-01 -1.2511391067e-01 5.6375137125e+00" charge=1 multiplicity=1 method=wB97M-V basis=def2-svpd config_type=h3o+ sample_index=91 temperature=300.0 units=atomic
O         0.0046186874      -0.0073907713       0.0599820073  -7.432549534883e-02   5.535511422313e-02   5.759317851507e-03
H        -0.0097029418       0.9595931304      -0.2149250577   1.984539851426e-03  -1.749559137050e-02   8.325909331117e-03
H         0.8072412373      -0.4038330890      -0.1696505406   4.975308852400e-02  -3.619044409206e-02  -1.781221845469e-02
H        -0.8714422258      -0.4296792378      -0.1926991955   2.258828354040e-02  -1.658927730724e-03   3.724074488570e-03
4
Properties=species:S:1:pos:R:3:forces:R:3 energy=-7.659757854880e+01 dipole="-4.9067139332e-03 1.0949859574e-01 -6.2315658107e-01" quadrupole="-2.5665835508e+00 -1.7071127500e-01 1.9996072159e-02 -1.7071127500e-01 -1.2153353694e+00 -3.1693402338e-02 1.9996072159e-02 -3.1693402338e-02 -4.5967837670e+00" polarizability="6.3700256141e+00 -1.6839073561e-01 -1.3877793175e-02 -1.6839073561e-01 7.7114585309e+00 -1.5447846579e-01 -1.3877793175e-02 -1.5447846579e-01 5.6785913657e+00" charge=1 multiplicity=1 method=wB97M-V basis=def2-svpd config_type=h3o+ sample_index=92 temperature=300.0 units=atomic
O         0.0010697300      -0.0009160263       0.0656997712   2.751527956459e-02   1.062996094018e-01   1.722263376062e-02
H        -0.0325307760       1.0441952132      -0.2268202634   6.448240666650e-03  -6.420759668953e-02   1.441758703311e-02
H         0.7249999652      -0.5340986609      -0.2182497204   4.732986691380e-02  -7.668397830266e-03  -9.628253485317e-03
H        -0.7095918067      -0.4875974200      -0.2236081592  -8.129554053623e-02  -3.442135356821e-02  -2.201985053094e-02
4
Properties=species:S:1:pos:R:3:forces:R:3 energy=-7.660252672600e+01 dipole="8.1502920976e-03 -1.9566736216e-01 -7.5788537418e-01" quadrupole="-1.9775368365e+00 1.2565671822e-01 -2.6027319365e-02 1.2565671822e-01 -1.9331935587e+00 2.3578253138e-01 -2.6027319365e-02 2.3578253138e-01 -4.4677957989e+00" polarizability="7.6764111274e+00 9.2882244804e-02 -1.1675929487e-02 9.2882244804e-02 7.1649751579e+00 3.3601859179e-01 -1.1675929487e-02 3.3601859179e-01 5.9866830535e+00" charge=1 multiplicity=1 method=wB97M-V basis=def2-svpd config_type=h3o+ sample_index=93 temperature=300.0 units=atomic
O        -0.0015827225       0.0129944652       0.0758101078  -1.640697776022e-03  -1.324876146178e-01  -1.524410702340e-02
H         0.0280529699       0.8733214702      -0.2407911722  -2.906335593844e-03   7.088108494023e-02  -2.615346146192e-02
H         0.8126984810      -0.5195651724      -0.2988971086  -2.642074998074e-02   2.583913721982e-02   2.083774647318e-02
H        -0.8154276875      -0.5535672118      -0.2909846161   3.096475471471e-02   3.577208106316e-02   2.055707945943e-02
4
Properties=species:S:1:pos:R:3:forces:R:3 energy=-7.660369086981e+01 dipole="-1.3779385736e-01 1.3049948806e-01 -5.0395950548e-01" quadrupole="-1.5708308061e+00 2.0894089973e-02 1.2780254268e-01 2.0894089973e-02 -2.2132416368e+00 -1.6296886175e-01 1.2780254268e-01 -1.6296886175e-01 -4.6920288288e+00" polarizability="6.8771876592e+00 1.6436010059e-01 1.4921637080e-01 1.6436010059e-01 6.7153980845e+00 -1.4057409477e-01 1.4921637080e-01 -1.4057409477e-01 5.5346549237e+00" charge=1 multiplicity=1 method=wB97M-V basis=def2-svpd config_type=h3o+ sample_index=94 temperature=300.0 units=atomic
O         0.0080531134      -0.0104588936       0.0570860271  -1.184149274909e-01   6.721066044760e-02   1.709838805984e-02
H        -0.0368346852       0.9395875846      -0.2082945325   7.484197422392e-03  -2.232886594055e-03   5.825756493174e-03
H         0.8027616796      -0.3769484031      -0.1412236620   8.375268553977e-02  -5.454385188281e-02  -2.681297050579e-02
H        -0.8947873839      -0.3874937952      -0.1814235590   2.717883478484e-02  -1.042896139973e-02   3.885198174285e-03
4
Properties=species:S:1:pos:R:3:forces:R:3 energy=-7.660193346362e+01 dipole="8.3020862741e-02 -3.9034086084e-02 -7.3375495977e-01" quadrupole="-1.2761863149e+00 -1.1678441085e-01 -8.5576942271e-02 -1.1678441085e-01 -2.3511047682e+00 -8.8736034099e-03 -8.5576942271e-02 -8.8736034099e-03 -4.5651237331e+00" polarizability="8.4457704789e+00 -2.2072136027e-01 -1.4429012543e-01 -2.2072136027e-01 7.2290288220e+00 1.0436755872e-01 -1.4429012543e-01 1.0436755872e-01 6.1188801333e+00" charge=1 multiplicity=1 method=wB97M-V basis=def2-svpd config_type=h3o+ sample_index=95 temperature=300.0 units=atomic
O        -0.0041153361      -0.0001865275       0.0740011843   3.297593888629e-02  -5.253296754519e-02  -2.842768978919e-02
H         0.0048803647       0.8916452420      -0.2690967718  -7.487152454518e-05   2.879087498929e-02  -4.079485726423e-03
H         0.9384648063      -0.4550355508      -0.2766450829  -6.537314192801e-02   2.000512979711e-02   2.238972649575e-02
H        -0.8774993475      -0.4254805611      -0.2561107188   3.247218712238e-02   3.730719270721e-03   1.011836065453e-02
4
Properties=species:S:1:pos:R:3:forces:R:3 energy=-7.660035402590e+01 dipole="-9.8546203748e-02 1.2232626499e-01 -5.2771017930e-01" quadrupole="-1.8827937458e+00 3.2764801753e-01 6.2041180129e-02 3.2764801753e-01 -1.4971276666e+00 -1.0664802390e-01 6.2041180129e-02 -1.0664802390e-01 -4.7800819061e+00" polarizability="7.1856238651e+00 4.4305899325e-01 1.2476432457e-01 4.4305899325e-01 7.9052034427e+00 -1.6377454005e-01 1.2476432457e-01 -1.6377454005e-01 5.8294581413e+00" charge=1 multiplicity=1 method=wB97M-V basis=def2-svpd config_type=h3o+ sample_index=96 temperature=300.0 units=atomic
O         0.0041452666      -0.0060629141       0.0586862052  -1.051865220839e-01   8.482049841017e-02  -6.438401940947e-04
H         0.0277467101       1.0413531348      -0.2041506378  -5.129255743801e-03  -6.256870056338e-02   1.497633801490e-02
H         0.7756399647      -0.4251224145      -0.1658003972   7.316898016063e-02  -4.422805540759e-02  -2.252702237230e-02
H        -0.8697098840      -0.5115034709      -0.1864636927   3.714929940422e-02   2.198608280501e-02   8.192382933821e-03
4
Properties=species:S:1:pos:R:3:forces:R:3 energy=-7.660991523887e+01 dipole="6.2643526923e-02 -4.9384544210e-02 -5.3780326325e-01" quadrupole="-1.6595035564e+00 -2.6018698735e-01 -3.6027594158e-02 -2.6018698735e-01 -1.7452719502e+00 4.5643991571e-02 -3.6027594158e-02 4.5643991571e-02 -4.7841323111e+00" polarizability="7.6940886996e+00 -3.1856088649e-01 -8.4197765440e-02 -3.1856088649e-01 7.4905104538e+00 6.2986157640e-02 -8.4197765440e-02 6.2986157640e-02 5.8622332436e+00" charge=1 multiplicity=1 method=wB97M-V basis=def2-svpd config_type=h3o+ sample_index=97 temperature=300.0 units=atomic
O        -0.0019971964       0.0030967944       0.0595707313   4.224838991822e-02  -2.490562459959e-02  -1.279255222019e-02
H        -0.0269110029       0.9613589174      -0.1824903844   4.554291991571e-03  -7.270688479193e-03   2.003743403192e-04
H         0.8847500373      -0.5341327907      -0.1990119036  -4.807635477548e-02   3.269207722013e-02   1.250475643966e-02
H        -0.8258849946      -0.4690420831      -0.1890644438   1.272614753331e-03  -5.095020396084e-04   8.506244164663e-05
4
Properties=species:S:1:pos:R:3:forces:R:3 energy=-7.660311195927e+01 dipole="-4.8161008145e-02 4.0474650357e-02 -3.4020436874e-01" quadrupole="-2.2735328218e+00 -1.9803763190e-01 5.5420891900e-02 -1.9803763190e-01 -8.6443290692e-01 4.8890652572e-02 5.5420891900e-02 4.8890652572e-02 -4.9417361558e+00" polarizability="6.9826268755e+00 -1.2437121835e-01 3.4052583403e-02 -1.2437121835e-01 8.1710552513e+00 -6.2522909308e-03 3.4052583403e-02 -6.2522909308e-03 5.7632518709e+00" charge=1 multiplicity=1 method=wB97M-V basis=def2-svpd config_type=h3o+ sample_index=98 temperature=300.0 units=atomic
O         0.0042292277       0.0038844077       0.0457017252  -1.083789317350e-02   4.297943080963e-02  -1.974889670543e-03
H        -0.0507092434       1.0736404381      -0.1060727807   9.844203015331e-03  -6.692571704441e-02   4.477245681689e-03
H         0.7641505920      -0.5886476866      -0.1105247642   1.665666656430e-02   1.572880467254e-02  -1.962603344503e-03
H        -0.7811142838      -0.5398237262      -0.1316558634  -1.566327076497e-02   8.215690024736e-03  -5.329142467957e-04
4
Properties=species:S:1:pos:R:3:forces:R:3 energy=-7.659806845188e+01 dipole="1.4185216537e-01 -7.6116691572e-02 -7.2259686849e-01" quadrupole="-2.0204840766e+00 -2.7462488124e-01 -1.4726936779e-01 -2.7462488124e-01 -1.4089763915e+00 1.3244068675e-01 -1.4726936779e-01 1.3244068675e-01 -4.6294064674e+00" polarizability="8.0252184463e+00 -5.3453266134e-01 -2.7312451455e-01 -5.3453266134e-01 8.3767249598e+00 1.4083565102e-01 -2.7312451455e-01 1.4083565102e-01 6.2577537594e+00" charge=1 multiplicity=1 method=wB97M-V basis=def2-svpd config_type=h3o+ sample_index=99 temperature=300.0 units=atomic
O        -0.0076091350       0.0071435566       0.0730498900   7.137691944687e-02  -1.143528284701e-02  -3.658506733779e-02
H         0.0015844561       1.0003159529      -0.2428667852  -1.170959362187e-03  -4.315852187729e-02   9.936376555242e-03
H         0.8789821053      -0.5870876006      -0.2907460896  -5.580726370228e-02   4.945198899314e-02   2.765033857076e-02
H        -0.7588170827      -0.5195474702      -0.2527837647  -1.439659152791e-02   5.144750736853e-03  -1.007119582834e-03
4
Properties=species:S:1:pos:R:3:forces:R:3 energy=-7.658554799178e+01 dipole="5.4378835076e-02 -8.5202799771e-02 -2.4262447282e-01" quadrupole="-1.9466256587e+00 4.0915872083e-01 -8.4723066770e-02 4.0915872083e-01 -2.0486781868e+00 5.4418429296e-02 -8.4723066770e-02 5.4418429296e-02 -4.7105276069e+00" polarizability="5.9753441173e+00 2.0205348749e-01 -3.0561724523e-02 2.0205348749e-01 5.7417496272e+00 4.3723897494e-02 -3.0561724523e-02 4.3723897494e-02 5.0715850422e+00" charge=1 multiplicity=1 method=wB97M-V basis=def2-svpd config_type=h3o+ sample_index=100 temperature=300.0 units=atomic
O        -0.0071839822       0.0055009794       0.0389959732  -3.391728191074e-02  -1.035893451139e-01   4.165189866346e-02
H         0.1063995171       0.8506126790      -0.0656340209  -3.743791335836e-03   1.724062963114e-01  -2.118963982829e-02
H         0.7796221632      -0.4066179230      -0.1056578781   8.199208241860e-02  -5.520142160997e-02  -1.281511707444e-02
H        -0.7710525606      -0.5246707053      -0.0697485575  -4.432513204504e-02  -1.361381533908e-02  -7.647271889660e-03
4
Properties=species:S:1:pos:R:3:forces:R:3 energy=-7.661002084848e+01 dipole="-7.3076709899e-02 -8.4639058908e-02 -6.0466130610e-01" quadrupole="-2.2239722821e+00 -1.8583986472e-01 9.9667029221e-02 -1.8583986472e-01 -1.4117318884e+00 1.4252975505e-01 9.9667029221e-02 1.4252975505e-01 -4.6841369293e+00" polarizability="7.1891959093e+00 -5.3076466616e-02 9.6511715872e-02 -5.3076466616e-02 7.6437170081e+00 1.2270273640e-01 9.6511715872e-02 1.2270273640e-01 5.8498576089e+00" charge=1 multiplicity=1 method=wB97M-V basis=def2-svpd config_type=h3o+ sample_index=101 temperature=300.0 units=atomic
O         0.0061598925       0.0087035184       0.0644992937  -2.765489218088e-02  -2.648964309502e-02  -1.449760489077e-02
H        -0.0613920917       0.9756513029      -0.1926814084   1.074898059255e-02  -1.817508287446e-02  -3.113321397027e-04
H         0.7595221796      -0.5783102922      -0.2129836743   5.632403486990e-03   2.291167900460e-02   2.611818515584e-03
H        -0.7967026718      -0.5288048277      -0.2437550846   1.126786249524e-02   2.174683215113e-02   1.219199929019e-02
4
Properties=species:S:1:pos:R:3:forces:R:3 energy=-7.658106018362e+01 dipole="2.6832401536e-01 1.0381516435e-01 -5.3512806564e-01" quadrupole="-1.9058285052e+00 -1.8782887026e-01 -2.4924191258e-01 -1.8782887026e-01 -1.3842906600e+00 -6.4397702329e-02 -2.4924191258e-01 -6.4397702329e-02 -4.7759272736e+00" polarizability="7.3274387027e+00 -5.6758425478e-01 -3.3641288647e-01 -5.6758425478e-01 8.0031457250e+00 -1.0427904872e-01 -3.3641288647e-01 -1.0427904872e-01 5.8779507142e+00" charge=1 multiplicity=1 method=wB97M-V basis=def2-svpd config_type=h3o+ sample_index=102 temperature=300.0 units=atomic
O        -0.0157678955      -0.0036966783       0.0588913958   2.196395720245e-01   1.175800380311e-01   1.128080288464e-02
H         0.0524132188       1.0455494785      -0.1984266595  -1.313635476505e-02  -6.453241920522e-02   1.367225411742e-02
H         0.9135170088      -0.5167531766      -0.2199704004  -6.120130664798e-02   3.170137491348e-02   1.916588199394e-02
H        -0.7136229424      -0.4619461471      -0.1412703716  -1.453036239533e-01  -8.474888891973e-02  -4.411848558110e-02
4
Properties=species:S:1:pos:R:3:forces:R:3 energy=-7.659794423689e+01 dipole="-1.9243295504e-01 5.1400337055e-02 -6.4954101320e-01" quadrupole="-1.2181457167e+00 -3.1574722310e-01 2.6018517696e-01 -3.1574722310e-01 -2.5885952259e+00 -1.2140714578e-01 2.6018517696e-01 -1.2140714578e-01 -4.5897318577e+00" polarizability="7.8088822368e+00 -4.4627131496e-03 3.0203671833e-01 -4.4627131496e-03 6.6255069601e+00 -1.9049987271e-02 3.0203671833e-01 -1.9049987271e-02 5.7983067630e+00" charge=1 multiplicity=1 method=wB97M-V basis=def2-svpd config_type=h3o+ sample_index=103 temperature=300.0 units=atomic
O         0.0139776174      -0.0065637038       0.0676309201  -8.687888623593e-02  -2.314745432125e-02   1.256933087989e-03
H        -0.1213537194       0.8661085655      -0.2534404304   1.997390686201e-02   5.160495078785e-02  -8.080091196337e-03
H         0.8470079060      -0.4171176869      -0.1883261287   9.916505329557e-03  -1.437972283066e-02  -1.226557915048e-02
H        -0.9493256391      -0.3358996224      -0.2581373142   5.698142323831e-02  -1.407378553427e-02   1.909156850481e-02
4
Properties=species:S:1:pos:R:3:forces:R:3 energy=-7.659706706968e+01 dipole="1.3540110446e-01 -5.4379329815e-02 -4.4384241066e-01" quadrupole="-1.3082442807e+00 4.9497175423e-01 -1.9081153964e-01 4.9497175423e-01 -1.5662709811e+00 3.5517230900e-02 -1.9081153964e-01 3.5517230900e-02 -4.9769377216e+00" polarizability="8.6279614873e+00 2.2615304220e-01 -1.8428881751e-01 2.2615304220e-01 8.2031653038e+00 5.6944792715e-02 -1.8428881751e-01 5.6944792715e-02 6.1183712316e+00" charge=1 multiplicity=1 method=wB97M-V basis=def2-svpd config_type=h3o+ sample_index=104 temperature=300.0 units=atomic
O        -0.0121322134       0.0031447891       0.0529063798   4.699169403470e-02  -2.427625845327e-02  -2.309237221621e-02
H         0.1325594512       0.9996190066      -0.1467101092  -2.524021763803e-02  -3.317117200133e-02   4.228857607519e-03
H         0.9377167925      -0.4623521104      -0.1888423558  -6.329655587551e-02   1.903337589414e-02   1.571286946124e-02
H        -0.8761301739      -0.5800381751      -0.1282297331   4.154144539231e-02   3.841493795752e-02   3.152647187761e-03
4
Properties=species:S:1:pos:R:3:forces:R:3 energy=-7.660659911706e+01 dipole="-5.7715295155e-02 -3.2990397587e-03 -2.3080727311e-01" quadrupole="-1.1488185041e+00 8.1576679828e-02 3.5586796852e-02 8.1576679828e-02 -2.2126033551e+00 -4.1959523872e-02 3.5586796852e-02 -4.1959523872e-02 -4.9138268153e+00" polarizability="7.4476541577e+00 1.1956810901e-01 3.6669109878e-02 1.1956810901e-01 6.5376221757e+00 7.9356804479e-03 3.6669109878e-02 7.9356804479e-03 5.5229961887e+00" charge=1 multiplicity=1 method=wB97M-V basis=def2-svpd config_type=h3o+ sample_index=105 temperature=300.0 units=atomic
O         0.0026896181      -0.0030168695       0.0381998688  -3.573601947071e-02  -6.308101299101e-02   8.666517626813e-03
H        -0.0024049158       0.9057285719      -0.0858933347   1.918367993929e-05   6.990554591740e-02  -8.752396997622e-03
H         0.8840831806      -0.4147228858      -0.0645253856  -5.768272255731e-03  -1.189664938251e-02  -2.314702173221e-03
H        -0.9247077392      -0.4353986390      -0.0779432935   4.148425642852e-02   5.070829694097e-03   2.406736271772e-03
4
Properties=species:S:1:pos:R:3:forces:R:3 energy=-7.660644624419e+01 dipole="4.0686480470e-02 5.6505942733e-02 -8.9713622206e-01" quadrupole="-1.7672489245e+00 -1.2369593266e-01 -3.7317220721e-02 -1.2369593266e-01 -2.5454802196e+00 -1.2055690474e-01 -3.7317220721e-02 -1.2055690474e-01 -4.2151109279e+00" polarizability="7.6470022799e+00 -1.6643936230e-01 -8.6795925644e-02 -1.6643936230e-01 7.0589886882e+00 -7.9101774391e-02 -8.6795925644e-02 -7.9101774391e-02 6.1531361224e+00" charge=1 multiplicity=1 method=wB97M-V basis=def2-svpd config_type=h3o+ sample_index=106 temperature=300.0 units=atomic
O        -0.0016922070      -0.0057087965       0.0871260906   2.758769679505e-02   5.732990990137e-03  -4.249887997605e-02
H        -0.0114785463       0.8806434115      -0.3551844707   3.318377960830e-03   8.101963577786e-03   1.469073955816e-02
H         0.8621864378      -0.4081632646      -0.3327058860  -3.543405734195e-02   2.518683393304e-03   2.049214721834e-02
H        -0.8236408884      -0.3726378642      -0.3242721706   4.528136048039e-03  -1.635570884895e-02   7.316243001343e-03
4
Properties=species:S:1:pos:R:3:forces:R:3 energy=-7.659271000265e+01 dipole="2.9856440111e-02 9.6794098303e-02 -4.7632030288e-01" quadrupole="-1.8017724002e+00 2.1321007829e-01 -4.8992116618e-02 2.1321007829e-01 -9.0314863364e-01 -4.5764023792e-02 -4.8992116618e-02 -4.5764023792e-02 -4.9889123825e+00" polarizability="8.1925660465e+00 1.7969189377e-01 -3.3741027750e-02 1.7969189377e-01 9.3133624243e+00 -1.0529691973e-01 -3.3741027750e-02 -1.0529691973e-01 6.2347842771e+00" charge=1 multiplicity=1 method=wB97M-V basis=def2-svpd config_type=h3o+ sample_index=107 temperature=300.0 units=atomic
O        -0.0030632779      -0.0018606272       0.0551276227   5.884540007707e-03   3.220771185996e-02  -2.687249239534e-02
H         0.0445883232       1.1207533618      -0.1729864252  -8.889184601107e-03  -8.719708874365e-02   1.350237821349e-02
H         0.8593599316      -0.5172305714      -0.1708065670  -3.159086329592e-02   2.203521977605e-02   7.365664794950e-03
H        -0.8549246294      -0.5662153467      -0.1554950755   3.459758049117e-02   3.295349814774e-02   6.008392682202e-03
4
Properties=species:S:1:pos:R:3:forces:R:3 energy=-7.660336552155e+01 dipole="-2.1757992928e-01 -7.7312391263e-02 -5.4253466885e-01" quadrupole="-1.7853947000e+00 -1.9453210798e-01 2.5404502978e-01 -1.9453210798e-01 -1.6917811633e+00 9.2103242433e-02 2.5404502978e-01 9.2103242433e-02 -4.7598342924e+00" polarizability="7.6274401635e+00 1.7764654780e-01 2.9702863918e-01 1.7764654780e-01 7.4116258700e+00 1.1579727452e-01 2.9702863918e-01 1.1579727452e-01 5.8533607393e+00" charge=1 multiplicity=1 method=wB97M-V basis=def2-svpd config_type=h3o+ sample_index=108 temperature=300.0 units=atomic
O         0.0155992858       0.0062598609       0.0597944956  -1.016030576575e-01  -2.829483360860e-02  -8.058530024889e-03
H        -0.1135164550       0.9490088797      -0.1745759967   1.941355583303e-02   2.130021937499e-03  -3.334277914919e-03
H         0.7643828941      -0.5470488347      -0.1608243661   2.655953276191e-02  -6.372709256075e-06  -1.021617648407e-02
H        -0.9004823798      -0.4943937897      -0.2387214454   5.563230380235e-02   2.616595662706e-02   2.160980405615e-02
4
Properties=species:S:1:pos:R:3:forces:R:3 energy=-7.660833954856e+01 dipole="8.8119731332e-02 -1.5870428744e-03 -7.6620067698e-01" quadrupole="-1.6015625634e+00 -5.9444397044e-03 -1.0914681431e-01 -5.9444397044e-03 -2.2426093650e+00 -3.2338877134e-02 -1.0914681431e-01 -3.2338877134e-02 -4.4865355443e+00" polarizability="7.9277568084e+00 -1.3631217051e-01 -1.6192711185e-01 -1.3631217051e-01 7.2862706983e+00 2.6390408932e-02 -1.6192711185e-01 2.6390408932e-02 6.0744504340e+00" charge=1 multiplicity=1 method=wB97M-V basis=def2-svpd config_type=h3o+ sample_index=109 temperature=300.0 units=atomic
O        -0.0054702654      -0.0013657769       0.0766083691   4.174369265110e-02  -1.728996216290e-02  -3.250303344615e-02
H         0.0279990730       0.9128400110      -0.2864335134  -4.838908139950e-03   3.506666926969e-03   5.887216514714e-03
H         0.8957181971      -0.4423952599      -0.2922371478  -5.060483781752e-02   1.340198646020e-02   2.174226572414e-02
H        -0.8361894606      -0.4403941800      -0.2649288865   1.369918516767e-02   3.797869364246e-04   4.872116143434e-03
4
Properties=species:S:1:pos:R:3:forces:R:3 energy=-7.658841293820e+01 dipole="4.1710333486e-02 5.3206326482e-02 -4.6201823427e-01" quadrupole="-4.1795774117e-01 -3.9198905903e-01 1.9194114831e-02 -3.9198905903e-01 -2.3918689983e+00 -1.3868049610e-01 1.9194114831e-02 -1.3868049610e-01 -4.9638271424e+00" polarizability="9.4010185639e+00 -3.5188276596e-01 -5.1449892850e-03 -3.5188276596e-01 7.5660806854e+00 -4.4011830781e-02 -5.1449892850e-03 -4.4011830781e-02 6.1335677850e+00" charge=1 multiplicity=1 method=wB97M-V basis=def2-svpd config_type=h3o+ sample_index=110 temperature=300.0 units=atomic
O         0.0011470758      -0.0091674542       0.0542137809   8.909362339744e-03  -1.257511530069e-02  -1.883306057628e-02
H        -0.0592687983       0.9413535616      -0.1891894095   1.228829806333e-02  -2.486708383898e-04   3.609122846856e-03
H         1.0259604858      -0.4395430941      -0.1450021515  -8.152354463440e-02   1.939122329703e-02   8.012046664627e-03
H        -0.9850504295      -0.3474135273      -0.1507602941   6.032463042068e-02  -6.565957502775e-03   7.209021747172e-03
4
Properties=species:S:1:pos:R:3:forces:R:3 energy=-7.661085732891e+01 dipole="-5.9762447907e-02 -7.9028820933e-02 -5.1113164572e-01" quadrupole="-2.1431255660e+00 -3.5905695209e-01 9.7182719504e-02 -3.5905695209e-01 -1.5991089562e+00 1.0834096520e-01 9.7182719504e-02 1.0834096520e-01 -4.7089488929e+00" polarizability="6.7895594229e+00 -2.1672781853e-01 5.5738814517e-02 -2.1672781853e-01 7.0370477716e+00 8.5889777515e-02 5.5738814517e-02 8.5889777515e-02 5.5851125077e+00" charge=1 multiplicity=1 method=wB97M-V basis=def2-svpd config_type=h3o+ sample_index=111 temperature=300.0 units=atomic
O         0.0065398966       0.0073687048       0.0577449110  -3.491888731140e-03  -2.875098314116e-02   7.509040731954e-03
H        -0.0907497896       0.9427158237      -0.1604367729   1.418175657442e-02   1.524222695285e-02  -7.026220397724e-03
H         0.7693612796      -0.5749085457      -0.1740734291   8.066774034995e-03   1.920363568005e-02  -6.878402271855e-04
H        -0.7832664763      -0.4780301765      -0.2067586156  -1.875823247848e-02  -5.700786233833e-03   2.028964117452e-04
4
Properties=species:S:1:pos:R:3:forces:R:3 energy=-7.660187630663e+01 dipole="5.2843979135e-02 -8.1429984664e-02 -5.8639556315e-01" quadrupole="-2.3688063066e+00 3.6924468249e-01 -9.5258506230e-02 3.6924468249e-01 -1.8126529155e+00 1.1621927230e-01 -9.5258506230e-02 1.1621927230e-01 -4.5230877717e+00" polarizability="6.1770351749e+00 2.2703219821e-01 -3.7068561068e-02 2.2703219821e-01 6.4210978565e+00 8.7515620418e-02 -3.7068561068e-02 8.7515620418e-02 5.3520682850e+00" charge=1 multiplicity=1 method=wB97M-V basis=def2-svpd config_type=h3o+ sample_index=112 temperature=300.0 units=atomic
O        -0.0061932279       0.0076506345       0.0632262380  -1.851891672909e-02  -2.666355524556e-02   4.101887329354e-02
H         0.0949404210       0.8935398359      -0.1889451854  -1.226569769519e-02   6.071092507553e-02  -1.838946244809e-02
H         0.7301271708      -0.4503815436      -0.2355609015   6.915478909532e-02  -3.536309031942e-02  -1.492039434592e-02
H        -0.7259601470      -0.5577254250      -0.2046038459  -3.836854880453e-02   1.313770723285e-03  -7.712917957540e-03
4
Properties=species:S:1:pos:R:3:forces:R:3 energy=-7.660382968070e+01 dipole="-1.4106634169e-01 -8.9564704256e-02 -5.6602396691e-01" quadrupole="-2.0052530491e+00 1.2538897022e-01 1.4240890661e-01 1.2538897022e-01 -1.3506927573e+00 1.3844286072e-01 1.4240890661e-01 1.3844286072e-01 -4.7768405321e+00" polarizability="7.6402095129e+00 3.6002433522e-01 2.0982369818e-01 3.6002433522e-01 7.9450557084e+00 1.3640671424e-01 2.0982369818e-01 1.3640671424e-01 5.9638579470e+00" charge=1 multiplicity=1 method=wB97M-V basis=def2-svpd config_type=h3o+ sample_index=113 temperature=300.0 units=atomic
O         0.0084984406       0.0083463326       0.0615309485  -7.550078090509e-02  -2.227495107518e-02  -1.663037848037e-02
H        -0.0283004044       0.9925073995      -0.1778337592   6.026237319375e-03  -2.750010884148e-02   1.248836046795e-03
H         0.7591248202      -0.5444432341      -0.1908070645   2.104075992536e-02   5.322210432849e-03  -4.623687699503e-03
H        -0.8668102157      -0.5738938885      -0.2332244061   4.842665584873e-02   4.444726711395e-02   2.000299121748e-02
4
Properties=species:S:1:pos:R:3:forces:R:3 energy=-7.660810853752e+01 dipole="-7.2247561692e-03 4.4179906194e-02 -7.1676125996e-01" quadrupole="-1.5640790291e+00 2.4783981804e-01 -2.7468048631e-02 2.4783981804e-01 -2.5060837385e+00 -1.0454271174e-01 -2.7468048631e-02 -1.0454271174e-01 -4.4645698080e+00" polarizability="7.3245672634e+00 2.0230181936e-01 6.8537695131e-03 2.0230181936e-01 6.6031117126e+00 -3.5686886735e-02 6.8537695131e-03 -3.5686886735e-02 5.7428403369e+00" charge=1 multiplicity=1 method=wB97M-V basis=def2-svpd config_type=h3o+ sample_index=114 temperature=300.0 units=atomic
O        -0.0014921769      -0.0055190110       0.0729404819  -2.003831161728e-02  -1.777066783805e-02  -1.131628172599e-03
H         0.0474087717       0.8714464611      -0.2788147448  -9.506762580948e-03   4.377492954218e-02  -4.886402995460e-03
H         0.8457511703      -0.3532868493      -0.2567951193   3.037105117101e-03  -2.631728749669e-02  -4.311438275573e-04
H        -0.8692816912      -0.4216728318      -0.2493212628   2.650785923370e-02   3.083310962210e-04   6.448906581003e-03
4
Properties=species:S:1:pos:R:3:forces:R:3 energy=-7.658233120116e+01 dipole="1.0176930012e-02 -4.8968131518e-02 -3.3880346536e-01" quadrupole="-2.2633882371e+00 7.1688662838e-01 -6.9886874325e-02 7.1688662838e-01 -1.5594216653e+00 6.7751808165e-02 -6.9886874325e-02 6.7751808165e-02 -4.7278090696e+00" polarizability="6.0059736978e+00 5.7129547661e-01 3.4525413638e-02 5.7129547661e-01 6.5146345179e+00 1.1911160126e-02 3.4525413638e-02 1.1911160126e-02 5.2395160078e+00" charge=1 multiplicity=1 method=wB97M-V basis=def2-svpd config_type=h3o+ sample_index=115 temperature=300.0 units=atomic
O        -0.0053919639       0.0054600992       0.0455882038  -1.515924686930e-01   5.264643071570e-02   4.964397892545e-02
H         0.1451147527       0.9334516569      -0.1009716920  -2.119636120771e-02   3.336615274827e-02  -7.038077394456e-03
H         0.7031775272      -0.4058410722      -0.1362847537   1.850888065243e-01  -1.080792891137e-01  -4.083322468206e-02
H        -0.7619937856      -0.6075485409      -0.1092924009  -1.229686652178e-02   2.206820188192e-02  -1.771993364564e-03
4
Properties=species:S:1:pos:R:3:forces:R:3 energy=-7.660223363576e+01 dipole="-1.8814533998e-01 -5.1502780214e-02 -5.1883106339e-01" quadrupole="-1.5429541260e+00 -9.5191189207e-02 2.0877101758e-01 -9.5191189207e-02 -1.6347087589e+00 5.3447511328e-02 2.0877101758e-01 5.3447511328e-02 -4.8534594144e+00" polarizability="8.1475357142e+00 2.1395103372e-01 2.5500477722e-01 2.1395103372e-01 7.8533542029e+00 7.9842415468e-02 2.5500477722e-01 7.9842415468e-02 6.0124998106e+00" charge=1 multiplicity=1 method=wB97M-V basis=def2-svpd config_type=h3o+ sample_index=116 temperature=300.0 units=atomic
O         0.0125423540       0.0037295911       0.0580982009  -8.128955631553e-02  -1.810326926894e-02  -1.895953380564e-02
H        -0.0811782337       0.9819126612      -0.1727861246   1.566395543379e-02  -2.325841720434e-02   2.799973655091e-03
H         0.8137403102      -0.5293768649      -0.1557716135  -6.975878532360e-04   1.082798472778e-02  -3.581242427332e-03
H        -0.9332593900      -0.5045333490      -0.2183967269   6.632926419467e-02   3.053015892634e-02   1.974440191634e-02
4
Properties=species:S:1:pos:R:3:forces:R:3 energy=-7.661215242243e+01 dipole="5.3712685419e-03 7.2526452853e-02 2.2069574502e-02" quadrupole="-1.6662323464e+00 1.2513465344e-01 -1.2824558471e-02 1.2513465344e-01 -1.5281349348e+00 -3.7775939780e-02 -1.2824558471e-02 -3.7775939780e-02 -4.9901061505e+00" polarizability="7.0224746987e+00 9.6830509083e-02 -6.0218022330e-03 9.6830509083e-02 7.3140179022e+00 -2.1824105541e-02 -6.0218022330e-03 -2.1824105541e-02 5.5716910708e+00" charge=1 multiplicity=1 method=wB97M-V basis=def2-svpd config_type=h3o+ sample_index=117 temperature=300.0 units=atomic
O        -0.0012269963      -0.0035949301       0.0212373150  -8.135981331143e-03   4.632407568772e-02  -3.051765294897e-04
H         0.0244307349       1.0172312146       0.0031267841  -4.856500260093e-03  -3.531585998215e-02   5.572220226376e-04
H         0.8432645326      -0.4609198853       0.0171092097   1.221040534945e-02  -1.142868876672e-02  -1.110201621427e-04
H        -0.8480469379      -0.4919288778       0.0232491874   7.771765389775e-04   4.288148780038e-04  -1.401465431494e-04
4
Properties=species:S:1:pos:R:3:forces:R:3 energy=-7.660421629082e+01 dipole="-1.3398920643e-01 7.5916891380e-02 -5.3660741992e-01" quadrupole="-1.9986595739e+00 1.1209812653e-01 1.2341097142e-01 1.1209812653e-01 -1.5281269146e+00 -4.7661975182e-02 1.2341097142e-01 -4.7661975182e-02 -4.7408912221e+00" polarizability="7.0250619647e+00 2.9374280862e-01 1.7034023620e-01 2.9374280862e-01 7.6140631109e+00 -9.1272713714e-02 1.7034023620e-01 -9.1272713714e-02 5.7522176055e+00" charge=1 multiplicity=1 method=wB97M-V basis=def2-svpd config_type=h3o+ sample_index=118 temperature=300.0 units=atomic
O         0.0078480618      -0.0024627005       0.0593789431  -1.116102342490e-01   6.986764863052e-02   1.997484507340e-03
H        -0.0233112515       1.0158929923      -0.1974857663   5.772278246557e-03  -4.902611447696e-02   1.073839926935e-02
H         0.7527324683      -0.4683348342      -0.1654182515   7.476195626940e-02  -3.976626863592e-02  -2.310635693885e-02
H        -0.8549992916      -0.5004250712      -0.2045873310   3.107761952721e-02   1.892956507505e-02   1.036823873009e-02
4
Properties=species:S:1:pos:R:3:forces:R:3 energy=-7.659963506205e+01 dipole="6.9441967161e-02 -5.0879204851e-02 -4.5619929209e-01" quadrupole="-1.5787447476e+00 6.7189408171e-01 -1.5200589383e-01 6.7189408171e-01 -2.1871605597e+00 5.0148246536e-03 -1.5200589383e-01 5.0148246536e-03 -4.7193812262e+00" polarizability="6.9775938680e+00 3.9046433588e-01 -8.5963325616e-02 3.9046433588e-01 6.4034682841e+00 4.0049720894e-02 -8.5963325616e-02 4.0049720894e-02 5.4645417804e+00" charge=1 multiplicity=1 method=wB97M-V basis=def2-svpd config_type=h3o+ sample_index=119 temperature=300.0 units=atomic
O        -0.0100552620       0.0014556672       0.0537823653  -1.411342435473e-02  -6.892584883761e-02   2.350331476512e-02
H         0.1584808856       0.8710370498      -0.1563111228  -2.038630643707e-02   8.941343110136e-02  -1.780714116832e-02
H         0.8419685839      -0.3524197460      -0.1859520237   1.909472954593e-02  -3.853451497787e-02  -2.935891372618e-03
H        -0.8395345749      -0.5342181425      -0.1356855585   1.539723954337e-02   1.804703672113e-02  -2.758496781039e-03
4
Properties=species:S:1:pos:R:3:forces:R:3 energy=-7.660798107453e+01 dipole="-1.3444731754e-01 6.3073486347e-02 -6.4966181773e-01" quadrupole="-1.7952376205e+00 8.6594148746e-02 1.3832941933e-01 8.6594148746e-02 -1.9733865105e+00 -7.9194612323e-02 1.3832941933e-01 -7.9194612323e-02 -4.6031897559e+00" polarizability="7.2556411847e+00 2.6038047471e-01 2.0130925240e-01 2.6038047471e-01 7.2765595368e+00 -8.8597918964e-02 2.0130925240e-01 -8.8597918964e-02 5.8146739382e+00" charge=1 multiplicity=1 method=wB97M-V basis=def2-svpd config_type=h3o+ sample_index=120 temperature=300.0 units=atomic
O         0.0078296616      -0.0042118024       0.0677105962  -9.746178255169e-02   4.283177708866e-02  -5.867042045457e-03
H        -0.0268866304       0.9602617953      -0.2470718048   5.533889458984e-03  -2.329957874600e-02   1.086239074845e-02
H         0.7821097255      -0.4295849315      -0.2074447194   5.059147599890e-02  -3.186732364567e-02  -1.967729828155e-02
H        -0.8805098293      -0.4553084619      -0.2465245999   4.133698183870e-02   1.234120505705e-02   1.467865445359e-02
4
Properties=species:S:1:pos:R:3:forces:R:3 energy=-7.660060612188e+01 dipole="-4.6412872873e-02 1.7936401419e-01 -2.5301716554e-01" quadrupole="-9.8870431096e-01 -3.0189151318e-01 7.2939563493e-02 -3.0189151318e-01 -1.9196978491e+00 -1.9007628161e-01 7.2939563493e-02 -1.9007628161e-01 -5.0419356731e+00" polarizability="8.1159833668e+00 -2.0067825329e-01 5.2343392767e-02 -2.0067825329e-01 7.8614836429e+00 -1.6189380498e-01 5.2343392767e-02 -1.6189380498e-01 5.9014664112e+00" charge=1 multiplicity=1 method=wB97M-V basis=def2-svpd config_type=h3o+ sample_index=121 temperature=300.0 units=atomic
O         0.0047898690      -0.0144752749       0.0397815036  -1.519725159280e-02   6.507599517643e-02  -9.816120351018e-03
H        -0.0659523871       1.0314013753      -0.1273362142   1.522211656477e-02  -5.526323551097e-02   9.860635843929e-03
H         0.9325016351      -0.4312518067      -0.0512201473  -3.697591216082e-02   2.829816935680e-03  -1.474721958796e-03
H        -0.9431924516      -0.3611869067      -0.0751559117   3.695408502591e-02  -1.264153936903e-02   1.434302609882e-03
4
Properties=species:S:1:pos:R:3:forces:R:3 energy=-7.660178124645e+01 dipole="1.2543515315e-01 -2.3955762277e-02 -4.7720843427e-01" quadrupole="-2.1893668108e+00 -2.6391977747e-01 -1.0046978414e-01 -2.6391977747e-01 -1.2547567665e+00 8.3764268927e-02 -1.0046978414e-01 8.3764268927e-02 -4.7957871929e+00" polarizability="6.9674697158e+00 -4.4460049704e-01 -1.6307199380e-01 -4.4460049704e-01 7.6560235880e+00 4.3661787040e-02 -1.6307199380e-01 4.3661787040e-02 5.7163185699e+00" charge=1 multiplicity=1 method=wB97M-V basis=def2-svpd config_type=h3o+ sample_index=122 temperature=300.0 units=atomic
O        -0.0067251338       0.0054284580       0.0551707111   1.116869745010e-01   3.357776621264e-02   5.275634468557e-03
H        -0.0035171588       1.0101700986      -0.1522513073  -8.569286658518e-04  -3.673859081117e-02   2.473250809955e-03
H         0.8320868916      -0.5788328675      -0.1906423435  -3.074720475728e-02   3.914779562332e-02   1.235995910519e-02
H        -0.7209606726      -0.5106159592      -0.1570925043  -8.008059282857e-02  -3.599611497887e-02  -2.010362190242e-02
4
Properties=species:S:1:pos:R:3:forces:R:3 energy=-7.658150597259e+01 dipole="3.6492132535e-02 9.2199034110e-02 -2.6310401412e-01" quadrupole="-2.5983508882e+00 3.8380524921e-01 -5.0530797248e-02 3.8380524921e-01 -9.6513950689e-01 1.9978580305e-02 -5.0530797248e-02 1.9978580305e-02 -4.8151755598e+00" polarizability="5.8858365425e+00 3.2104074279e-01 3.8518054398e-03 3.2104074279e-01 7.1821818135e+00 -4.7616543488e-02 3.8518054398e-03 -4.7616543488e-02 5.3374234814e+00" charge=1 multiplicity=1 method=wB97M-V basis=def2-svpd config_type=h3o+ sample_index=123 temperature=300.0 units=atomic
O        -0.0041451578       0.0019336455       0.0403332957  -7.142482657019e-02   1.558204120968e-01   3.337418761663e-02
H         0.0822196009       1.0454338680      -0.0830247286  -1.509818162544e-02  -5.297916273726e-02   2.273277231937e-03
H         0.6865428223      -0.4824591317      -0.0999977426   1.604328973630e-01  -8.437610027805e-02  -2.656385579683e-02
H        -0.7024201782      -0.5866731062      -0.0792651118  -7.391688559190e-02  -1.846459247946e-02  -9.080650903670e-03
4
Properties=species:S:1:pos:R:3:forces:R:3 energy=-7.660352110474e+01 dipole="-2.7943466990e-02 -5.6773415897e-03 -4.5706564485e-01" quadrupole="-1.8081823790e+00 3.5251851360e-01 -6.7714465738e-03 3.5251851360e-01 -1.2177090461e+00 3.7868643635e-02 -6.7714465738e-03 3.7868643635e-02 -4.9283601068e+00" polarizability="7.8334891311e+00 3.8453664561e-01 3.7659460978e-02 3.8453664561e-01 8.3627335752e+00 1.1077222999e-02 3.7659460978e-02 1.1077222999e-02 6.0008397254e+00" charge=1 multiplicity=1 method=wB97M-V basis=def2-svpd config_type=h3o+ sample_index=124 temperature=300.0 units=atomic
O        -0.0005569202       0.0028215477       0.0538346360  -2.885383852446e-02   8.601005075480e-03  -1.811472625905e-02
H         0.0520314894       1.0447912543      -0.1526021696  -9.529975627031e-03  -5.736959907334e-02   7.249887515786e-03
H         0.8230877071      -0.4986823237      -0.1644023450  -4.913897783702e-03   7.321895015802e-03   1.620848305567e-03
H        -0.8661984923      -0.5837191729      -0.1615906189   4.330197699524e-02   4.144517661079e-02   9.248666002065e-03
4
Properties=species:S:1:pos:R:3:forces:R:3 energy=-7.658969137946e+01 dipole="-2.1750888863e-01 -2.1399797633e-02 -6.9438765948e-01" quadrupole="-9.1794990298e-01 1.4933643765e-01 2.3872960053e-01 1.4933643765e-01 -2.2734183951e+00 -3.6927482214e-02 2.3872960053e-01 -3.6927482214e-02 -4.6969242374e+00" polarizability="9.2377907117e+00 4.5311896082e-01 3.6560203926e-01 4.5311896082e-01 7.7067924776e+00 7.9488048412e-02 3.6560203926e-01 7.9488048412e-02 6.3154753249e+00" charge=1 multiplicity=1 method=wB97M-V basis=def2-svpd config_type=h3o+ sample_index=125 temperature=300.0 units=atomic
O         0.0116067348      -0.0020820955       0.0707371262  -7.024657782900e-02  -2.336955610681e-02  -3.251304796005e-02
H        -0.0412138069       0.9261415479      -0.2570963509   6.739891046426e-03  -1.163735403187e-03   4.890667660777e-03
H         0.8803313729      -0.4244965206      -0.2172671935  -2.371064390551e-02   8.803698056037e-04   1.751743562894e-03
H        -1.0248425962      -0.4602773669      -0.2751995773   8.721498163981e-02   2.365170219726e-02   2.587496801431e-02
4
Properties=species:S:1:pos:R:3:forces:R:3 energy=-7.659467204490e+01 dipole="-7.7666416686e-02 -9.1060583915e-02 -6.5123602737e-01" quadrupole="-1.7801443942e+00 -7.7462131324e-01 1.8904923792e-01 -7.7462131324e-01 -2.2520746165e+00 5.8057559141e-02 1.8904923792e-01 5.8057559141e-02 -4.5198216725e+00" polarizability="7.0532352244e+00 -4.7962839835e-01 1.0721514696e-01 -4.7962839835e-01 6.4936262773e+00 1.0433501691e-01 1.0721514696e-01 1.0433501691e-01 5.6028672352e+00" charge=1 multiplicity=1 method=wB97M-V basis=def2-svpd config_type=h3o+ sample_index=126 temperature=300.0 units=atomic
O         0.0113340877       0.0045528350       0.0678987411   2.013875507886e-02  -8.394661936597e-02   2.174583372175e-02
H        -0.1857977456       0.8430140742      -0.2228482315   2.242363099009e-02   9.637725039613e-02  -2.462093926117e-02
H         0.8171229178      -0.5625891427      -0.2122781340  -2.064567854858e-02   2.879243588575e-02   2.550526303029e-03
H        -0.8127068849      -0.3452576963      -0.2689418886  -2.191680306100e-02  -4.123110892505e-02   3.173497189132e-04
4
Properties=species:S:1:pos:R:3:forces:R:3 energy=-7.660668527657e+01 dipole="3.0543799713e-02 1.5432053940e-01 -5.9241548379e-01" quadrupole="-1.2268729943e+00 1.4237690045e-01 -5.1816997990e-02 1.4237690045e-01 -2.4014786063e+00 -2.2743859272e-01 -5.1816997990e-02 -2.2743859272e-01 -4.6946908720e+00" polarizability="7.7051624577e+00 8.0429136669e-02 -4.7174380529e-02 8.0429136669e-02 7.1156886928e+00 -1.9104465777e-01 -4.7174380529e-02 -1.9104465777e-01 5.8448696788e+00" charge=1 multiplicity=1 method=wB97M-V basis=def2-svpd config_type=h3o+ sample_index=127 temperature=300.0 units=atomic
O        -0.0028045570      -0.0137356144       0.0636016929   1.182595418353e-02   4.527250263348e-02  -1.295214174321e-02
H         0.0355877408       0.9413696250      -0.2525558263  -8.109238232534e-03  -1.416206677549e-02   1.297098545259e-02
H         0.9095096250      -0.3389254462      -0.1984132375  -2.480338344626e-02  -1.915674947135e-02   1.833662217946e-03
H        -0.9002180785      -0.3747003553      -0.1843981039   2.109000305738e-02  -1.195458747446e-02  -1.851380784646e-03
4
Properties=species:S:1:pos:R:3:forces:R:3 energy=-7.658629042634e+01 dipole="2.1084798678e-01 -5.8252341296e-02 -3.8365838789e-01" quadrupole="-1.3100848287e+00 -5.6474485510e-01 -1.2177510780e-01 -5.6474485510e-01 -2.1257834645e+00 1.1322285084e-02 -1.2177510780e-01 1.1322285084e-02 -4.8031624751e+00" polarizability="7.3082606131e+00 -6.5538280798e-01 -1.8730396766e-01 -6.5538280798e-01 6.5539002664e+00 6.0798183957e-02 -1.8730396766e-01 6.0798183957e-02 5.5156434876e+00" charge=1 multiplicity=1 method=wB97M-V basis=def2-svpd config_type=h3o+ sample_index=128 temperature=300.0 units=atomic
O        -0.0080145965       0.0006115228       0.0483701517   1.718634413780e-01  -4.740627130870e-02   2.793894202681e-02
H        -0.0408314041       0.8914580245      -0.1298038953   6.617828499796e-03   8.263757786795e-02  -1.524920372167e-02
H         0.9588981991      -0.5192447722      -0.1507018379  -7.118312440233e-02   3.334606354588e-02   1.123124414394e-02
H        -0.7898280547      -0.3744435383      -0.1107409206  -1.072991052785e-01  -6.857239049778e-02  -2.392397934459e-02
4
Properties=species:S:1:pos:R:3:forces:R:3 energy=-7.657281821338e+01 dipole="1.7040348251e-01 -1.7099712495e-01 -4.6822370469e-01" quadrupole="-1.2436679635e+00 1.6013627730e-01 -2.0077588221e-01 1.6013627730e-01 -2.3834523464e+00 1.0506513072e-01 -2.0077588221e-01 1.0506513072e-01 -4.7135147304e+00" polarizability="7.5947820828e+00 -1.5025852808e-01 -2.2656309864e-01 -1.5025852808e-01 6.1024016980e+00 2.0903549020e-01 -2.2656309864e-01 2.0903549020e-01 5.5158695698e+00" charge=1 multiplicity=1 method=wB97M-V basis=def2-svpd config_type=h3o+ sample_index=129 temperature=300.0 units=atomic
O        -0.0126012365       0.0085128607       0.0542168720   5.223439036942e-02  -2.677593114551e-01   4.634262597841e-02
H         0.0952333695       0.8012433906      -0.1383011398   9.519181123492e-03   2.515652795121e-01  -5.911404117493e-02
H         0.9394210898      -0.4405449581      -0.2047683762  -6.149518998191e-02   1.210322881223e-02   1.748893040768e-02
H        -0.8330100213      -0.4892048647      -0.1418394844  -2.644170686485e-04   4.091431899416e-03  -4.715629027282e-03
4
Properties=species:S:1:pos:R:3:forces:R:3 energy=-7.660069183133e+01 dipole="1.2792460120e-01 -3.3191743636e-02 -2.5028469109e-01" quadrupole="-2.2464306004e+00 4.6036173616e-01 -1.3485706271e-01 4.6036173616e-01 -1.4786056656e+00 6.3043445379e-02 -1.3485706271e-01 6.3043445379e-02 -4.8065606815e+00" polarizability="6.1811952811e+00 2.0975794323e-01 -6.8092899497e-02 2.0975794323e-01 6.6434287132e+00 2.0910998151e-02 -6.8092899497e-02 2.0910998151e-02 5.3081108067e+00" charge=1 multiplicity=1 method=wB97M-V basis=def2-svpd config_type=h3o+ sample_index=130 temperature=300.0 units=atomic
O        -0.0116435363       0.0058236027       0.0396328564   2.603955493675e-02   3.080675813476e-02   2.090241528767e-02
H         0.1350507963       0.9530350320      -0.0680844733  -2.118857631174e-02   1.731782746677e-02  -4.190123093552e-03
H         0.7697126980      -0.4562135820      -0.1206095399   5.901568781593e-02  -3.111264986872e-02  -7.962761013353e-03
H        -0.7184338947      -0.5827315158      -0.0624335460  -6.386772021902e-02  -1.701129254495e-02  -8.746352673222e-03
4
Properties=species:S:1:pos:R:3:forces:R:3 energy=-7.660700883786e+01 dipole="-3.2584516267e-02 -1.4640101508e-01 -5.5354787111e-01" quadrupole="-1.7792861536e+00 3.0709874292e-01 1.1268373086e-03 3.0709874292e-01 -1.6899714145e+00 1.5386333079e-01 1.1268373086e-03 1.5386333079e-01 -4.7532404599e+00" polarizability="7.6634077691e+00 3.1139834880e-01 4.9638507609e-02 3.1139834880e-01 7.3633862003e+00 1.8416768490e-01 4.9638507609e-02 1.8416768490e-01 5.8440624105e+00" charge=1 multiplicity=1 method=wB97M-V basis=def2-svpd config_type=h3o+ sample_index=131 temperature=300.0 units=atomic
O        -0.0003179687       0.0096216627       0.0606510904  -2.624634621633e-02  -8.471918654924e-02  -9.265339469872e-03
H         0.0462810833       0.9296105967      -0.1694677952  -6.239304986620e-03   3.029410537090e-02  -1.108481568517e-02
H         0.8179136527      -0.4992735243      -0.2099865791  -1.082735705150e-02   1.175071436933e-02   6.381298012878e-03
H        -0.8591007896      -0.5765510847      -0.2083712568   4.331483578954e-02   4.267094894621e-02   1.396422855622e-02
4
Properties=species:S:1:pos:R:3:forces:R:3 energy=-7.660450571397e+01 dipole="3.4864632697e-02 1.4979903815e-01 -3.4870251219e-01" quadrupole="-1.4502325009e+00 -1.6406130764e-01 -1.1244535496e-02 -1.6406130764e-01 -1.5654063710e+00 -1.4310407599e-01 -1.1244535496e-02 -1.4310407599e-01 -4.9787355205e+00" polarizability="7.6993812775e+00 -1.8947884907e-01 -2.4710270487e-02 -1.8947884907e-01 8.0710124720e+00 -1.5494498514e-01 -2.4710270487e-02 -1.5494498514e-01 5.8836081582e+00" charge=1 multiplicity=1 method=wB97M-V basis=def2-svpd config_type=h3o+ sample_index=132 temperature=300.0 units=atomic
O        -0.0009288491      -0.0095150688       0.0462132805   3.020392195237e-02   6.769673778300e-02  -1.003344895698e-02
H        -0.0184203203       1.0569622522      -0.1474178984   3.774076252162e-03  -6.676559699710e-02   1.164540788481e-02
H         0.9015151384      -0.4688903249      -0.1069270011  -3.609419130746e-02   1.002459875451e-02   1.856645327559e-03
H        -0.8682296517      -0.4283839493      -0.1023028310   2.116072536686e-03  -1.095856483223e-02  -3.471326729834e-03
4
Properties=species:S:1:pos:R:3:forces:R:3 energy=-7.661222824900e+01 dipole="-3.4176078850e-03 -8.6470791841e-02 -2.5300070360e-01" quadrupole="-1.9175369896e+00 -3.5543967207e-02 6.0615198810e-03 -3.5543967207e-02 -1.6102762380e+00 8.4298370727e-02 6.0615198810e-03 8.4298370727e-02 -4.8714335221e+00" polarizability="6.7487819151e+00 -2.2695447903e-02 2.3335093274e-03 -2.2695447903e-02 6.7799265293e+00 6.2159053003e-02 2.3335093274e-03 6.2159053003e-02 5.4466948458e+00" charge=1 multiplicity=1 method=wB97M-V basis=def2-svpd config_type=h3o+ sample_index=133 temperature=300.0 units=atomic
O         0.0005059760       0.0069498824       0.0397185194   1.291134631051e-03  -5.104770003372e-02   9.625360874823e-03
H        -0.0080760516       0.9402961454      -0.0652876998   1.082972609231e-03   4.022634690479e-02  -7.351287747682e-03
H         0.8054704715      -0.5267750958      -0.0923494553   8.537315814822e-03   6.978312695959e-03  -1.033048645549e-03
H        -0.8054853377      -0.5174510824      -0.0948776205  -1.091115243769e-02   3.841828427536e-03  -1.235475181879e-03
4
Properties=species:S:1:pos:R:3:forces:R:3 energy=-7.661215641717e+01 dipole="1.0622818975e-01 -4.3584450346e-02 -4.8861002736e-01" quadrupole="-1.7604553400e+00 6.7695783604e-02 -1.1515221455e-01 6.7695783604e-02 -1.8558668537e+00 3.9598840371e-02 -1.1515221455e-01 3.9598840371e-02 -4.7555380009e+00" polarizability="7.1803171068e+00 -9.7774646223e-02 -1.2853467833e-01 -9.7774646223e-02 6.9617165059e+00 5.5781374770e-02 -1.2853467833e-01 5.5781374770e-02 5.6361221910e+00" charge=1 multiplicity=1 method=wB97M-V basis=def2-svpd config_type=h3o+ sample_index=134 temperature=300.0 units=atomic
O        -0.0073469342       0.0030260453       0.0560609321   5.967988325706e-02  -2.995752621407e-02   3.308022915425e-03
H         0.0496778762       0.9338596444      -0.1639466440  -8.319885860338e-03   2.131996623591e-02  -6.200106251501e-03
H         0.8660766346      -0.4781808387      -0.1935523678  -3.200744421367e-02   1.378488409088e-02   9.964046166607e-03
H        -0.7981895589      -0.4964182923      -0.1568665296  -1.935541049655e-02  -5.146592070960e-03  -7.069816021522e-03
4
Properties=species:S:1:pos:R:3:forces:R:3 energy=-7.660614521246e+01 dipole="-6.2757693403e-02 1.4731629556e-01 -7.1939132782e-01" quadrupole="-1.4463374166e+00 3.2720001489e-02 6.6943363127e-02 3.2720001489e-02 -2.3110088148e+00 -2.2535191107e-01 6.6943363127e-02 -2.2535191107e-01 -4.5586586385e+00" polarizability="7.7856410748e+00 1.0538055757e-01 9.8280930181e-02 1.0538055757e-01 7.4496603753e+00 -2.3114584193e-01 9.8280930181e-02 -2.3114584193e-01 6.0392916783e+00" charge=1 multiplicity=1 method=wB97M-V basis=def2-svpd config_type=h3o+ sample_index=135 temperature=300.0 units=atomic
O         0.0034581278      -0.0122254059       0.0730028230  -3.781924359553e-02   5.291475874792e-02  -2.878245961874e-02
H        -0.0121326000       0.9561446802      -0.2984512818   2.363882222382e-03  -3.169094292461e-02   2.171472068348e-02
H         0.8624823492      -0.3707288161      -0.2351081992  -5.146961563401e-03  -1.734111433516e-02  -3.244264018422e-03
H        -0.9056877049      -0.3816438173      -0.2523688068   4.060197315569e-02  -3.890789807620e-03   1.031508009240e-02
4
Properties=species:S:1:pos:R:3:forces:R:3 energy=-7.659843634549e+01 dipole="-5.2690817980e-02 1.7812517744e-01 -5.9809786342e-01" quadrupole="-1.7841298204e+00 4.2554148852e-01 -5.9821104336e-04 4.2554148852e-01 -1.9987220542e+00 -2.1462719062e-01 -5.9821104336e-04 -2.1462719062e-01 -4.6264333396e+00" polarizability="6.8336988592e+00 4.2655468335e-01 6.7690421001e-02 4.2655468335e-01 7.2589368273e+00 -2.6883565812e-01 6.7690421001e-02 -2.6883565812e-01 5.6826622604e+00" charge=1 multiplicity=1 method=wB97M-V basis=def2-svpd config_type=h3o+ sample_index=136 temperature=300.0 units=atomic
O         0.0005203964      -0.0126029447       0.0638133425  -1.013093168206e-01   1.056483054043e-01   1.480571558102e-02
H         0.0647142428       0.9874067367      -0.2504236078  -1.543628924182e-02  -4.092816332653e-02   1.878777153358e-02
H         0.7887396352      -0.3304270956      -0.1928496807   9.804723416012e-02  -6.538106432341e-02  -3.352462018790e-02
H        -0.8617732858      -0.4473972679      -0.1954052350   1.870058861313e-02   6.600242290533e-04  -6.587016822723e-05
4
Properties=species:S:1:pos:R:3:forces:R:3 energy=-7.661141824576e+01 dipole="6.7788915746e-02 -3.0755120430e-02 -4.6090575436e-01" quadrupole="-1.8343153213e+00 2.5396889825e-01 -9.3069357051e-02 2.5396889825e-01 -1.4998659442e+00 4.8489451226e-02 -9.3069357051e-02 4.8489451226e-02 -4.8531468283e+00" polarizability="7.4542179628e+00 1.2268093140e-01 -7.6440566883e-02 1.2268093140e-01 7.6488587234e+00 3.6367103159e-02 -7.6440566883e-02 3.6367103159e-02 5.8108879084e+00" charge=1 multiplicity=1 method=wB97M-V basis=def2-svpd config_type=h3o+ sample_index=137 temperature=300.0 units=atomic
O        -0.0061414203       0.0036505304       0.0541430395   2.333731623827e-02  -8.294394166204e-03  -1.076460421044e-02
H         0.0695741694       0.9924467981      -0.1518783338  -1.309423820518e-02  -2.629064119913e-02   2.248721409865e-03
H         0.8463940710      -0.4897093245      -0.1811907558  -2.177723551078e-02   1.287604102630e-02   7.334574029111e-03
H        -0.8176890361      -0.5535665965      -0.1505067069   1.153471010592e-02   2.170551811591e-02   1.185883712857e-03
4
Properties=species:S:1:pos:R:3:forces:R:3 energy=-7.660723118224e+01 dipole="1.1888135205e-01 1.4137285121e-02 -5.2156694241e-01" quadrupole="-1.9146393048e+00 1.7355209458e-02 -1.2139513391e-01 1.7355209458e-02 -2.0329946239e+00 -1.8166430590e-02 -1.2139513391e-01 -1.8166430590e-02 -4.6336600738e+00" polarizability="6.5615028790e+00 -1.4031056644e-01 -1.4245496708e-01 -1.4031056644e-01 6.4844393427e+00 -9.4640965718e-03 -1.4245496708e-01 -9.4640965718e-03 5.4207084557e+00" charge=1 multiplicity=1 method=wB97M-V basis=def2-svpd config_type=h3o+ sample_index=138 temperature=300.0 units=atomic
O        -0.0077972633      -0.0007469218       0.0584195735   9.722393046277e-02   1.375076326178e-02   2.780941533766e-02
H         0.0435679026       0.9129325371      -0.1874423207  -7.333056704261e-03   3.427239260197e-02  -7.461641219087e-03
H         0.8399941615      -0.4448566526      -0.2018461211  -9.806726724710e-03  -2.701193612497e-03   4.491059210932e-03
H        -0.7587934173      -0.4483445743      -0.1629176853  -8.008695517213e-02  -4.531539013441e-02  -2.484289326414e-02
4
Properties=species:S:1:pos:R:3:forces:R:3 energy=-7.661103880063e+01 dipole="6.2753252992e-02 -9.0399810754e-03 -5.3530577544e-01" quadrupole="-1.8474262028e+00 -3.0264997883e-01 -2.9877461283e-02 -3.0264997883e-01 -1.8227521223e+00 9.5464013011e-03 -2.9877461283e-02 9.5464013011e-03 -4.7094099909e+00" polarizability="7.0596556658e+00 -3.4246659946e-01 -8.5949056376e-02 -3.4246659946e-01 7.0788567415e+00 8.0737485172e-03 -8.5949056376e-02 8.0737485172e-03 5.6523835645e+00" charge=1 multiplicity=1 method=wB97M-V basis=def2-svpd config_type=h3o+ sample_index=139 temperature=300.0 units=atomic
O        -0.0018288080       0.0009067537       0.0594155262   6.699061907425e-02   4.296378164805e-03   4.542914435286e-03
H        -0.0363509548       0.9496023146      -0.1879840720   6.508177600833e-03   3.324551783002e-04  -3.614888778999e-04
H         0.8532321154      -0.5181243385      -0.1946132651  -3.072842210687e-02   2.272220121261e-02   8.148609616689e-03
H        -0.7876230405      -0.4382276848      -0.1855119927  -4.276910812976e-02  -2.734353371422e-02  -1.233369651682e-02
4
Properties=species:S:1:pos:R:3:forces:R:3 energy=-7.660884557138e+01 dipole="5.7703088437e-02 -8.6470353731e-02 -3.5070730352e-01" quadrupole="-1.6030544482e+00 -3.1394700752e-01 -1.7411757492e-02 -3.1394700752e-01 -1.8134709357e+00 6.2528258496e-02 -1.7411757492e-02 6.2528258496e-02 -4.8650644657e+00" polarizability="7.2709511786e+00 -3.1828098904e-01 -5.1300069614e-02 -3.1828098904e-01 6.8981263017e+00 7.3773697142e-02 -5.1300069614e-02 7.3773697142e-02 5.5845534230e+00" charge=1 multiplicity=1 method=wB97M-V basis=def2-svpd config_type=h3o+ sample_index=140 temperature=300.0 units=atomic
O        -0.0010527953       0.0048802880       0.0463587836   5.139195581686e-02  -6.413170137219e-02   6.949060189606e-03
H        -0.0400739572       0.9273433546      -0.1067413950   5.429786991455e-03   4.537154830964e-02  -9.388222318414e-03
H         0.8794286139      -0.5385821939      -0.1287108426  -4.090891372213e-02   3.044049844144e-02   6.272486107085e-03
H        -0.8225097920      -0.4594007246      -0.1234824243  -1.591175207265e-02  -1.168033418735e-02  -3.828670392368e-03
4
Properties=species:S:1:pos:R:3:forces:R:3 energy=-7.659834230052e+01 dipole="-1.8306799221e-01 1.5979808653e-01 -6.9716172542e-01" quadrupole="-1.2990209056e+00 -7.9042273076e-02 2.1376542851e-01 -7.9042273076e-02 -2.5530246673e+00 -2.4695241771e-01 2.1376542851e-01 -2.4695241771e-01 -4.5423243058e+00" polarizability="7.6757806391e+00 1.3716222858e-01 2.7663194374e-01 1.3716222858e-01 6.9809535213e+00 -2.0660694771e-01 2.7663194374e-01 -2.0660694771e-01 5.8981552547e+00" charge=1 multiplicity=1 method=wB97M-V basis=def2-svpd config_type=h3o+ sample_index=141 temperature=300.0 units=atomic
O         0.0111161983      -0.0140792512       0.0711957677  -1.101949381531e-01   5.406792736239e-02  -9.102712619993e-03
H        -0.0670699350       0.9147555813      -0.2941470826   1.352770421190e-02  -5.099963272141e-03   1.489410055838e-02
H         0.8367483833      -0.3474392559      -0.2036988787   4.050075363518e-02  -3.712532801843e-02  -2.186717854175e-02
H        -0.9475587584      -0.3338749912      -0.2592003162   5.616769193930e-02  -1.184244931751e-02   1.607937292477e-02
4
Properties=species:S:1:pos:R:3:forces:R:3 energy=-7.661285725838e+01 dipole="4.1795677868e-03 1.3663692355e-02 -6.1646655940e-01" quadrupole="-1.9382709527e+00 -1.4998749106e-01 1.4201598724e-02 -1.4998749106e-01 -2.1002712337e+00 -2.4923283373e-02 1.4201598724e-02 -2.4923283373e-02 -4.5527443834e+00" polarizability="6.7011232746e+00 -1.2655809810e-01 -1.0507363346e-02 -1.2655809810e-01 6.6085433783e+00 -1.6222754550e-02 -1.0507363346e-02 -1.6222754550e-02 5.5285137457e+00" charge=1 multiplicity=1 method=wB97M-V basis=def2-svpd config_type=h3o+ sample_index=142 temperature=300.0 units=atomic
O         0.0008188073      -0.0010387209       0.0654379063   1.977804993166e-02   1.621956694595e-03   1.600942892416e-02
H        -0.0283955950       0.9084224465      -0.2257975288   5.253070812902e-03   2.779164639319e-02  -4.880429224836e-03
H         0.8096160358      -0.4627539009      -0.2173710297   6.804752498274e-03  -4.714691198975e-03  -2.067536733601e-03
H        -0.7943275815      -0.4211019792      -0.2214743656  -3.183307026733e-02  -2.469082224826e-02  -9.065898828395e-03
4
Properties=species:S:1:pos:R:3:forces:R:3 energy=-7.659593952198e+01 dipole="-6.8596534685e-02 -6.7138478875e-02 -7.0297111119e-01" quadrupole="-1.8866962703e+00 -6.3383619256e-01 1.4946113951e-01 -6.3383619256e-01 -1.3921960728e+00 1.0072920699e-01 1.4946113951e-01 1.0072920699e-01 -4.6957522570e+00" polarizability="8.3071185458e+00 -5.3235990715e-01 9.8418109902e-02 -5.3235990715e-01 8.6352468142e+00 9.4143514254e-02 9.8418109902e-02 9.4143514254e-02 6.3486495059e+00" charge=1 multiplicity=1 method=wB97M-V basis=def2-svpd config_type=h3o+ sample_index=143 temperature=300.0 units=atomic
O         0.0086001324       0.0060920150       0.0717496170  -1.432936346048e-02  -1.861231425130e-02  -4.670106492978e-02
H        -0.1364342038       1.0097250476      -0.2389415559   2.570073312266e-02  -4.860726282955e-02   1.218091891441e-02
H         0.8386507951      -0.6281388949      -0.2418202604  -4.250576117092e-02   5.235326996489e-02   1.507048519626e-02
H        -0.8398463027      -0.4711107973      -0.2848133759   3.113778848569e-02   1.486614643587e-02   1.944954445824e-02
4
Properties=species:S:1:pos:R:3:forces:R:3 energy=-7.660813466273e+01 dipole="-1.4137063997e-03 1.1652765711e-01 -5.6412465418e-01" quadrupole="-1.7701321281e+00 -3.2826519559e-02 5.7739391280e-03 -3.2826519559e-02 -2.2718668697e+00 -1.5136407372e-01 5.7739391280e-03 -1.5136407372e-01 -4.5846591735e+00" polarizability="6.5346216449e+00 -2.3613715922e-02 1.6720343802e-03 -2.3613715922e-02 6.4642047831e+00 -1.3961172951e-01 1.6720343802e-03 -1.3961172951e-01 5.4344667977e+00" charge=1 multiplicity=1 method=wB97M-V basis=def2-svpd config_type=h3o+ sample_index=144 temperature=300.0 units=atomic
O         0.0003218397      -0.0092201223       0.0615527297   3.071676827067e-03   5.553954759561e-02   2.640194585050e-02
H        -0.0069713182       0.9167311234      -0.2286101423   1.524860939773e-03   1.486542888172e-02   2.607203871330e-03
H         0.8210065522      -0.3852015649      -0.1861382076   3.588569472191e-02  -3.342019321666e-02  -1.401732604239e-02
H        -0.8191865319      -0.3760917340      -0.1877480908  -4.048336764340e-02  -3.698292673508e-02  -1.498988595227e-02
4
Properties=species:S:1:pos:R:3:forces:R:3 energy=-7.660513043728e+01 dipole="6.7859002283e-02 2.9702808293e-02 -5.1420561705e-01" quadrupole="-1.6957825463e+00 3.2645843930e-02 -7.2944644452e-02 3.2645843930e-02 -1.3985032504e+00 -1.2505659023e-02 -7.2944644452e-02 -1.2505659023e-02 -4.8836234934e+00" polarizability="7.9722845739e+00 -7.3884558135e-02 -8.7389219537e-02 -7.3884558135e-02 8.3218619457e+00 -3.3340387342e-02 -8.7389219537e-02 -3.3340387342e-02 6.0567465862e+00" charge=1 multiplicity=1 method=wB97M-V basis=def2-svpd config_type=h3o+ sample_index=145 temperature=300.0 units=atomic
O        -0.0044319483      -0.0002190960       0.0578815665   3.222302891255e-02   1.694452864660e-02  -2.451376771375e-02
H         0.0278566074       1.0400340433      -0.1829967530  -6.060135962981e-03  -5.894357372821e-02   1.072537610710e-02
H         0.8828269620      -0.5107656026      -0.1913001192  -4.425861278626e-02   2.549122864896e-02   1.135118108269e-02
H        -0.8397634407      -0.5181083451      -0.1691709329   1.809221199881e-02   1.651046436167e-02   2.439546857590e-03
4
Properties=species:S:1:pos:R:3:forces:R:3 energy=-7.661173955596e+01 dipole="5.9998029083e-02 -5.6188807527e-03 -5.2288768245e-01" quadrupole="-1.4421870203e+00 2.7219760376e-03 -6.2332018024e-02 2.7219760376e-03 -2.0388297858e+00 -2.5366851361e-02 -6.2332018024e-02 -2.5366851361e-02 -4.7750329530e+00" polarizability="7.6949447459e+00 -7.9814790944e-02 -7.6924885917e-02 -7.9814790944e-02 7.1366687394e+00 1.6188415861e-02 -7.6924885917e-02 1.6188415861e-02 5.7870542943e+00" charge=1 multiplicity=1 method=wB97M-V basis=def2-svpd config_type=h3o+ sample_index=146 temperature=300.0 units=atomic
O        -0.0036998896      -0.0011834000       0.0585299066   3.110942181087e-02  -2.321944524959e-02  -8.447743363227e-03
H         0.0200551437       0.9370583212      -0.1892682355  -3.607131029278e-03   9.640236334051e-03  -1.378108498989e-03
H         0.8992729812      -0.4548891205      -0.1915888389  -4.281239295516e-02   1.164653422617e-02   9.379210138348e-03
H        -0.8601232167      -0.4554724588      -0.1731166943   1.530794624567e-02   1.938843684372e-03   4.442877854958e-04
4
Properties=species:S:1:pos:R:3:forces:R:3 energy=-7.661350520859e+01 dipole="-3.8166812704e-02 6.1218017356e-02 -4.9008209136e-01" quadrupole="-1.7214228844e+00 -2.4100680522e-02 3.9880627978e-02 -2.4100680522e-02 -2.0456219209e+00 -7.8475364435e-02 3.9880627978e-02 -7.8475364435e-02 -4.7125203631e+00" polarizability="6.8426159099e+00 2.7493980061e-02 4.2779445270e-02 2.7493980061e-02 6.7465702575e+00 -6.6375963255e-02 4.2779445270e-02 -6.6375963255e-02 5.5240457180e+00" charge=1 multiplicity=1 method=wB97M-V basis=def2-svpd config_type=h3o+ sample_index=147 temperature=300.0 units=atomic
O         0.0025410283      -0.0047175859       0.0562129628  -2.715421267323e-02   2.720392107880e-02   1.161485821604e-02
H        -0.0168206334       0.9392381289      -0.1870804348   3.302476092066e-03   6.427578115850e-03   6.410621303601e-04
H         0.8207656117      -0.4308502196      -0.1585589283   2.558923382684e-02  -2.126446631410e-02  -9.773529820052e-03
H        -0.8446045237      -0.4251683032      -0.1712463136  -1.739597253799e-03  -1.235725827780e-02  -2.485864491957e-03
4
Properties=species:S:1:pos:R:3:forces:R:3 energy=-7.660404155573e+01 dipole="9.2570256619e-02 5.5792435629e-02 -6.9619014534e-01" quadrupole="-2.2308084004e+00 -2.4093333427e-01 -8.0994749826e-02 -2.4093333427e-01 -1.6333244846e+00 -2.7142404935e-02 -8.0994749826e-02 -2.7142404935e-02 -4.5306387886e+00" polarizability="6.8797093384e+00 -3.7190133481e-01 -1.6728101999e-01 -3.7190133481e-01 7.5604578344e+00 -9.6320143203e-02 -1.6728101999e-01 -9.6320143203e-02 5.8246922074e+00" charge=1 multiplicity=1 method=wB97M-V basis=def2-svpd config_type=h3o+ sample_index=148 temperature=300.0 units=atomic
O        -0.0047397339      -0.0010322687       0.0712021520   9.737615307000e-02   6.353450414088e-02  -5.157220351348e-04
H        -0.0135359927       0.9927615779      -0.2565704443   2.382335979127e-03  -4.307443352460e-02   1.459486432422e-02
H         0.8159687495      -0.5177387522      -0.2619775893  -2.035983432893e-02   2.167171103974e-02   1.331654466970e-02
H        -0.7265981108      -0.4504967612      -0.2383403515  -7.940004398229e-02  -4.212672775589e-02  -2.740033033543e-02
4
Properties=species:S:1:pos:R:3:forces:R:3 energy=-7.660494388020e+01 dipole="-4.3047110638e-02 7.9769031483e-02 -1.4805367736e-01" quadrupole="-1.0404854084e+00 3.6494279236e-01 -1.0876453855e-02 3.6494279236e-01 -1.9004707221e+00 -9.5550706833e-02 -1.0876453855e-02 -9.5550706833e-02 -5.0490580689e+00" polarizability="7.9717073299e+00 3.3109741087e-01 2.9807567835e-03 3.3109741087e-01 7.4863984167e+00 -6.1220735266e-02 2.9807567835e-03 -6.1220735266e-02 5.7805464433e+00" charge=1 multiplicity=1 method=wB97M-V basis=def2-svpd config_type=h3o+ sample_index=149 temperature=300.0 units=atomic
O        -0.0004858477      -0.0079790289       0.0326706930  -3.260667616942e-02   2.422139826651e-02  -3.140334792984e-03
H         0.0531311386       0.9967029012      -0.0706136836  -1.109005310527e-02  -2.671628500234e-02   2.837978276089e-03
H         0.9049576670      -0.3871331651      -0.0358032576  -1.255165504136e-02  -1.554192469229e-02  -8.437133478011e-04
H        -0.9502987332      -0.4747321128      -0.0333430643   5.625013538649e-02   1.803675040521e-02   1.154708264027e-03
4
Properties=species:S:1:pos:R:3:forces:R:3 energy=-7.659317501388e+01 dipole="-1.9859102227e-01 1.5142398299e-01 -4.4458719084e-01" quadrupole="-1.4331200888e+00 -2.6899934250e-01 2.1418649094e-01 -2.6899934250e-01 -1.4308426236e+00 -1.4635787871e-01 2.1418649094e-01 -1.4635787871e-01 -4.9686438735e+00" polarizability="8.1853977879e+00 1.2726250390e-02 2.2007332648e-01 1.2726250390e-02 8.6130852591e+00 -1.7431164201e-01 2.2007332648e-01 -1.7431164201e-01 6.1126231769e+00" charge=1 multiplicity=1 method=wB97M-V basis=def2-svpd config_type=h3o+ sample_index=150 temperature=300.0 units=atomic
O         0.0133385555      -0.0084124424       0.0527631821  -9.261317655570e-02   6.560945058397e-02  -1.997522563011e-02
H        -0.1045352901       1.0787752137      -0.1792412263   2.337962972281e-02  -7.640507879715e-02   1.533694021075e-02
H         0.8369595099      -0.4972892554      -0.1078431392   5.972838216366e-03  -1.914732662737e-03  -8.131859796212e-03
H        -0.9458624242      -0.4393176376      -0.1744544606   6.326123891129e-02   1.270910804834e-02   1.277141040553e-02
4
Properties=species:S:1:pos:R:3:forces:R:3 energy=-7.659146085054e+01 dipole="-1.1260429408e-01 1.3364053065e-01 -4.8872044705e-01" quadrupole="-2.2924768568e+00 -8.3645628721e-02 1.1270169697e-01 -8.3645628721e-02 -1.6285296763e+00 -8.9823833507e-02 1.1270169697e-01 -8.9823833507e-02 -4.6384662900e+00" polarizability="6.0074053541e+00 6.6672324254e-02 1.1241206271e-01 6.6672324254e-02 6.8080851840e+00 -1.5445169600e-01 1.1241206271e-01 -1.5445169600e-01 5.3484505248e+00" charge=1 multiplicity=1 method=wB97M-V basis=def2-svpd config_type=h3o+ sample_index=151 temperature=300.0 units=atomic
O         0.0078243329      -0.0052951089       0.0559168055  -1.164119552396e-01   1.510858046090e-01   4.609591599436e-02
H        -0.0523442666       0.9926907531      -0.1871642135   1.187644887295e-02  -3.520379722041e-02   8.253007618466e-03
H         0.7041597724      -0.4593610872      -0.1429192334   1.540574455845e-01  -8.749342922285e-02  -4.313975043270e-02
H        -0.7770173124      -0.4409119052      -0.1819882461  -4.952147669674e-02  -2.838501361692e-02  -1.121136591171e-02
4
Properties=species:S:1:pos:R:3:forces:R:3 energy=-7.661172927356e+01 dipole="-9.2254782735e-02 -6.6670758507e-02 -4.5485398348e-01" quadrupole="-1.8647208788e+00 5.4991958114e-02 8.5535042749e-02 5.4991958114e-02 -1.6278437130e+00 7.9198955048e-02 8.5535042749e-02 7.9198955048e-02 -4.8077478135e+00" polarizability="7.2114083669e+00 1.8574439576e-01 1.0872570757e-01 1.8574439576e-01 7.2204934924e+00 7.7684885570e-02 1.0872570757e-01 7.7684885570e-02 5.6777163670e+00" charge=1 multiplicity=1 method=wB97M-V basis=def2-svpd config_type=h3o+ sample_index=152 temperature=300.0 units=atomic
O         0.0056049014       0.0055035562       0.0536625098  -5.762495098411e-02  -2.980470588756e-02  -2.134319661991e-04
H        -0.0222801214       0.9571773980      -0.1439802461   4.158252687624e-03   5.820311610981e-03  -4.466738941760e-03
H         0.7878916784      -0.5122468722      -0.1519664758   2.042697952969e-02  -2.039747577938e-03  -5.373853111579e-03
H        -0.8552953669      -0.5254038471      -0.1799432833   3.303796252075e-02   2.602176637238e-02   1.005991791278e-02
4
Properties=species:S:1:pos:R:3:forces:R:3 energy=-7.660427846285e+01 dipole="9.9518381196e-02 -7.0287057267e-02 -3.8154542507e-01" quadrupole="-1.6452458903e+00 -2.6820684561e-01 -6.6692822689e-02 -2.6820684561e-01 -1.3603243885e+00 8.0489194384e-02 -6.6692822689e-02 8.0489194384e-02 -4.9662525607e+00" polarizability="7.9172053709e+00 -3.9567393856e-01 -1.0564521045e-01 -3.9567393856e-01 7.9838094652e+00 7.6899852419e-02 -1.0564521045e-01 7.6899852419e-02 5.9144042315e+00" charge=1 multiplicity=1 method=wB97M-V basis=def2-svpd config_type=h3o+ sample_index=153 temperature=300.0 units=atomic
O        -0.0043203811       0.0055856456       0.0484932022   5.513538043093e-02  -2.140266058173e-02  -1.150919598636e-02
H        -0.0135010565       1.0075459644      -0.1160914532   1.445515165259e-03  -3.046458507553e-02   1.058792345101e-03
H         0.9027904376      -0.5764019754      -0.1492475182  -5.668201513028e-02   4.435237055484e-02   1.131563756847e-02
H        -0.8201570344      -0.5130937601      -0.1277003669   1.013013013247e-04   7.512090489519e-03  -8.563395233576e-04
4
Properties=species:S:1:pos:R:3:forces:R:3 energy=-7.660478921293e+01 dipole="8.8442023908e-02 1.8646920055e-02 -5.4964379958e-01" quadrupole="-2.2931755148e+00 -1.7168156893e-01 -7.5877815960e-02 -1.7168156893e-01 -1.3047329247e+00 4.5063530216e-02 -7.5877815960e-02 4.5063530216e-02 -4.7147306688e+00" polarizability="6.8084912447e+00 -3.0259623514e-01 -1.2800213120e-01 -3.0259623514e-01 7.6481248034e+00 -1.3677061780e-02 -1.2800213120e-01 -1.3677061780e-02 5.7215428455e+00" charge=1 multiplicity=1 method=wB97M-V basis=def2-svpd config_type=h3o+ sample_index=154 temperature=300.0 units=atomic
O        -0.0049242156       0.0031233542       0.0604021160   8.512187943875e-02   4.971495764166e-02   3.793936901461e-03
H        -0.0004159106       1.0157308111      -0.1868594108  -8.846071032067e-04  -4.537661861729e-02   6.661328210582e-03
H         0.8018965145      -0.5521000736      -0.2107569142  -1.234139066734e-02   2.599817068295e-02   9.022114061340e-03
H        -0.7226890378      -0.5058936504      -0.1861904355  -7.189249414536e-02  -3.034433608374e-02  -1.948284250772e-02
4
Properties=species:S:1:pos:R:3:forces:R:3 energy=-7.657054263817e+01 dipole="5.6684147687e-02 1.3044570583e-01 -4.5818611065e-01" quadrupole="-2.1243956374e+00 4.3243053658e-01 -1.0186001854e-01 4.3243053658e-01 -2.1627687906e+00 -1.3126394457e-01 -1.0186001854e-01 -1.3126394457e-01 -4.5349518783e+00" polarizability="5.5428546819e+00 2.6027728479e-01 -3.3699818894e-02 2.6027728479e-01 5.8730353823e+00 -1.4800228708e-01 -3.3699818894e-02 -1.4800228708e-01 5.0255054436e+00" charge=1 multiplicity=1 method=wB97M-V basis=def2-svpd config_type=h3o+ sample_index=155 temperature=300.0 units=atomic
O        -0.0064446697      -0.0087543887       0.0538070705  -5.523801646333e-02   1.362116479970e-01   8.952953050019e-02
H         0.1079698033       0.9017577139      -0.1858853884  -2.244801735451e-02   4.127515919138e-02  -4.222541356991e-03
H         0.7416370198      -0.3131661744      -0.1623719342   1.932448389504e-01  -1.111572618774e-01  -5.226998930688e-02
H        -0.7464717880      -0.4407699376      -0.1301510540  -1.155579683013e-01  -6.633338126122e-02  -3.303581460179e-02
4
Properties=species:S:1:pos:R:3:forces:R:3 energy=-7.660284164100e+01 dipole="5.5810544794e-02 7.2238730636e-02 -4.8105723214e-01" quadrupole="-2.1333791513e+00 5.4824280357e-01 -1.0781222778e-01 5.4824280357e-01 -1.5782051023e+00 -4.5585006957e-02 -1.0781222778e-01 -4.5585006957e-02 -4.7190126189e+00" polarizability="6.4933528744e+00 4.1420522689e-01 -3.3067425798e-02 4.1420522689e-01 7.1558048219e+00 -1.0131050106e-01 -3.3067425798e-02 -1.0131050106e-01 5.5228442404e+00" charge=1 multiplicity=1 method=wB97M-V basis=def2-svpd config_type=h3o+ sample_index=156 temperature=300.0 units=atomic
O        -0.0068772154      -0.0021647096       0.0555210228  -3.674516850938e-02   7.881014473327e-02   2.053825141985e-02
H         0.1211778913       0.9913999569      -0.1760191923  -2.465156550073e-02  -3.162017619364e-02   6.781874430438e-03
H         0.7659214966      -0.4013012989      -0.1820358256   8.052347921818e-02  -5.086904454372e-02  -2.037931341731e-02
H        -0.7770411909      -0.5478019146      -0.1476487983  -1.912722114286e-02   3.677112805125e-03  -6.938773851622e-03
4
Properties=species:S:1:pos:R:3:forces:R:3 energy=-7.660286784808e+01 dipole="1.2016634504e-02 1.0522486821e-01 -6.2934620340e-01" quadrupole="-1.2289127101e+00 -4.9733441971e-01 5.7659556365e-02 -4.9733441971e-01 -2.3033623985e+00 -1.7901839698e-01 5.7659556365e-02 -1.7901839698e-01 -4.6890014307e+00" polarizability="7.9974155716e+00 -4.2661426232e-01 8.7681654266e-03 -4.2661426232e-01 7.3638739427e+00 -1.4899043025e-01 8.7681654266e-03 -1.4899043025e-01 5.9718168093e+00" charge=1 multiplicity=1 method=wB97M-V basis=def2-svpd config_type=h3o+ sample_index=157 temperature=300.0 units=atomic
O         0.0030480186      -0.0102888268       0.0662766039   2.248043570647e-02   3.006829804910e-02  -2.041726949695e-02
H        -0.0897358727       0.9448201705      -0.2569157246   2.031332493131e-02  -1.633469086165e-02   1.314337281896e-02
H         0.9275397740      -0.4497851157      -0.2029979030  -5.254134613552e-02   1.417704499781e-02   6.893350236180e-03
H        -0.8865876368      -0.3224092674      -0.2182605910   9.741538052731e-03  -2.791198632273e-02   3.842407059000e-04
4
Properties=species:S:1:pos:R:3:forces:R:3 energy=-7.659926334271e+01 dipole="1.9198412119e-01 1.1285473583e-02 9.2140835974e-02" quadrupole="-1.4931184259e+00 -1.2002003090e-01 -9.6121548885e-02 -1.2002003090e-01 -1.2499115563e+00 7.4103867457e-03 -9.6121548885e-02 7.4103867457e-03 -5.0897037171e+00" polarizability="7.9049412073e+00 -3.6618924452e-01 -4.6740744108e-02 -3.6618924452e-01 8.1040455236e+00 1.4462434106e-02 -4.6740744108e-02 1.4462434106e-02 5.8548016514e+00" charge=1 multiplicity=1 method=wB97M-V basis=def2-svpd config_type=h3o+ sample_index=158 temperature=300.0 units=atomic
O        -0.0109059736       0.0008592220       0.0165264884   9.950166086082e-02   2.366697127694e-02  -2.302573301733e-03
H         0.0417138424       1.0474655768       0.0411611536  -9.419256038070e-03  -5.243577726721e-02  -4.165760222873e-04
H         0.9438779110      -0.5414808198       0.0117111098  -6.582215842411e-02   3.651942369084e-02   6.160205643881e-04
H        -0.8110674810      -0.5130390486       0.0661513714  -2.426266999510e-02  -7.748720901382e-03   2.106982445959e-03
4
Properties=species:S:1:pos:R:3:forces:R:3 energy=-7.661070638058e+01 dipole="-2.3176607291e-02 -1.1615654906e-01 -3.8968060961e-01" quadrupole="-1.8731547999e+00 -2.7143425633e-01 4.8597731436e-02 -2.7143425633e-01 -1.4958027406e+00 1.2381116668e-01 4.8597731436e-02 1.2381116668e-01 -4.8733902607e+00" polarizability="7.2980924424e+00 -1.8948575097e-01 2.1718216076e-02 -1.8948575097e-01 7.3254161129e+00 1.1154882128e-01 2.1718216076e-02 1.1154882128e-01 5.6912614970e+00" charge=1 multiplicity=1 method=wB97M-V basis=def2-svpd config_type=h3o+ sample_index=159 temperature=300.0 units=atomic
O         0.0036247083       0.0088361532       0.0491229427   3.405647654694e-03  -5.998116083072e-02  -2.090116898696e-03
H        -0.0592236270       0.9577569748      -0.1101088708   8.731162779343e-03   1.391649770863e-02  -6.558974395349e-03
H         0.8226413488      -0.5804239797      -0.1374506259  -2.056082018274e-02   3.339104823693e-02   4.533479096350e-03
H        -0.8214201212      -0.5112588719      -0.1555710813   8.418539620110e-03   1.266990867141e-02   4.123304228506e-03
4
Properties=species:S:1:pos:R:3:forces:R:3 energy=-7.660159347456e+01 dipole="1.8424186543e-01 1.4862395782e-02 6.7993068335e-03" quadrupole="-1.1020210079e+00 -1.6982118264e-01 -9.7479046633e-02 -1.6982118264e-01 -1.7463829729e+00 -2.9110739474e-02 -9.7479046633e-02 -2.9110739474e-02 -5.0689696208e+00" polarizability="8.0437991801e+00 -3.5412411861e-01 -6.2227993085e-02 -3.5412411861e-01 7.5145317275e+00 -8.0995531998e-03 -6.2227993085e-02 -8.0995531998e-03 5.7797778742e+00" charge=1 multiplicity=1 method=wB97M-V basis=def2-svpd config_type=h3o+ sample_index=160 temperature=300.0 units=atomic
O        -0.0094590452      -0.0028222150       0.0222052194   9.262093458591e-02   5.130179492801e-03  -2.572789685924e-03
H         0.0270313130       0.9940685223       0.0001879929  -5.703024991396e-03  -1.839141213491e-02   4.251999065424e-04
H         0.9813834245      -0.4912710016      -0.0097261568  -7.370896934060e-02   2.619143892512e-02   2.221733166893e-03
H        -0.8570461785      -0.4507469062       0.0374860476  -1.321268334865e-02  -1.292373747207e-02  -7.301759835190e-05
4
Properties=species:S:1:pos:R:3:forces:R:3 energy=-7.660787868807e+01 dipole="4.5334040675e-02 1.3294121628e-02 -6.3788073185e-01" quadrupole="-2.2861780679e+00 2.8623045367e-02 -5.3551336150e-02 2.8623045367e-02 -1.2863498452e+00 5.0229168674e-02 -5.3551336150e-02 5.0229168674e-02 -4.6701341918e+00" polarizability="7.1630296670e+00 -4.4993841356e-02 -6.6739979592e-02 -4.4993841356e-02 8.0492822068e+00 -1.1150455076e-02 -6.6739979592e-02 -1.1150455076e-02 5.9413638251e+00" charge=1 multiplicity=1 method=wB97M-V basis=def2-svpd config_type=h3o+ sample_index=161 temperature=300.0 units=atomic
O        -0.0031769634       0.0034656991       0.0669178898   2.558495294685e-02   2.532351186031e-02  -1.954454667937e-02
H         0.0209614493       1.0263342080      -0.2206942538  -4.389541624180e-03  -5.470146820341e-02   1.109625834702e-02
H         0.7890663359      -0.5334766191      -0.2416702593  -6.015637259742e-03   1.971604071279e-02   8.831724916969e-03
H        -0.7591927401      -0.5404612449      -0.2258079093  -1.517647107257e-02   9.660898046787e-03  -3.920941042040e-04
4
Properties=species:S:1:pos:R:3:forces:R:3 energy=-7.661009271625e+01 dipole="5.4639285166e-02 -1.1107135908e-02 -1.3871489171e-01" quadrupole="-1.4994121053e+00 2.3427028271e-01 -6.1234107660e-02 2.3427028271e-01 -1.4928229411e+00 7.5379398243e-03 -6.1234107660e-02 7.5379398243e-03 -5.0431466320e+00" polarizability="7.6552237765e+00 1.2009077478e-01 -4.0370530226e-02 1.2009077478e-01 7.6290258646e+00 6.0779140807e-03 -4.0370530226e-02 6.0779140807e-03 5.7496897376e+00" charge=1 multiplicity=1 method=wB97M-V basis=def2-svpd config_type=h3o+ sample_index=162 temperature=300.0 units=atomic
O        -0.0051626318       0.0011607362       0.0320172936   1.806834576003e-02  -5.235949778066e-03  -3.010504471158e-03
H         0.0600297626       1.0072304959      -0.0407806820  -1.143972515312e-02  -2.723636091609e-02   7.301738805455e-04
H         0.8857795497      -0.4811838617      -0.0570896964  -3.035238538659e-02   1.143067675976e-02   2.256745640569e-03
H        -0.8631858340      -0.5375395410      -0.0312929420   2.372076014144e-02   2.104283492921e-02   2.469692325807e-05
4
Properties=species:S:1:pos:R:3:forces:R:3 energy=-7.657719139188e+01 dipole="1.0798265672e-01 2.4338417220e-02 -7.7158759415e-01" quadrupole="-1.4643341480e+00 -1.1295115666e+00 1.1420825564e-02 -1.1295115666e+00 -1.9094646819e+00 -8.3909194586e-02 1.1420825564e-02 -8.3909194586e-02 -4.5625134613e+00" polarizability="8.3930905997e+00 -1.2549712588e+00 -1.8909768445e-01 -1.2549712588e+00 8.3266587516e+00 -1.1865899704e-01 -1.8909768445e-01 -1.1865899704e-01 6.3414456900e+00" charge=1 multiplicity=1 method=wB97M-V basis=def2-svpd config_type=h3o+ sample_index=163 temperature=300.0 units=atomic
O         0.0010025683      -0.0046134401       0.0765965031   8.983313834695e-02   4.190775195051e-02  -2.429721681761e-02
H        -0.1712769694       0.9774551495      -0.2957117447   3.710538436275e-02  -3.780151789259e-02   2.258135168869e-02
H         0.9533948705      -0.5915340518      -0.2712811287  -7.396584616629e-02   4.905312505583e-02   2.047943088109e-02
H        -0.7981862568      -0.3039367100      -0.2763912545  -5.297655874415e-02  -5.315575452451e-02  -1.876953023459e-02
4
Properties=species:S:1:pos:R:3:forces:R:3 energy=-7.660965513268e+01 dipole="3.8942038556e-02 4.6963130808e-02 -5.8318804899e-01" quadrupole="-1.7157010920e+00 4.2597329151e-01 -9.1486487058e-02 4.2597329151e-01 -1.7703866997e+00 -5.8290039511e-02 -9.1486487058e-02 -5.8290039511e-02 -4.7374116042e+00" polarizability="7.5483919899e+00 3.2900633999e-01 -5.0981326979e-02 3.2900633999e-01 7.6667713894e+00 -7.6187387114e-02 -5.0981326979e-02 -7.6187387114e-02 5.9033646625e+00" charge=1 multiplicity=1 method=wB97M-V basis=def2-svpd config_type=h3o+ sample_index=164 temperature=300.0 units=atomic
O        -0.0053251362      -0.0028276257       0.0629057340  -1.157957671188e-03   2.566948993067e-02  -1.760966968033e-02
H         0.0906250479       0.9889591167      -0.2173880811  -1.872799675147e-02  -3.629881961741e-02   1.097548875364e-02
H         0.8450177976      -0.4140001554      -0.2166330086  -6.875559169854e-03  -1.012775280078e-02   2.924380360123e-03
H        -0.8504247948      -0.5218831959      -0.1900086020   2.675565490461e-02   2.075559339364e-02   3.710789479318e-03
4
Properties=species:S:1:pos:R:3:forces:R:3 energy=-7.658997336213e+01 dipole="2.3337746730e-01 -1.9205354379e-01 -6.4266297955e-01" quadrupole="-1.6713323228e+00 2.3839720237e-01 -3.0944729100e-01 2.3839720237e-01 -2.0425014319e+00 1.9415568496e-01 -3.0944729100e-01 1.9415568496e-01 -4.6070520658e+00" polarizability="7.8324725311e+00 -2.1416705827e-01 -3.9259448485e-01 -2.1416705827e-01 6.8818914245e+00 2.9503664598e-01 -3.9259448485e-01 2.9503664598e-01 5.8563302310e+00" charge=1 multiplicity=1 method=wB97M-V basis=def2-svpd config_type=h3o+ sample_index=165 temperature=300.0 units=atomic
O        -0.0177064144       0.0122129757       0.0668479319   8.013254695265e-02  -1.444588769150e-01   8.894369034910e-03
H         0.1362356915       0.8535130308      -0.1951414018  -8.206190023499e-03   1.061702339705e-01  -3.371818019510e-02
H         0.9152370084      -0.4842175777      -0.2902117857  -6.210827522109e-02   2.489090415953e-02   3.016702784879e-02
H        -0.7681395489      -0.5567860377      -0.2017884239  -9.818888702940e-03   1.339039396212e-02  -5.344068254789e-03
4
Properties=species:S:1:pos:R:3:forces:R:3 energy=-7.660591795214e+01 dipole="-1.9674708371e-01 -6.4013553948e-02 -4.4092951654e-01" quadrupole="-1.8560625944e+00 -2.1041252879e-01 2.1304970019e-01 -2.1041252879e-01 -1.5867077847e+00 8.0911780016e-02 2.1304970019e-01 8.0911780016e-02 -4.8272008499e+00" polarizability="7.3227498677e+00 1.2133999939e-01 2.2172049967e-01 1.2133999939e-01 7.3065687751e+00 8.2417159239e-02 2.2172049967e-01 8.2417159239e-02 5.7199741952e+00" charge=1 multiplicity=1 method=wB97M-V basis=def2-svpd config_type=h3o+ sample_index=166 temperature=300.0 units=atomic
O         0.0143635404       0.0059810021       0.0526407059  -9.852876810356e-02  -1.825322202572e-02  -1.501181290833e-03
H        -0.1088237873       0.9609123946      -0.1371415903   1.892617805907e-02  -1.266160008337e-04  -3.238310217200e-03
H         0.7592394432      -0.5524957876      -0.1253209084   3.524775251064e-02  -4.561077078719e-03  -1.042599084366e-02
H        -0.8802559326      -0.4965592744      -0.1970493961   4.435313401424e-02   2.294112813694e-02   1.516943544813e-02
4
Properties=species:S:1:pos:R:3:forces:R:3 energy=-7.660776833366e+01 dipole="6.7160596940e-02 -1.1147428315e-01 -6.0037944710e-01" quadrupole="-2.1935260863e+00 -2.4548744360e-01 -5.1798859894e-02 -2.4548744360e-01 -1.4361611496e+00 1.6668996015e-01 -5.1798859894e-02 1.6668996015e-01 -4.6818565768e+00" polarizability="7.2023220650e+00 -3.4176511409e-01 -1.1709201498e-01 -3.4176511409e-01 7.5625472456e+00 1.5662852402e-01 -1.1709201498e-01 1.5662852402e-01 5.8268510806e+00" charge=1 multiplicity=1 method=wB97M-V basis=def2-svpd config_type=h3o+ sample_index=167 temperature=300.0 units=atomic
O        -0.0029071453       0.0098879554       0.0641142017   5.291530827245e-02  -3.687310313602e-02  -8.949524865882e-03
H        -0.0207997169       0.9638492452      -0.1872115324   2.780557608156e-03  -6.173092227175e-03  -3.713529206855e-03
H         0.8146107688      -0.5885882105      -0.2352643122  -2.840895569475e-02   4.238371239686e-02   1.596479644890e-02
H        -0.7472980525      -0.5256844106      -0.2207742084  -2.728636501281e-02   6.600609736507e-04  -3.307099775061e-03
4
Properties=species:S:1:pos:R:3:forces:R:3 energy=-7.661365884358e+01 dipole="6.1774742344e-03 5.9066585966e-02 -4.3467837227e-01" quadrupole="-1.9008942597e+00 7.6569241205e-03 -6.5491469567e-03 7.6569241205e-03 -1.6311750717e+00 -4.0968884004e-02 -6.5491469567e-03 -4.0968884004e-02 -4.8066709510e+00" polarizability="6.8945575465e+00 -1.6133751142e-03 -6.2518231697e-03 -1.6133751142e-03 7.2705245263e+00 -6.3510580624e-02 -6.2518231697e-03 -6.3510580624e-02 5.6149559410e+00" charge=1 multiplicity=1 method=wB97M-V basis=def2-svpd config_type=h3o+ sample_index=168 temperature=300.0 units=atomic
O        -0.0004408341      -0.0022476255       0.0522658081   3.849221024154e-03   4.531089302556e-02   3.400574940405e-03
H         0.0034308002       0.9955985756      -0.1588495877  -7.263329664468e-04  -3.166516824655e-02   5.299224495791e-03
H         0.8168233868      -0.4750902646      -0.1484588949   1.168829755730e-02  -6.247742652709e-03  -3.889481956174e-03
H        -0.8131973955      -0.4769643816      -0.1462567860  -1.481084685335e-02  -7.392360494413e-03  -4.805422740005e-03
4
Properties=species:S:1:pos:R:3:forces:R:3 energy=-7.660066810501e+01 dipole="-2.4943544403e-02 -5.6821213777e-02 -3.1331061668e-01" quadrupole="-1.1665044653e+00 3.0364037772e-01 -1.8345758177e-02 3.0364037772e-01 -2.2678269762e+00 -4.5998067891e-03 -1.8345758177e-02 -4.5998067891e-03 -4.8615543324e+00" polarizability="7.4759962854e+00 2.2857429544e-01 5.2029372462e-03 2.2857429544e-01 6.3994844094e+00 5.3769253877e-02 5.2029372462e-03 5.3769253877e-02 5.5119863468e+00" charge=1 multiplicity=1 method=wB97M-V basis=def2-svpd config_type=h3o+ sample_index=169 temperature=300.0 units=atomic
O        -0.0013460486       0.0003237525       0.0437752602  -2.815280000727e-02  -1.162605725766e-01   1.583070007513e-02
H         0.0519101562       0.8747608599      -0.1060735097  -5.630538705570e-03   1.146121418019e-01  -1.838132080684e-02
H         0.8853755475      -0.3974698918      -0.1091716602  -1.031780910885e-02  -1.464607588962e-02  -3.980875777736e-04
H        -0.9157358876      -0.4750070503      -0.1024217704   4.410220473459e-02   1.629186215127e-02   2.946804599930e-03
4
Properties=species:S:1:pos:R:3:forces:R:3 energy=-7.660006443463e+01 dipole="-7.3956762146e-02 -2.3119335819e-01 -3.0399074556e-01" quadrupole="-1.6729722242e+00 -6.1007571662e-02 7.3799734981e-02 -6.1007571662e-02 -1.5323298577e+00 1.9632465695e-01 7.3799734981e-02 1.9632465695e-01 -4.9348257253e+00" polarizability="7.6548891008e+00 8.0420784347e-02 7.6011458542e-02 8.0420784347e-02 7.2039824052e+00 1.8297829634e-01 7.6011458542e-02 1.8297829634e-01 5.7099412764e+00" charge=1 multiplicity=1 method=wB97M-V basis=def2-svpd config_type=h3o+ sample_index=170 temperature=300.0 units=atomic
O         0.0055222878       0.0148265005       0.0430509244  -2.730088966945e-02  -1.553707123611e-01  -6.836254789013e-04
H        -0.0400866047       0.9173684378      -0.0603918093   3.336455447209e-03   8.019121768376e-02  -1.374002435930e-02
H         0.8244650080      -0.5828814373      -0.1089363635  -2.049437699903e-02   3.487907665355e-02   4.026154438206e-03
H        -0.8727392866      -0.5644128172      -0.1365114542   4.445510025076e-02   4.030374934495e-02   1.040383991340e-02
4
Properties=species:S:1:pos:R:3:forces:R:3 energy=-7.660343391715e+01 dipole="-3.2018345824e-02 1.0203140469e-01 -4.1769513164e-01" quadrupole="-1.1659115052e+00 9.6346573984e-02 1.7508852839e-02 9.6346573984e-02 -1.7991440608e+00 -1.3003415568e-01 1.7508852839e-02 -1.3003415568e-01 -4.9686343895e+00" polarizability="8.2850298734e+00 1.2435128841e-01 2.8220102893e-02 1.2435128841e-01 8.0313715626e+00 -1.1950167074e-01 2.8220102893e-02 -1.1950167074e-01 6.0105689747e+00" charge=1 multiplicity=1 method=wB97M-V basis=def2-svpd config_type=h3o+ sample_index=171 temperature=300.0 units=atomic
O         0.0011282156      -0.0083003292       0.0510734647  -1.723624781396e-02   3.730239831144e-02  -1.881010540891e-02
H         0.0075303779       1.0249928542      -0.1698959639  -1.517060619523e-03  -5.321585439202e-02   1.159600579962e-02
H         0.9104953966      -0.4305707687      -0.1295066216  -3.428837643772e-02   2.449969817793e-03   1.804927343588e-03
H        -0.9360733220      -0.4540437333      -0.1351290899   5.304288296655e-02   1.346470685057e-02   5.404571526589e-03
4
Properties=species:S:1:pos:R:3:forces:R:3 energy=-7.661017051185e+01 dipole="-4.8211791171e-02 2.1601350946e-02 -3.8185515165e-01" quadrupole="-1.3507263430e+00 2.1246396647e-02 4.1516984469e-02 2.1246396647e-02 -1.7934431174e+00 -4.1808850912e-02 4.1516984469e-02 -4.1808850912e-02 -4.9384610835e+00" polarizability="7.8789143552e+00 8.1833628242e-02 4.7715585368e-02 8.1833628242e-02 7.5481732020e+00 -2.1913123703e-02 4.7715585368e-02 -2.1913123703e-02 5.8331406248e+00" charge=1 multiplicity=1 method=wB97M-V basis=def2-svpd config_type=h3o+ sample_index=172 temperature=300.0 units=atomic
O         0.0027293458      -0.0024937776       0.0485778495  -2.504908723450e-02   1.730043473364e-03  -1.020236253727e-02
H        -0.0114131666       0.9870191140      -0.1398343616   2.428153251735e-03  -2.350956149667e-02   3.650419318842e-03
H         0.8788024150      -0.4670931336      -0.1205305839  -2.294425906357e-02   6.264992079080e-03   6.337638975038e-04
H        -0.9110582501      -0.4725228298      -0.1341532145   4.556619059792e-02   1.551330842846e-02   5.917143589816e-03
4
Properties=species:S:1:pos:R:3:forces:R:3 energy=-7.660100274184e+01 dipole="-2.8842326761e-02 -7.1723423904e-03 -3.0021534445e-01" quadrupole="-9.9401318214e-01 -6.1004755677e-01 1.0073492962e-01 -6.1004755677e-01 -1.9810608544e+00 -4.6740508561e-02 1.0073492962e-01 -4.6740508561e-02 -5.0025485437e+00" polarizability="8.2803557244e+00 -4.3052927705e-01 6.3579080456e-02 -4.3052927705e-01 7.4145453137e+00 -9.1637116096e-03 6.3579080456e-02 -9.1637116096e-03 5.8515288296e+00" charge=1 multiplicity=1 method=wB97M-V basis=def2-svpd config_type=h3o+ sample_index=173 temperature=300.0 units=atomic
O         0.0068677127      -0.0027471237       0.0429836072  -2.645759945699e-03  -2.349445351883e-02  -6.284132979872e-03
H        -0.1208924790       0.9570452659      -0.1106648224   2.258017514266e-02   2.450836049246e-03   1.499221520568e-05
H         0.9382348151      -0.5258926857      -0.0799716812  -5.727530461418e-02   3.083617035572e-02   1.907553507035e-03
H        -0.9272410589      -0.3797985991      -0.1143089552   3.733940605230e-02  -9.792462842515e-03   4.361262104841e-03
4
Properties=species:S:1:pos:R:3:forces:R:3 energy=-7.659263755312e+01 dipole="-7.8166377726e-02 1.3755259738e-02 -4.4560080179e-01" quadrupole="-1.3182417531e+00 8.7993211563e-01 -3.9515210822e-02 8.7993211563e-01 -2.0841420628e+00 -6.8808394660e-02 -3.9515210822e-02 -6.8808394660e-02 -4.8084240072e+00" polarizability="7.4481234236e+00 7.6476050555e-01 5.1870229220e-02 7.6476050555e-01 7.0122949132e+00 -4.4341780431e-02 5.1870229220e-02 -4.4341780431e-02 5.6619058778e+00" charge=1 multiplicity=1 method=wB97M-V basis=def2-svpd config_type=h3o+ sample_index=174 temperature=300.0 units=atomic
O        -0.0023520578      -0.0044076417       0.0529315935  -1.037687500208e-01   9.250119872894e-03   1.347575583131e-02
H         0.1433443214       0.9284614344      -0.1686424700  -2.819751215263e-02   1.898276046130e-02  -6.981149025826e-04
H         0.8253662975      -0.3117763863      -0.1537611308   7.141559311830e-02  -6.238971958047e-02  -1.826451887323e-02
H        -0.9310546831      -0.5384953621      -0.1419354965   6.054791209172e-02   3.415335714518e-02   5.485674834131e-03
4
Properties=species:S:1:pos:R:3:forces:R:3 energy=-7.659290444811e+01 dipole="-1.9713401729e-01 -1.1242229791e-01 -6.1326473891e-01" quadrupole="-1.5262717453e+00 -8.2983013235e-01 3.2188202381e-01 -8.2983013235e-01 -1.8445396042e+00 9.1714612926e-02 3.2188202381e-01 9.1714612926e-02 -4.7458524432e+00" polarizability="8.3148584928e+00 -4.0486447758e-01 3.1852942725e-01 -4.0486447758e-01 7.6934023075e+00 1.3488836741e-01 3.1852942725e-01 1.3488836741e-01 6.1059631529e+00" charge=1 multiplicity=1 method=wB97M-V basis=def2-svpd config_type=h3o+ sample_index=175 temperature=300.0 units=atomic
O         0.0190442366       0.0068960922       0.0650450636  -5.900072306795e-02  -5.335101546406e-02  -2.523112898355e-02
H        -0.2243718554       0.9238370004      -0.2008071693   3.680365301168e-02   8.505671063720e-03  -1.878859454576e-03
H         0.8265615961      -0.6196425124      -0.1811485650  -3.064321878059e-02   4.308376943283e-02   2.520394855911e-03
H        -0.9069435443      -0.4066736317      -0.2763024881   5.283609213248e-02   1.757235815821e-03   2.458737532887e-02
4
Properties=species:S:1:pos:R:3:forces:R:3 energy=-7.657593066469e+01 dipole="1.7349851273e-01 -4.8640439962e-02 -3.7643502278e-01" quadrupole="-7.5584686830e-01 9.6352965156e-02 -1.7779018683e-01 9.6352965156e-02 -1.4161639016e+00 1.6233434568e-02 -1.7779018683e-01 1.6233434568e-02 -5.1570824558e+00" polarizability="1.0047126461e+01 -1.9884710246e-01 -2.1516004646e-01 -1.9884710246e-01 9.1521029694e+00 5.3735325469e-02 -2.1516004646e-01 5.3735325469e-02 6.4529674392e+00" charge=1 multiplicity=1 method=wB97M-V basis=def2-svpd config_type=h3o+ sample_index=176 temperature=300.0 units=atomic
O        -0.0109150361       0.0014075010       0.0480948066   4.731960441932e-02  -1.257668197665e-02  -2.594902082201e-02
H         0.0711781112       1.0509397015      -0.1259708734  -1.491355428780e-02  -6.020923838910e-02   7.087410715902e-03
H         1.0360313451      -0.5217573547      -0.1576115536  -9.024609923622e-02   3.658577415629e-02   1.483906313419e-02
H        -0.9325448828      -0.5442999614      -0.1031091730   5.784270600141e-02   3.619960850116e-02   4.020755826099e-03
4
Properties=species:S:1:pos:R:3:forces:R:3 energy=-7.659372322099e+01 dipole="1.6926235558e-01 1.6250215553e-01 -4.5912840939e-01" quadrupole="-9.4203893619e-01 4.5425401149e-01 -2.1842785350e-01 4.5425401149e-01 -2.0493476675e+00 -2.1426050238e-01 -2.1842785350e-01 -2.1426050238e-01 -4.9406668516e+00" polarizability="8.5382433662e+00 1.9495747545e-01 -2.1238278988e-01 1.9495747545e-01 7.9923408937e+00 -1.9658373763e-01 -2.1238278988e-01 -1.9658373763e-01 6.0879972242e+00" charge=1 multiplicity=1 method=wB97M-V basis=def2-svpd config_type=h3o+ sample_index=177 temperature=300.0 units=atomic
O        -0.0126899470      -0.0133834325       0.0539279995   6.945171119250e-02   5.715263194686e-02  -2.163007606294e-02
H         0.1273688456       1.0120167253      -0.1998064322  -2.897694528521e-02  -5.157863663741e-02   1.560280200407e-02
H         0.9829121034      -0.3433275761      -0.1719611597  -6.581292907015e-02  -8.859994599195e-03   1.127176912404e-02
H        -0.9072116255      -0.4468654069      -0.1085686550   2.533434441612e-02   3.282591419868e-03  -5.248366788760e-03
4
Properties=species:S:1:pos:R:3:forces:R:3 energy=-7.661526911519e+01 dipole="3.1588658454e-02 -1.3002711038e-02 -5.6593090467e-01" quadrupole="-1.8923539288e+00 9.3835896893e-02 -4.4579170783e-02 9.3835896893e-02 -1.8755709736e+00 1.4858852855e-02 -4.4579170783e-02 1.4858852855e-02 -4.6703863048e+00" polarizability="7.0244149105e+00 3.3489400745e-02 -4.0364639978e-02 3.3489400745e-02 6.9990315506e+00 1.7857002301e-02 -4.0364639978e-02 1.7857002301e-02 5.6520206779e+00" charge=1 multiplicity=1 method=wB97M-V basis=def2-svpd config_type=h3o+ sample_index=178 temperature=300.0 units=atomic
O        -0.0027208178       0.0013722499       0.0616959563   1.308587653969e-02  -8.273853179077e-03   6.014308900890e-04
H         0.0288353664       0.9398062668      -0.1988348524  -5.224911958232e-03   6.498986842032e-03  -1.761688691506e-03
H         0.8230810788      -0.4645509592      -0.2097004083  -3.591150628059e-03   5.929388379067e-05   2.710498117096e-03
H        -0.8083777535      -0.4893961135      -0.1961081112  -4.270463827959e-03   1.722606261204e-03  -1.556183268550e-03
4
Properties=species:S:1:pos:R:3:forces:R:3 energy=-7.657805580873e+01 dipole="-1.6141159133e-01 6.6396006624e-02 -7.6288865285e-02" quadrupole="-1.8207939705e+00 1.1098090053e-01 1.0101253793e-01 1.1098090053e-01 -3.1792273179e-01 3.5561264033e-02 1.0101253793e-01 3.5561264033e-02 -5.2248714028e+00" polarizability="8.4103068744e+00 3.9182555113e-01 9.0738043080e-02 3.9182555113e-01 9.8554606146e+00 2.3907136950e-02 9.0738043080e-02 2.3907136950e-02 6.2116033851e+00" charge=1 multiplicity=1 method=wB97M-V basis=def2-svpd config_type=h3o+ sample_index=179 temperature=300.0 units=atomic
O         0.0093977412       0.0029464154       0.0278003499  -7.216873098780e-02   2.197482975497e-02  -6.107347473088e-03
H        -0.0349577906       1.1663376845      -0.0130507979   8.364700236794e-03  -9.488816251943e-02   1.730936489999e-03
H         0.7988857085      -0.5902129958      -0.0007344643   2.145653822354e-03   1.949710592704e-02  -5.482637782126e-04
H        -0.9142928878      -0.6164314054      -0.0476398682   6.165925219041e-02   5.340983459297e-02   4.919446967688e-03
4
Properties=species:S:1:pos:R:3:forces:R:3 energy=-7.660753043935e+01 dipole="1.4138406915e-01 -7.5809456409e-02 -5.7772137253e-01" quadrupole="-2.0788415992e+00 4.4359386073e-02 -1.5886143821e-01 4.4359386073e-02 -1.8209718493e+00 9.8989419430e-02 -1.5886143821e-01 9.8989419430e-02 -4.6165158781e+00" polarizability="6.8097553498e+00 -1.7855686017e-01 -1.9548228345e-01 -1.7855686017e-01 6.7880108767e+00 1.0553255653e-01 -1.9548228345e-01 1.0553255653e-01 5.5719306621e+00" charge=1 multiplicity=1 method=wB97M-V basis=def2-svpd config_type=h3o+ sample_index=180 temperature=300.0 units=atomic
O        -0.0098391763       0.0064500014       0.0624564744   8.979301353276e-02  -3.300632653417e-02   1.520424706189e-02
H         0.0603768177       0.9139057181      -0.1882757343  -8.938881944188e-03   3.724024718035e-02  -1.207704860588e-02
H         0.8311640837      -0.4977652928      -0.2388176632  -2.329280202504e-02   1.773890983030e-02   1.427931528510e-02
H        -0.7340989288      -0.5115252060      -0.1896920226  -5.756174777459e-02  -2.197819787036e-02  -1.741251332049e-02
4
Properties=species:S:1:pos:R:3:forces:R:3 energy=-7.658237252018e+01 dipole="-2.2488175288e-01 -1.5589788942e-01 -6.1130892156e-01" quadrupole="-1.8665180083e+00 -2.5355341207e-02 2.6090641603e-01 -2.5355341207e-02 -2.1896921851e+00 1.5382310817e-01 2.6090641603e-01 1.5382310817e-01 -4.5171105806e+00" polarizability="6.9186065467e+00 3.3029385364e-01 3.4079271629e-01 3.3029385364e-01 6.1796505827e+00 2.3393578408e-01 3.4079271629e-01 2.3393578408e-01 5.4729912899e+00" charge=1 multiplicity=1 method=wB97M-V basis=def2-svpd config_type=h3o+ sample_index=181 temperature=300.0 units=atomic
O         0.0155261345       0.0101106527       0.0645777630  -1.239950893491e-01  -1.532260452372e-01   5.469953623129e-02
H        -0.0912780276       0.8219716335      -0.1890846433  -1.055332006584e-03   1.709820771316e-01  -5.192503657677e-02
H         0.7215038540      -0.4953092202      -0.1921093811   7.813161009598e-02  -3.811342091645e-02  -2.718315024237e-02
H        -0.8786707319      -0.4805223772      -0.2696281350   4.692039081100e-02   2.035341373473e-02   2.440563608062e-02
4
Properties=species:S:1:pos:R:3:forces:R:3 energy=-7.656979357859e+01 dipole="4.9379707864e-02 1.2048679951e-01 -6.2129580393e-01" quadrupole="-1.3159837705e+00 -2.2239054259e-01 -1.3537752334e-02 -2.2239054259e-01 -3.0316951865e+00 -2.0842237818e-01 -1.3537752334e-02 -2.0842237818e-01 -4.4251855638e+00" polarizability="6.6214250378e+00 -1.7374984869e-01 -4.9080533151e-02 -1.7374984869e-01 5.4868316505e+00 -3.7000857297e-02 -4.9080533151e-02 -3.7000857297e-02 5.2389590399e+00" charge=1 multiplicity=1 method=wB97M-V basis=def2-svpd config_type=h3o+ sample_index=182 temperature=300.0 units=atomic
O        -0.0009137020      -0.0129366649       0.0657210617   6.859592671707e-02  -1.007781604839e-01   8.688634689595e-02
H        -0.0343729111       0.7691833056      -0.2616378436   6.731082562418e-03   2.007416161294e-01  -5.843356794722e-02
H         0.8900276966      -0.3110248811      -0.2061864628  -3.674724245280e-03  -3.143768834905e-02  -4.569471193807e-03
H        -0.8410417212      -0.2430096676      -0.2016492100  -7.164839705959e-02  -6.852403227972e-02  -2.388890685935e-02
4
Properties=species:S:1:pos:R:3:forces:R:3 energy=-7.661011006083e+01 dipole="-9.0057483085e-02 -9.6155192298e-03 -6.6385313959e-01" quadrupole="-1.9446808948e+00 1.2660590159e-01 8.6897281899e-02 1.2660590159e-01 -2.1068455232e+00 2.6844525152e-03 8.6897281899e-02 2.6844525152e-03 -4.5097062031e+00" polarizability="6.8638711098e+00 2.3093083622e-01 1.4382728994e-01 2.3093083622e-01 6.6960352798e+00 2.1742284491e-02 1.4382728994e-01 2.1742284491e-02 5.6147828557e+00" charge=1 multiplicity=1 method=wB97M-V basis=def2-svpd config_type=h3o+ sample_index=183 temperature=300.0 units=atomic
O         0.0049442346       0.0005176898       0.0689033165  -7.596160720182e-02  -8.005107675910e-03   1.224657355185e-02
H        -0.0058053973       0.9024558658      -0.2398350492   4.908018016076e-04   2.995053711091e-02  -5.909623795249e-03
H         0.7664344393      -0.4335557449      -0.2278189350   5.247353139991e-02  -3.196755699830e-02  -1.776477961077e-02
H        -0.8397445973      -0.4691644201      -0.2524903691   2.299802098188e-02   1.002853286329e-02   1.142297928203e-02
4
Properties=species:S:1:pos:R:3:forces:R:3 energy=-7.659405503896e+01 dipole="-1.7606685275e-01 -1.1489283259e-01 -6.1219633979e-01" quadrupole="-1.6034798605e+00 -2.2109816948e-01 2.3077622611e-01 -2.2109816948e-01 -2.3128319846e+00 8.6858107565e-02 2.3077622611e-01 8.6858107565e-02 -4.5725804431e+00" polarizability="7.3291079647e+00 1.0193716391e-01 2.7082649697e-01 1.0193716391e-01 6.3432241829e+00 1.8345152099e-01 2.7082649697e-01 1.8345152099e-01 5.6010323785e+00" charge=1 multiplicity=1 method=wB97M-V basis=def2-svpd config_type=h3o+ sample_index=184 temperature=300.0 units=atomic
O         0.0134347487       0.0062493057       0.0647976738  -7.218154305922e-02  -1.391502856001e-01   2.859281526391e-02
H        -0.1087746685       0.8322247971      -0.2013801084   5.343183448314e-03   1.372161065623e-01  -4.004431281698e-02
H         0.7908177853      -0.4943542854      -0.1929572748   1.916462777756e-02  -4.413771827074e-03  -9.668370272910e-03
H        -0.8970260936      -0.4299237528      -0.2600526052   4.767777388864e-02   6.343762198643e-03   2.111925839328e-02
4
Properties=species:S:1:pos:R:3:forces:R:3 energy=-7.660363925149e+01 dipole="-5.2946502110e-02 1.1035703023e-01 -8.2841800244e-01" quadrupole="-2.0075397275e+00 -6.9192004403e-02 7.5278463508e-02 -6.9192004403e-02 -1.7774159967e+00 -1.3241382959e-01 7.5278463508e-02 -1.3241382959e-01 -4.4381687507e+00" polarizability="7.7157711387e+00 9.9488426464e-03 9.8763543563e-02 9.9488426464e-03 8.3062489584e+00 -2.2827856377e-01 9.8763543563e-02 -2.2827856377e-01 6.3265173137e+00" charge=1 multiplicity=1 method=wB97M-V basis=def2-svpd config_type=h3o+ sample_index=185 temperature=300.0 units=atomic
O         0.0037510895      -0.0058315411       0.0813451081  -2.576816142969e-02   4.864656001973e-02  -5.132707190665e-02
H        -0.0294558270       1.0171388322      -0.3246033072   6.356072506919e-03  -6.236340019669e-02   2.928202102562e-02
H         0.8068022343      -0.4659902376      -0.2880381537  -7.394851826075e-03   4.546977938416e-03   5.634872461042e-03
H        -0.8373767229      -0.4495867548      -0.3067724379   2.680900115769e-02   9.170672732159e-03   1.641391347690e-02
4
Properties=species:S:1:pos:R:3:forces:R:3 energy=-7.660493023884e+01 dipole="2.5613685671e-02 -1.2182345065e-01 -3.1777965724e-01" quadrupole="-1.5911875881e+00 -3.0298887404e-01 1.1496612188e-02 -3.0298887404e-01 -1.9220245794e+00 8.2296806285e-02 1.1496612188e-02 8.2296806285e-02 -4.8442045223e+00" polarizability="7.1073312133e+00 -2.4806124355e-01 -1.7709873352e-02 -2.4806124355e-01 6.5583906698e+00 9.3927044112e-02 -1.7709873352e-02 9.3927044112e-02 5.4790276837e+00" charge=1 multiplicity=1 method=wB97M-V basis=def2-svpd config_type=h3o+ sample_index=186 temperature=300.0 units=atomic
O         0.0010560653       0.0067646053       0.0440681046   3.564517887454e-02  -1.172364945853e-01   1.429026991416e-02
H        -0.0506470140       0.8928260677      -0.0890762702   4.677490280510e-03   9.943026300078e-02  -1.653165312066e-02
H         0.8643580885      -0.5358400579      -0.1139382607  -3.158003593498e-02   2.672103420882e-02   4.017285944395e-03
H        -0.8306106243      -0.4578130668      -0.1192376029  -8.744280674207e-03  -8.913058233478e-03  -1.771405135867e-03
4
Properties=species:S:1:pos:R:3:forces:R:3 energy=-7.661104901165e+01 dipole="-3.1634225296e-02 3.9200070676e-02 -5.7633310331e-01" quadrupole="-1.6913132032e+00 -4.2545342077e-01 8.7333464816e-02 -4.2545342077e-01 -2.0970143096e+00 -6.8681438777e-02 8.7333464816e-02 -6.8681438777e-02 -4.6555691250e+00" polarizability="7.1089188723e+00 -3.0388150590e-01 4.1990254693e-02 -3.0388150590e-01 6.9019876009e+00 -5.5874306261e-02 4.1990254693e-02 -5.5874306261e-02 5.6555333571e+00" charge=1 multiplicity=1 method=wB97M-V basis=def2-svpd config_type=h3o+ sample_index=187 temperature=300.0 units=atomic
O         0.0051087856      -0.0036534048       0.0624415131   1.217910164007e-02   1.176636005997e-02   2.786939334565e-03
H        -0.0924555623       0.9287586676      -0.2173063215   1.830997405942e-02   7.838168834319e-03   1.786709672367e-03
H         0.8443273514      -0.4877388592      -0.1869047828  -1.498394282818e-02   8.583005326522e-03  -4.682923772896e-04
H        -0.8336292303      -0.3746847471      -0.2124507941  -1.550018058932e-02  -2.818563687186e-02  -4.104564809451e-03
4
Properties=species:S:1:pos:R:3:forces:R:3 energy=-7.660326789825e+01 dipole="-2.4309499113e-02 -1.5447006591e-01 -6.9762711033e-01" quadrupole="-2.3437025689e+00 -2.1875603335e-01 5.3853923097e-02 -2.1875603335e-01 -1.9158137076e+00 1.9974862502e-01 5.3853923097e-02 1.9974862502e-01 -4.4200254949e+00" polarizability="6.5583155936e+00 -1.4118759335e-01 2.0911244605e-02 -1.4118759335e-01 6.5262832877e+00 2.2548802372e-01 2.0911244605e-02 2.2548802372e-01 5.5404948414e+00" charge=1 multiplicity=1 method=wB97M-V basis=def2-svpd config_type=h3o+ sample_index=188 temperature=300.0 units=atomic
O         0.0033463487       0.0117944603       0.0714526079   9.920345049583e-03  -1.072339294982e-01   2.579408817548e-02
H        -0.0546086858       0.8617636643      -0.2209764460   4.867017967281e-03   9.490618355024e-02  -3.285712135119e-02
H         0.7421986875      -0.5530942500      -0.2615849723   1.328943277614e-02   1.710933225695e-02   4.937975339871e-03
H        -0.7411455794      -0.4893569399      -0.2783159508  -2.807397946896e-02  -4.776106447767e-03   2.124844597132e-03
4
Properties=species:S:1:pos:R:3:forces:R:3 energy=-7.661259283301e+01 dipole="-1.4065427042e-02 -2.2216953710e-02 -3.9671385911e-01" quadrupole="-2.0488610370e+00 -2.4117131265e-01 3.5744931528e-02 -2.4117131265e-01 -1.4746415985e+00 5.2449162403e-02 3.5744931528e-02 5.2449162403e-02 -4.8260482611e+00" polarizability="6.8181439083e+00 -1.8844530513e-01 6.2216611137e-03 -1.8844530513e-01 7.2198144897e+00 2.3072402204e-02 6.2216611137e-03 2.3072402204e-02 5.5770922247e+00" charge=1 multiplicity=1 method=wB97M-V basis=def2-svpd config_type=h3o+ sample_index=189 temperature=300.0 units=atomic
O         0.0025635268       0.0039871545       0.0496394271   1.513177711009e-02   8.609192530734e-03   5.834250626390e-03
H        -0.0498536114       0.9822745907      -0.1268463035   8.748513299102e-03  -1.414415707102e-02  -8.861856321236e-04
H         0.7972004747      -0.5506560216      -0.1358809211   2.839481076916e-03   1.498556385391e-02  -4.555996134010e-04
H        -0.7883686029      -0.4879288468      -0.1487013157  -2.672194362303e-02  -9.453048937891e-03  -4.482739852439e-03
4
Properties=species:S:1:pos:R:3:forces:R:3 energy=-7.660080162994e+01 dipole="-7.0465020378e-02 -6.8548212332e-02 -4.0801090617e-01" quadrupole="-2.4438143543e+00 1.9963453244e-01 4.9581354334e-02 1.9963453244e-01 -1.2946362202e+00 1.3384887721e-01 4.9581354334e-02 1.3384887721e-01 -4.7484145250e+00" polarizability="6.2866281753e+00 2.8512706703e-01 8.7303050394e-02 2.8512706703e-01 6.9712169680e+00 7.6348294152e-02 8.7303050394e-02 7.6348294152e-02 5.4223612349e+00" charge=1 multiplicity=1 method=wB97M-V basis=def2-svpd config_type=h3o+ sample_index=190 temperature=300.0 units=atomic
O         0.0036784761       0.0091385062       0.0503816384  -8.954726011961e-02   1.996593497661e-02   2.515989729236e-02
H         0.0114687611       0.9695501745      -0.1159798329  -7.423302769426e-04   2.642317210686e-03  -6.531872589258e-03
H         0.6901368232      -0.5272180983      -0.1444650134   1.029924351649e-01  -4.533192375871e-02  -2.165539102981e-02
H        -0.7604602419      -0.5810742299      -0.1628100638  -1.270424091263e-02   2.271492757138e-02   3.035494506711e-03
4
Properties=species:S:1:pos:R:3:forces:R:3 energy=-7.660699023303e+01 dipole="6.9120344966e-02 -2.0001556155e-02 -2.3340656753e-01" quadrupole="-1.2991977996e+00 1.4368868023e-01 -7.2417136566e-02 1.4368868023e-01 -2.1691876573e+00 -2.2431415744e-02 -7.2417136566e-02 -2.2431415744e-02 -4.8849463800e+00" polarizability="7.2026458601e+00 1.7206330719e-02 -5.5467125709e-02 1.7206330719e-02 6.4251879475e+00 1.7833278396e-02 -5.5467125709e-02 1.7833278396e-02 5.4578376800e+00" charge=1 multiplicity=1 method=wB97M-V basis=def2-svpd config_type=h3o+ sample_index=191 temperature=300.0 units=atomic
O        -0.0054897196      -0.0012261122       0.0383713530   3.158712238177e-02  -7.146967983790e-02   1.137879799382e-02
H         0.0506947474       0.8985496729      -0.0816536957  -6.479902312762e-03   8.155102993470e-02  -1.026025834849e-02
H         0.9018227647      -0.4172215779      -0.0884295137  -2.697197056448e-02  -4.926316860737e-03   2.055222274512e-03
H        -0.8646640532      -0.4543765213      -0.0610070574   1.869026943325e-03  -5.158268340571e-03  -3.169688648839e-03
4
Properties=species:S:1:pos:R:3:forces:R:3 energy=-7.658955802233e+01 dipole="1.0174314740e-01 2.7934707601e-01 -3.3206863982e-01" quadrupole="-1.9463613106e+00 1.1028017721e-01 -9.0239065215e-02 1.1028017721e-01 -1.3100067184e+00 -2.1788520424e-01 -9.0239065215e-02 -2.1788520424e-01 -4.8826934191e+00" polarizability="6.6286565799e+00 -1.1038438644e-02 -7.2326438520e-02 -1.1038438644e-02 7.9057416371e+00 -2.6227203886e-01 -7.2326438520e-02 -2.6227203886e-01 5.6447235745e+00" charge=1 multiplicity=1 method=wB97M-V basis=def2-svpd config_type=h3o+ sample_index=192 temperature=300.0 units=atomic
O        -0.0066580440      -0.0146156661       0.0447609972   8.614175209141e-02   1.632645242212e-01   1.092225896008e-02
H         0.0480107715       1.0976366215      -0.1543619292  -1.150485669447e-02  -8.203160508956e-02   1.444014632484e-02
H         0.8365579839      -0.4173251820      -0.1061346452   2.308050302386e-02  -2.402934830761e-02  -6.224884652038e-03
H        -0.7780231164      -0.4390363720      -0.0728857548  -9.771342162384e-02  -5.720526647640e-02  -1.913860594708e-02
4
Properties=species:S:1:pos:R:3:forces:R:3 energy=-7.660729935271e+01 dipole="-1.9376725815e-02 -1.4330489882e-01 -6.7543913400e-01" quadrupole="-2.4982342178e+00 -9.1030424653e-02 3.1741409443e-02 -9.1030424653e-02 -1.5886173589e+00 2.1874933426e-01 3.1741409443e-02 2.1874933426e-01 -4.4986153304e+00" polarizability="6.6222300825e+00 -4.9777840511e-02 2.1201971304e-02 -4.9777840511e-02 7.0031055240e+00 2.0821215147e-01 2.1201971304e-02 2.0821215147e-01 5.6504138628e+00" charge=1 multiplicity=1 method=wB97M-V basis=def2-svpd config_type=h3o+ sample_index=193 temperature=300.0 units=atomic
O         0.0019769056       0.0126397208       0.0697722721  -2.165392404657e-03  -6.371229131123e-02   6.968932605803e-03
H        -0.0255714908       0.9152333132      -0.2095458839   3.321940568073e-03   3.512327931643e-02  -1.581152550771e-02
H         0.7228160406      -0.5677968672      -0.2572327161   2.214423675735e-02   1.716923560197e-02   3.931027228860e-03
H        -0.7288834337      -0.5417372760      -0.2671132515  -2.329996475543e-02   1.142096912748e-02   4.909736339755e-03
4
Properties=species:S:1:pos:R:3:forces:R:3 energy=-7.659501840964e+01 dipole="-2.9136263983e-02 -9.0828059830e-02 -7.3031219334e-01" quadrupole="-1.6400030843e+00 3.2533669505e-01 -1.1942236484e-02 3.2533669505e-01 -2.5188693582e+00 5.5006818680e-02 -1.1942236484e-02 5.5006818680e-02 -4.4042607041e+00" polarizability="7.2805992314e+00 2.7780504164e-01 4.7073040972e-02 2.7780504164e-01 6.2410541188e+00 1.8482673132e-01 4.7073040972e-02 1.8482673132e-01 5.6445974190e+00" charge=1 multiplicity=1 method=wB97M-V basis=def2-svpd config_type=h3o+ sample_index=194 temperature=300.0 units=atomic
O        -0.0009755188       0.0038381136       0.0738200912  -3.790833212822e-02  -1.420055733173e-01   3.000502366530e-02
H         0.0577038775       0.8085312763      -0.2565631369  -5.599118843633e-03   1.467837434000e-01  -4.781000340274e-02
H         0.8215338966      -0.3853789778      -0.2736562558   6.003187001417e-03  -2.230474903854e-02   3.013828155287e-03
H        -0.8636256965      -0.4763809674      -0.2687539349   3.750357404959e-02   1.752584801678e-02   1.478905968716e-02
4
Properties=species:S:1:pos:R:3:forces:R:3 energy=-7.660012724049e+01 dipole="8.7521416470e-02 2.0257162368e-01 -7.1413064160e-01" quadrupole="-1.4164394575e+00 1.0820176355e-01 -1.1277187335e-01 1.0820176355e-01 -2.1524012967e+00 -2.8773014678e-01 -1.1277187335e-01 -2.8773014678e-01 -4.6127455256e+00" polarizability="7.9790996129e+00 -6.9213096434e-03 -1.3882441118e-01 -6.9213096434e-03 7.9671517533e+00 -3.4495997431e-01 -1.3882441118e-01 -3.4495997431e-01 6.1835494386e+00" charge=1 multiplicity=1 method=wB97M-V basis=def2-svpd config_type=h3o+ sample_index=195 temperature=300.0 units=atomic
O        -0.0057510667      -0.0154111115       0.0724601758   4.515289702245e-02   7.624144731740e-02  -3.510659070490e-02
H         0.0442393521       1.0036850441      -0.3047190419  -1.011830895373e-02  -5.659580321924e-02   2.884792237071e-02
H         0.9164907999      -0.3627080041      -0.2506136670  -4.375278351889e-02  -6.989402963092e-03   1.083801107195e-02
H        -0.8687055204      -0.3862608035      -0.2218934932   8.720006045686e-03  -1.266033072111e-02  -4.575024049869e-03
4
Properties=species:S:1:pos:R:3:forces:R:3 energy=-7.660669110309e+01 dipole="-1.4350393877e-02 1.2923084437e-01 -5.1796435231e-01" quadrupole="-1.6096529729e+00 -4.1386704927e-01 6.7751350657e-02 -4.1386704927e-01 -2.1713969394e+00 -1.6676159871e-01 6.7751350657e-02 -1.6676159871e-01 -4.6905416184e+00" polarizability="6.8840795227e+00 -3.1034957245e-01 2.2748420795e-02 -3.1034957245e-01 6.8309303243e+00 -1.6052820521e-01 2.2748420795e-02 -1.6052820521e-01 5.5657866483e+00" charge=1 multiplicity=1 method=wB97M-V basis=def2-svpd config_type=h3o+ sample_index=196 temperature=300.0 units=atomic
O         0.0038132626      -0.0103615859       0.0581699551   3.097725736712e-02   6.147169886578e-02   1.246018442465e-02
H        -0.0840828620       0.9456029151      -0.2138065710   1.895561178025e-02  -7.608295043142e-03   7.808519002024e-03
H         0.8568094767      -0.4412523782      -0.1577069384  -4.528026715959e-03  -6.602435753661e-03  -5.796813123206e-03
H        -0.8337522409      -0.3307429218      -0.1767837422  -4.540515006557e-02  -4.726112904436e-02  -1.447184808670e-02
4
Properties=species:S:1:pos:R:3:forces:R:3 energy=-7.660947828938e+01 dipole="-5.6197914912e-02 -7.3866532052e-02 -3.9955208400e-01" quadrupole="-2.1183727159e+00 -2.7618190676e-01 7.8898475741e-02 -2.7618190676e-01 -1.6507332135e+00 9.1736704364e-02 7.8898475741e-02 9.1736704364e-02 -4.7518576719e+00" polarizability="6.4915856815e+00 -1.4133589392e-01 4.4939738311e-02 -1.4133589392e-01 6.6734898780e+00 6.6108746934e-02 4.4939738311e-02 6.6108746934e-02 5.4061100583e+00" charge=1 multiplicity=1 method=wB97M-V basis=def2-svpd config_type=h3o+ sample_index=197 temperature=300.0 units=atomic
O         0.0058044360       0.0068649083       0.0498420221  -6.181139831247e-03  -3.023634417579e-02   1.981554233201e-02
H        -0.0745064238       0.9299175193      -0.1196523298   1.048438638923e-02   3.916742598189e-02  -1.040616704914e-02
H         0.7631640527      -0.5538821726      -0.1330156132   2.673758377698e-02   3.790171105684e-03  -5.390610201176e-03
H        -0.7815402909      -0.4783632656      -0.1620207776  -3.104545636700e-02  -1.272585251675e-02  -4.012019279329e-03
4
Properties=species:S:1:pos:R:3:forces:R:3 energy=-7.658970483658e+01 dipole="1.1381035423e-01 2.4749175980e-01 -8.9178659803e-01" quadrupole="-1.6858985812e+00 2.9934454047e-02 -1.4896080254e-01 2.9934454047e-02 -2.1083871704e+00 -3.7199629456e-01 -1.4896080254e-01 -3.7199629456e-01 -4.3571440835e+00" polarizability="8.0891323954e+00 -1.2154314209e-01 -2.2399849700e-01 -1.2154314209e-01 8.5664009225e+00 -5.4485923338e-01 -2.2399849700e-01 -5.4485923338e-01 6.5740655137e+00" charge=1 multiplicity=1 method=wB97M-V basis=def2-svpd config_type=h3o+ sample_index=198 temperature=300.0 units=atomic
O        -0.0069478386      -0.0174810186       0.0860114081   6.265440512976e-02   8.742121245735e-02  -5.732678238621e-02
H         0.0375623783       1.0287137368      -0.3831153953  -8.019007018130e-03  -6.874722479748e-02   4.251643081213e-02
H         0.9038243930      -0.3698232431      -0.3229343685  -4.952621701342e-02  -8.357948503340e-04   2.089006482280e-02
H        -0.8302177788      -0.3707489494      -0.2882487299  -5.110184530512e-03  -1.784179215300e-02  -6.084249760696e-03
4
Properties=species:S:1:pos:R:3:forces:R:3 energy=-7.660742287636e+01 dipole="-6.6391003541e-02 1.5730883193e-01 -3.8326675145e-01" quadrupole="-1.7630612193e+00 -1.3760620339e-01 7.1937585307e-02 -1.3760620339e-01 -1.7945693775e+00 -1.4723854546e-01 7.1937585307e-02 -1.4723854546e-01 -4.8152420748e+00" polarizability="6.7179272020e+00 -4.0377295994e-02 5.7517546023e-02 -4.0377295994e-02 7.1343428658e+00 -1.5827526840e-01 5.7517546023e-02 -1.5827526840e-01 5.5397669324e+00" charge=1 multiplicity=1 method=wB97M-V basis=def2-svpd config_type=h3o+ sample_index=199 temperature=300.0 units=atomic
O         0.0049078253      -0.0098479340       0.0485875309  -4.188134973524e-02   9.734117694770e-02   1.036284417879e-02
H        -0.0454038656       1.0042580458      -0.1610938450   1.039190626407e-02  -4.077557516503e-02   9.431303955561e-03
H         0.8112604902      -0.4362502959      -0.1045590968   4.893965932750e-02  -3.235187427123e-02  -1.383944234272e-02
H        -0.8443881185      -0.4028899905      -0.1290719091  -1.744843902991e-02  -2.421345242798e-02  -5.958725446477e-03
4
Properties=species:S:1:pos:R:3:forces:R:3 energy=-7.659555291220e+01 dipole="1.0912828620e-01 2.2382017878e-01 -2.7174906646e-01" quadrupole="-1.4255171569e+00 -3.0044498662e-01 -4.8665165780e-02 -3.0044498662e-01 -1.7017996039e+00 -2.0412078531e-01 -4.8665165780e-02 -2.0412078531e-01 -4.9586553329e+00" polarizability="7.2642825983e+00 -3.6588676025e-01 -5.7428867372e-02 -3.6588676025e-01 7.7582007396e+00 -1.9912717419e-01 -5.7428867372e-02 -1.9912717419e-01 5.7293474928e+00" charge=1 multiplicity=1 method=wB97M-V basis=def2-svpd config_type=h3o+ sample_index=200 temperature=300.0 units=atomic
O        -0.0042071657      -0.0153911187       0.0408496358   1.125051467170e-01   1.155415245546e-01  -1.450692014596e-04
H        -0.0232057422       1.0544741920      -0.1356902950   4.917057611915e-03  -6.633064084063e-02   1.172207524725e-02
H         0.9225067147      -0.4399626445      -0.0780411598  -4.082024504202e-02   4.023542783642e-03   1.212516416183e-03
H        -0.8319792031      -0.3608798735      -0.0570637932  -7.660013895077e-02  -5.323584709657e-02  -1.278630521600e-02
4
Properties=species:S:1:pos:R:3:forces:R:3 energy=-7.660402221983e+01 dipole="-4.5845116043e-02 3.1836076597e-02 -4.2865944594e-01" quadrupole="-1.7057226365e+00 -6.1224211120e-01 1.0569935975e-01 -6.1224211120e-01 -1.4076816721e+00 -2.2442204750e-02 1.0569935975e-01 -2.2442204750e-02 -4.9196707420e+00" polarizability="7.6610518242e+00 -4.9976547773e-01 4.9203681417e-02 -4.9976547773e-01 8.0664699105e+00 -4.9694477577e-02 4.9203681417e-02 -4.9694477577e-02 5.9049344883e+00" charge=1 multiplicity=1 method=wB97M-V basis=def2-svpd config_type=h3o+ sample_index=201 temperature=300.0 units=atomic
O         0.0069390167      -0.0006491620       0.0518640414   7.369427009334e-03   2.576064846356e-02  -1.211374997608e-02
H        -0.1231610772       1.0298978964      -0.1520777533   2.463274731287e-02  -5.132066396619e-02   8.083794757139e-03
H         0.8557952721      -0.5806745321      -0.1301555275  -3.413816738653e-02   3.491221281665e-02   3.065534008339e-03
H        -0.8436769709      -0.4313072842      -0.1648512370   2.135833663610e-03  -9.348488752055e-03   9.646746314804e-04
4
Properties=species:S:1:pos:R:3:forces:R:3 energy=-7.661012620259e+01 dipole="-2.8775136121e-03 -1.2850781271e-01 -6.1072457286e-01" quadrupole="-2.0175569068e+00 2.7151206208e-01 -2.6642415306e-02 2.7151206208e-01 -1.7135427099e+00 1.5461004541e-01 -2.6642415306e-02 1.5461004541e-01 -4.6472535837e+00" polarizability="7.2574464073e+00 2.3801664465e-01 1.5407183000e-02 2.3801664465e-01 7.1896291738e+00 1.7346396786e-01 1.5407183000e-02 1.7346396786e-01 5.7704929435e+00" charge=1 multiplicity=1 method=wB97M-V basis=def2-svpd config_type=h3o+ sample_index=202 temperature=300.0 units=atomic
O        -0.0018586892       0.0094218231       0.0648990515  -1.764934519239e-02  -7.207717038200e-02  -5.769006713840e-03
H         0.0512420391       0.9225587722      -0.1927581584  -7.187498303174e-03   3.021108476399e-02  -1.150043175154e-02
H         0.7918493265      -0.4969123589      -0.2362108843   9.906552431944e-04   7.178386267952e-03   5.739467719984e-03
H        -0.8133455451      -0.5685565440      -0.2269062346   2.384652744671e-02   3.468609874070e-02   1.152241408466e-02
4
Properties=species:S:1:pos:R:3:forces:R:3 energy=-7.660122322343e+01 dipole="8.9053382235e-03 2.4945134117e-02 -6.8356321519e-01" quadrupole="-2.5288684948e+00 1.8292557781e-01 -2.5169060430e-02 1.8292557781e-01 -1.0506604051e+00 6.9901257677e-02 -2.5169060430e-02 6.9901257677e-02 -4.6238226072e+00" polarizability="7.0637179834e+00 1.8514625270e-01 7.7175065338e-03 1.8514625270e-01 8.3984021375e+00 -2.3233019191e-02 7.7175065338e-03 -2.3233019191e-02 6.0260776048e+00" charge=1 multiplicity=1 method=wB97M-V basis=def2-svpd config_type=h3o+ sample_index=203 temperature=300.0 units=atomic
O        -0.0014697335       0.0046175269       0.0702851442  -1.190806870515e-02   3.339077219296e-02  -2.222084428210e-02
H         0.0353326127       1.0531774020      -0.2353704082  -6.640945200954e-03  -6.723906400394e-02   1.385752808183e-02
H         0.7350977823      -0.5357502799      -0.2570237660   2.479880382624e-02   7.435185567602e-03   1.103151647873e-03
H        -0.7469116928      -0.5834130434      -0.2496703646  -6.249025424531e-03   2.641549838323e-02   7.257967604541e-03
4
Properties=species:S:1:pos:R:3:forces:R:3 energy=-7.659685186985e+01 dipole="1.3611706426e-02 -1.6169812091e-01 -5.7880273320e-01" quadrupole="-2.0062741424e+00 1.9427106465e-01 -3.9192474102e-02 1.9427106465e-01 -2.0765114266e+00 1.5952182563e-01 -3.9192474102e-02 1.5952182563e-01 -4.5482932304e+00" polarizability="6.6379688824e+00 1.1869870586e-01 -1.3210677679e-02 1.1869870586e-01 6.1866505186e+00 2.0447290954e-01 -1.3210677679e-02 2.0447290954e-01 5.3955984146e+00" charge=1 multiplicity=1 method=wB97M-V basis=def2-svpd config_type=h3o+ sample_index=204 temperature=300.0 units=atomic
O        -0.0026241645       0.0106308245       0.0624967738  -1.382704851035e-02  -1.719166903856e-01   4.360253543996e-02
H         0.0458843981       0.8359731433      -0.1764608291  -1.153694915052e-03   1.644320627319e-01  -4.752000468533e-02
H         0.7838114257      -0.4714655601      -0.2270609437   1.639257994946e-02  -6.485346986300e-03   8.237108537881e-04
H        -0.7877023335      -0.5267530545      -0.2139405842  -1.415386921022e-03   1.397021243989e-02   3.086344498044e-03
4
Properties=species:S:1:pos:R:3:forces:R:3 energy=-7.657662459113e+01 dipole="-5.1817989836e-02 -9.2852286151e-02 -4.2074618467e-01" quadrupole="-5.1775614798e-01 -4.1288795645e-01 1.0778699705e-01 -4.1288795645e-01 -1.7634126000e+00 2.6000099867e-02 1.0778699705e-01 2.6000099867e-02 -5.1064751286e+00" polarizability="1.0252941174e+01 -2.6812455008e-01 1.0905972573e-01 -2.6812455008e-01 8.6166883335e+00 9.2802870580e-02 1.0905972573e-01 9.2802870580e-02 6.4182902237e+00" charge=1 multiplicity=1 method=wB97M-V basis=def2-svpd config_type=h3o+ sample_index=205 temperature=300.0 units=atomic
O         0.0066226296       0.0020974556       0.0512069056  -2.138578346716e-02  -4.004907132599e-02  -2.627168324303e-02
H        -0.0880479817       0.9946960804      -0.1406280458   1.631113657220e-02  -2.848054584800e-02   3.532383656672e-03
H         0.9985368865      -0.5560865001      -0.1314388407  -7.932291587197e-02   4.391283916582e-02   8.313123184651e-03
H        -1.0164633836      -0.4646549294      -0.1645329928   8.439794462749e-02   2.461418690650e-02   1.442525126245e-02
4
Properties=species:S:1:pos:R:3:forces:R:3 energy=-7.659964708390e+01 dipole="1.4546401031e-02 1.5931244211e-01 -7.4344343785e-01" quadrupole="-2.1575681926e+00 1.7075560013e-01 -3.4722612128e-02 1.7075560013e-01 -1.3787354510e+00 -1.5102580431e-01 -3.4722612128e-02 -1.5102580431e-01 -4.5751682802e+00" polarizability="7.4168077544e+00 1.6216291857e-01 -1.3227940435e-02 1.6216291857e-01 8.6524470099e+00 -2.9577647042e-01 -1.3227940435e-02 -2.9577647042e-01 6.2078451274e+00" charge=1 multiplicity=1 method=wB97M-V basis=def2-svpd config_type=h3o+ sample_index=206 temperature=300.0 units=atomic
O        -0.0017633524      -0.0067068523       0.0746145734  -5.031823848184e-03   7.082548688801e-02  -3.294179969902e-02
H         0.0343512611       1.0739793736      -0.2911394619  -7.180806674910e-03  -7.864780784573e-02   2.693538887269e-02
H         0.7967624158      -0.4576780770      -0.2646108529   5.499290283687e-03  -2.779505798675e-03   1.487718411769e-03
H        -0.8028978989      -0.5009278070      -0.2557928454   6.713692275792e-03   1.060789129490e-02   4.515733884455e-03
4
Properties=species:S:1:pos:R:3:forces:R:3 energy=-7.657758498385e+01 dipole="-4.0999132224e-02 -2.6029983754e-01 -3.4416669080e-01" quadrupole="-1.1236748036e+00 -3.6201201807e-01 8.6952888093e-02 -3.6201201807e-01 -2.0133630570e+00 1.7113844043e-01 8.6952888093e-02 1.7113844043e-01 -4.9036515477e+00" polarizability="8.1956993663e+00 -1.5683489890e-01 7.3403413688e-02 -1.5683489890e-01 6.7371457335e+00 2.1036340095e-01 7.3403413688e-02 2.1036340095e-01 5.7155893810e+00" charge=1 multiplicity=1 method=wB97M-V basis=def2-svpd config_type=h3o+ sample_index=207 temperature=300.0 units=atomic
O         0.0064800602       0.0136483087       0.0456088477   1.348908216537e-03  -2.652744604206e-01   1.306328582498e-02
H        -0.0873092542       0.8451885016      -0.0774693015  -3.289744404546e-03   1.983308456565e-01  -3.161070483933e-02
H         0.9038257320      -0.5738031348      -0.1185328204  -5.331189212455e-02   4.485365398250e-02   6.866557098085e-03
H        -0.9202093274      -0.4823349910      -0.1509156596   5.525261809745e-02   2.209147545721e-02   1.168376829403e-02
4
Properties=species:S:1:pos:R:3:forces:R:3 energy=-7.660466198868e+01 dipole="-1.5749322851e-02 1.5632080107e-01 -7.6467642923e-01" quadrupole="-1.6334549309e+00 3.3929780783e-01 -2.8881552062e-02 3.3929780783e-01 -2.3778549100e+00 -2.4040608355e-01 -2.8881552062e-02 -2.4040608355e-01 -4.4428873987e+00" polarizability="7.3900445951e+00 3.1245686753e-01 2.1669831270e-02 3.1245686753e-01 7.2350214186e+00 -2.6740721872e-01 2.1669831270e-02 -2.6740721872e-01 5.9580902047e+00" charge=1 multiplicity=1 method=wB97M-V basis=def2-svpd config_type=h3o+ sample_index=208 temperature=300.0 units=atomic
O        -0.0013185824      -0.0127666642       0.0764994758  -3.407080162232e-02   6.169666460421e-02  -1.983203599053e-02
H         0.0606708317       0.9384015982      -0.3187119834  -1.490716588612e-02  -2.321882379128e-02   2.298548571277e-02
H         0.8347701157      -0.3164466850      -0.2649314402   2.090694165621e-02  -3.733949584908e-02  -8.673273386217e-03
H        -0.8743394933      -0.4094221133      -0.2583154575   2.806820235338e-02  -1.142064976375e-03   5.518760539640e-03
4
Properties=species:S:1:pos:R:3:forces:R:3 energy=-7.660255324655e+01 dipole="-1.3753153151e-01 7.7726332855e-02 -3.6753266309e-01" quadrupole="-2.0063346760e+00 -1.0326084973e-01 1.2945923017e-01 -1.0326084973e-01 -1.1119756184e+00 -1.5778494553e-02 1.2945923017e-01 -1.5778494553e-02 -4.9365764170e+00" polarizability="7.2342113202e+00 1.0195299601e-01 1.2666428715e-01 1.0195299601e-01 8.1257479111e+00 -5.3768035635e-02 1.2666428715e-01 -5.3768035635e-02 5.8127247489e+00" charge=1 multiplicity=1 method=wB97M-V basis=def2-svpd config_type=h3o+ sample_index=209 temperature=300.0 units=atomic
O         0.0093217170      -0.0003976819       0.0474993671  -8.166226841940e-02   5.809059241433e-02  -4.958487120207e-03
H        -0.0628980848       1.0669565297      -0.1280203430   1.383959667552e-02  -6.712463089326e-02   7.478939750008e-03
H         0.7664419338      -0.5380523634      -0.1012750600   4.068652124996e-02  -1.119694274077e-02  -9.516646852049e-03
H        -0.8527028498      -0.5151425676      -0.1478203304   2.713012934249e-02   2.023196640044e-02   7.002123642667e-03
4
Properties=species:S:1:pos:R:3:forces:R:3 energy=-7.659726346007e+01 dipole="-6.7007164071e-03 2.7589807266e-02 -2.5770259292e-01" quadrupole="-2.3413243022e+00 -2.4069763874e-01 1.9359778365e-02 -2.4069763874e-01 -5.7857826596e-01 8.1152942988e-02 1.9359778365e-02 8.1152942988e-02 -5.0189491415e+00" polarizability="7.1119785950e+00 -2.4094583926e-01 -4.6170934282e-03 -2.4094583926e-01 8.5460654400e+00 2.6795447581e-02 -4.6170934282e-03 2.6795447581e-02 5.8283197613e+00" charge=1 multiplicity=1 method=wB97M-V basis=def2-svpd config_type=h3o+ sample_index=210 temperature=300.0 units=atomic
O         0.0016762951       0.0061491732       0.0400890808   1.987601906425e-02   3.284004688364e-02  -2.662299670736e-03
H        -0.0428092851       1.0997498087      -0.0695376567   7.452264462211e-03  -7.494739476165e-02   2.586215401258e-03
H         0.7758844023      -0.6248493270      -0.0901813199  -7.344218114234e-04   3.422949744519e-02   2.043984498270e-03
H        -0.7598961298      -0.5661357942      -0.0985704147  -2.659030716097e-02   7.882208462754e-03  -1.966932038451e-03
4
Properties=species:S:1:pos:R:3:forces:R:3 energy=-7.660083637117e+01 dipole="-9.2007218627e-02 -1.2549931012e-01 -3.3227753858e-01" quadrupole="-1.1410108355e+00 -1.0900946351e-01 9.8442010300e-02 -1.0900946351e-01 -1.8728147624e+00 7.2865748932e-02 9.8442010300e-02 7.2865748932e-02 -4.9746973257e+00" polarizability="8.3199364468e+00 5.7104848255e-02 1.0176455058e-01 5.7104848255e-02 7.2876472678e+00 1.1072157377e-01 1.0176455058e-01 1.1072157377e-01 5.8417862385e+00" charge=1 multiplicity=1 method=wB97M-V basis=def2-svpd config_type=h3o+ sample_index=211 temperature=300.0 units=atomic
O         0.0066926353       0.0058352564       0.0450299746  -3.263128088360e-02  -9.851062004473e-02  -4.910660647010e-03
H        -0.0520148293       0.9285332915      -0.0968728833   6.978632129904e-03   4.572056995768e-02  -8.930080258111e-03
H         0.8910456864      -0.5214134243      -0.1036793096  -3.916605043326e-02   2.598060545565e-02   3.099721722327e-03
H        -0.9461199919      -0.4930813688      -0.1371002947   6.481680767516e-02   2.680718002986e-02   1.074222110070e-02
4
Properties=species:S:1:pos:R:3:forces:R:3 energy=-7.660487632414e+01 dipole="-9.1286414705e-02 1.4147095130e-01 -2.5470130712e-01" quadrupole="-1.1816158923e+00 1.1048551067e-01 5.5106873305e-02 1.1048551067e-01 -2.2853104554e+00 -1.5831866668e-01 5.5106873305e-02 -1.5831866668e-01 -4.8841556987e+00" polarizability="7.1505834760e+00 1.5990552023e-01 5.2106928160e-02 1.5990552023e-01 6.6439340584e+00 -9.5064145968e-02 5.2106928160e-02 -9.5064145968e-02 5.5019319257e+00" charge=1 multiplicity=1 method=wB97M-V basis=def2-svpd config_type=h3o+ sample_index=212 temperature=300.0 units=atomic
O         0.0042548058      -0.0129204533       0.0398845866  -7.411807255100e-02   3.997182499054e-02   7.627158678916e-03
H        -0.0045916969       0.9410035265      -0.1234387079   3.943357904990e-04   1.225558028244e-02   5.189620313070e-04
H         0.8658913759      -0.3477534928      -0.0553803311   4.197980873402e-02  -4.119405840380e-02  -8.554475217651e-03
H        -0.9293743215      -0.3790969547      -0.0766083681   3.174347490742e-02  -1.103055556844e-02   4.130429495333e-04
4
Properties=species:S:1:pos:R:3:forces:R:3 energy=-7.659971535364e+01 dipole="-3.8957895316e-02 2.0674907436e-01 -3.8198705313e-01" quadrupole="-1.8066624185e+00 -4.3221990774e-01 7.8987669011e-02 -4.3221990774e-01 -1.5761068738e+00 -1.8578705358e-01 7.8987669011e-02 -1.8578705358e-01 -4.8524471747e+00" polarizability="6.8054771610e+00 -3.4002870192e-01 3.4625208640e-02 -3.4002870192e-01 7.6198222248e+00 -2.2389088880e-01 3.4625208640e-02 -2.2389088880e-01 5.6448873278e+00" charge=1 multiplicity=1 method=wB97M-V basis=def2-svpd config_type=h3o+ sample_index=213 temperature=300.0 units=atomic
O         0.0048944912      -0.0120868768       0.0484090628   2.450517408482e-02   1.201123800542e-01   8.428044337340e-03
H        -0.0890012830       1.0493522631      -0.1665817444   2.016963276912e-02  -6.412550250168e-02   1.364299803397e-02
H         0.8302408392      -0.4787409825      -0.1003950527   1.403823867165e-02  -9.894041537253e-03  -7.981825771714e-03
H        -0.8195630881      -0.3696941592      -0.1248686910  -5.871557919959e-02  -4.609134553964e-02  -1.409288907288e-02
4
Properties=species:S:1:pos:R:3:forces:R:3 energy=-7.660710764357e+01 dipole="-3.3927403604e-02 -7.6717959646e-02 -5.6774902854e-01" quadrupole="-1.8942608425e+00 3.2797629610e-01 -3.6356324476e-03 3.2797629610e-01 -2.0414185240e+00 6.8437848386e-02 -3.6356324476e-03 6.8437848386e-02 -4.6068198367e+00" polarizability="6.8048378399e+00 3.0073134452e-01 5.4204099398e-02 3.0073134452e-01 6.5073446625e+00 9.5915945772e-02 5.4204099398e-02 9.5915945772e-02 5.4952092292e+00" charge=1 multiplicity=1 method=wB97M-V basis=def2-svpd config_type=h3o+ sample_index=214 temperature=300.0 units=atomic
O        -0.0003825385       0.0046959705       0.0617743239  -5.430271657172e-02  -6.633999250699e-02   2.361699048529e-02
H         0.0537794105       0.8833765087      -0.1896904973  -7.178144786428e-03   7.440770591941e-02  -1.991451181230e-02
H         0.7818545896      -0.4304983185      -0.2090832580   4.147021699304e-02  -2.827956858277e-02  -1.042853310212e-02
H        -0.8295068757      -0.5201756398      -0.2071412403   2.000548291471e-02   2.021697481730e-02   6.720064368121e-03
4
Properties=species:S:1:pos:R:3:forces:R:3 energy=-7.658077973504e+01 dipole="-2.7195207536e-01 1.3456120907e-02 -1.0192338592e+00" quadrupole="-2.4043936440e+00 3.0530394792e-02 4.0417185891e-01 3.0530394792e-02 -1.8440163620e+00 3.0429198740e-02 4.0417185891e-01 3.0429198740e-02 -4.0500073529e+00" polarizability="7.8311074726e+00 5.0999994063e-01 6.8010472416e-01 5.0999994063e-01 8.3471119001e+00 -1.4140754298e-02 6.8010472416e-01 -1.4140754298e-02 6.7050332961e+00" charge=1 multiplicity=1 method=wB97M-V basis=def2-svpd config_type=h3o+ sample_index=215 temperature=300.0 units=atomic
O         0.0184474200       0.0019283868       0.0963798446  -1.369923666573e-01   4.864032078459e-02  -5.426377057291e-02
H        -0.0915294043       0.9701350981      -0.3826199428   1.756072456870e-02  -5.021543149356e-02   3.265640571733e-02
H         0.6578357320      -0.4903229070      -0.3427426234   6.935336324958e-02  -3.061524715971e-02  -2.821432505157e-02
H        -0.8615034012      -0.5020850931      -0.4348384372   5.007396975707e-02   3.218811484336e-02   4.981597797791e-02
4
Properties=species:S:1:pos:R:3:forces:R:3 energy=-7.659423276513e+01 dipole="-1.5482271001e-01 2.6014874610e-01 -5.4652872654e-01" quadrupole="-1.5787515608e+00 -5.1101074970e-01 2.1086040420e-01 -5.1101074970e-01 -2.0188156677e+00 -3.0456614156e-01 2.1086040420e-01 -3.0456614156e-01 -4.7201872874e+00" polarizability="7.1039052869e+00 -2.8275182158e-01 1.8272554913e-01 -2.8275182158e-01 7.5528238553e+00 -3.5876970307e-01 1.8272554913e-01 -3.5876970307e-01 5.7896769434e+00" charge=1 multiplicity=1 method=wB97M-V basis=def2-svpd config_type=h3o+ sample_index=216 temperature=300.0 units=atomic
O         0.0120253035      -0.0181623348       0.0599401255  -7.749839245975e-02   1.232833226513e-01   1.606771352449e-03
H        -0.1358888212       1.0144223060      -0.2457342210   3.278290430664e-02  -5.473927454288e-02   2.230886607911e-02
H         0.8255254849      -0.4202010133      -0.1354315506   4.446622832952e-02  -3.131518025968e-02  -2.158404290533e-02
H        -0.8820687888      -0.2957567295      -0.1955111683   2.477225607920e-04  -3.722881413626e-02  -2.334095596940e-03
4
Properties=species:S:1:pos:R:3:forces:R:3 energy=-7.659222469220e+01 dipole="2.3686629464e-03 -2.0742439592e-01 -3.6537563427e-01" quadrupole="-1.2641251560e+00 1.4033558591e-01 -2.0121354987e-02 1.4033558591e-01 -1.9825242976e+00 1.4225964228e-01 -2.0121354987e-02 1.4225964228e-01 -4.8841519542e+00" polarizability="7.9434470320e+00 8.9210701421e-02 -1.0638615054e-02 8.9210701421e-02 6.7680210890e+00 1.8385010271e-01 -1.0638615054e-02 1.8385010271e-01 5.6841060885e+00" charge=1 multiplicity=1 method=wB97M-V basis=def2-svpd config_type=h3o+ sample_index=217 temperature=300.0 units=atomic
O        -0.0015476174       0.0109454387       0.0471769258  -3.899222967064e-03  -2.046789005453e-01   9.815854079488e-03
H         0.0284674314       0.8690779150      -0.0936383289  -8.489605031614e-04   1.464265251723e-01  -2.640602297974e-02
H         0.8951090140      -0.5008495760      -0.1430712249  -4.453112848619e-02   2.396187409986e-02   8.517044452277e-03
H        -0.8988052340      -0.5358937740      -0.1353309446   4.927808627270e-02   3.428707030583e-02   8.077207997542e-03
4
Properties=species:S:1:pos:R:3:forces:R:3 energy=-7.660394214228e+01 dipole="-1.3162406638e-01 9.3386581949e-02 -6.5313365973e-01" quadrupole="-2.0513385147e+00 9.8299973023e-02 1.3350147225e-01 9.8299973023e-02 -1.7378791874e+00 -8.4782400144e-02 1.3350147225e-01 -8.4782400144e-02 -4.5873287271e+00" polarizability="6.9441422216e+00 2.7615395532e-01 1.9876778166e-01 2.7615395532e-01 7.4737012349e+00 -1.4252808219e-01 1.9876778166e-01 -1.4252808219e-01 5.7880149591e+00" charge=1 multiplicity=1 method=wB97M-V basis=def2-svpd config_type=h3o+ sample_index=218 temperature=300.0 units=atomic
O         0.0078389860      -0.0043463975       0.0679114970  -1.140843563144e-01   7.746749478108e-02   2.154013907107e-03
H        -0.0243432579       0.9942341615      -0.2485306073   5.600253225588e-03  -4.405500124599e-02   1.537791043466e-02
H         0.7447163879      -0.4432576550      -0.2082810402   8.168647457174e-02  -4.574979554882e-02  -2.971308079879e-02
H        -0.8458088866      -0.4734755151      -0.2474061063   2.679901004576e-02   1.234480768095e-02   1.217571808158e-02
4
Properties=species:S:1:pos:R:3:forces:R:3 energy=-7.660384363857e+01 dipole="-2.6269273622e-02 -1.0957015179e-01 -5.2218128732e-01" quadrupole="-1.6072433394e+00 4.7912039239e-01 -3.2928088118e-02 4.7912039239e-01 -2.0426179666e+00 7.9805594030e-02 -3.2928088118e-02 7.9805594030e-02 -4.7120888884e+00" polarizability="7.3384815803e+00 3.9640827827e-01 2.8627194384e-02 3.9640827827e-01 6.7182221208e+00 1.2521796458e-01 2.8627194384e-02 1.2521796458e-01 5.6241654100e+00" charge=1 multiplicity=1 method=wB97M-V basis=def2-svpd config_type=h3o+ sample_index=219 temperature=300.0 units=atomic
O        -0.0024253536       0.0056239593       0.0584003076  -4.190399918049e-02  -9.726151776073e-02   1.229745047309e-02
H         0.0853265750       0.8840165376      -0.1689728845  -1.022057442786e-02   8.072103989952e-02  -2.015559399328e-02
H         0.8252550324      -0.4203819053      -0.1975230453   1.004237398638e-02  -1.718304538370e-02  -1.123514585644e-03
H        -0.8717622788      -0.5458671887      -0.1853689859   4.207572825236e-02   3.372660251596e-02   8.979386807162e-03
4
Properties=species:S:1:pos:R:3:forces:R:3 energy=-7.658958518612e+01 dipole="-1.5882942361e-01 2.7612155120e-01 -6.8677848419e-01" quadrupole="-1.8472580379e+00 -4.3986458297e-01 2.2202554953e-01 -4.3986458297e-01 -2.0933346858e+00 -3.4488943128e-01 2.2202554953e-01 -3.4488943128e-01 -4.5146768560e+00" polarizability="6.7796949505e+00 -2.2202934647e-01 2.1652834693e-01 -2.2202934647e-01 7.4498687205e+00 -4.5952308386e-01 2.1652834693e-01 -4.5952308386e-01 5.7982625054e+00" charge=1 multiplicity=1 method=wB97M-V basis=def2-svpd config_type=h3o+ sample_index=220 temperature=300.0 units=atomic
O         0.0118916888      -0.0187956787       0.0701296134  -9.563891821356e-02   1.422497560797e-01   1.285004671328e-02
H        -0.1263723180       1.0009885098      -0.3020341048   3.061909680362e-02  -5.263101716206e-02   2.922679819177e-02
H         0.7840660647      -0.4006617452      -0.1892370313   8.004858781109e-02  -4.875988180458e-02  -3.646003657807e-02
H        -0.8479901139      -0.2914774861      -0.2486450250  -1.502964612034e-02  -4.085596448097e-02  -5.614993780694e-03
4
Properties=species:S:1:pos:R:3:forces:R:3 energy=-7.660022028920e+01 dipole="-7.8503093343e-02 1.5981057986e-02 -6.2847293831e-01" quadrupole="-2.5135628007e+00 1.5631361455e-01 7.3975872816e-02 1.5631361455e-01 -1.0916000537e+00 7.8700939441e-02 7.3975872816e-02 7.8700939441e-02 -4.6563208691e+00" polarizability="6.8622624310e+00 2.9405390392e-01 1.3417892534e-01 2.9405390392e-01 8.0651082133e+00 -3.0670384304e-03 1.3417892534e-01 -3.0670384304e-03 5.8683391038e+00" charge=1 multiplicity=1 method=wB97M-V basis=def2-svpd config_type=h3o+ sample_index=221 temperature=300.0 units=atomic
O         0.0045833064       0.0050179597       0.0661454304  -7.157836246447e-02   4.677592295687e-02  -5.522289031691e-03
H        -0.0001066507       1.0394376009      -0.2120941174   9.515708836451e-04  -5.946613413910e-02   9.952471054854e-03
H         0.6991295438      -0.5348823794      -0.2203980281   6.526083818047e-02  -1.888833098261e-02  -1.632522960496e-02
H        -0.7723613885      -0.5770341679      -0.2432656030   5.365740660588e-03   3.157673135662e-02   1.189179598344e-02
4
Properties=species:S:1:pos:R:3:forces:R:3 energy=-7.660220945628e+01 dipole="-1.0377331512e-01 1.1778753075e-01 -8.1765542020e-01" quadrupole="-2.3395023188e+00 -1.6677718858e-02 1.3079692855e-01 -1.6677718858e-02 -1.7568551257e+00 -1.1429080278e-01 1.3079692855e-01 -1.1429080278e-01 -4.3503717385e+00" polarizability="6.8723876267e+00 1.3735521153e-01 1.9157505450e-01 1.3735521153e-01 7.7373981311e+00 -2.3729502874e-01 1.9157505450e-01 -2.3729502874e-01 5.9999460012e+00" charge=1 multiplicity=1 method=wB97M-V basis=def2-svpd config_type=h3o+ sample_index=222 temperature=300.0 units=atomic
O         0.0069456900      -0.0050010505       0.0805309858  -7.918826197351e-02   8.254443907455e-02  -1.492382597549e-02
H        -0.0372606945       0.9993297312      -0.3178746534   8.116927428854e-03  -5.435148645503e-02   2.633333303435e-02
H         0.7224164101      -0.4557424735      -0.2769066397   6.542826522288e-02  -3.221794736518e-02  -2.424904993675e-02
H        -0.7963036766      -0.4553204667      -0.3115842459   5.645202137184e-03   4.025372758749e-03   1.284786806961e-02
4
Properties=species:S:1:pos:R:3:forces:R:3 energy=-7.659216503722e+01 dipole="-1.5854476119e-02 -1.6528694941e-01 -9.2720751498e-01" quadrupole="-2.3944203438e+00 3.2406904059e-01 -1.6907206831e-02 3.2406904059e-01 -2.3436704013e+00 2.2337585877e-01 -1.6907206831e-02 2.2337585877e-01 -4.0312535374e+00" polarizability="6.8474992257e+00 3.0369112185e-01 7.2226662537e-02 3.0369112185e-01 6.4633762714e+00 3.4141414713e-01 7.2226662537e-02 3.4141414713e-01 5.8576788728e+00" charge=1 multiplicity=1 method=wB97M-V basis=def2-svpd config_type=h3o+ sample_index=223 temperature=300.0 units=atomic
O        -0.0012767652       0.0116076282       0.0896661077  -3.766785493127e-02  -1.318738502144e-01   1.273359219234e-02
H         0.0631687403       0.7958537684      -0.3188862914  -6.296458579930e-03   1.230925881777e-01  -4.645647399349e-02
H         0.7176428474      -0.4376936950      -0.3701158509   3.224560405415e-02  -1.833674477462e-02   7.460680256655e-03
H        -0.7603840466      -0.5353850494      -0.3637091729   1.171837526860e-02   2.711622644046e-02   2.626294294384e-02
4
Properties=species:S:1:pos:R:3:forces:R:3 energy=-7.660931294351e+01 dipole="-4.1539426939e-02 -8.2917921593e-02 -7.7433561327e-01" quadrupole="-2.3450217940e+00 -7.5125310143e-02 6.0775388245e-02 -7.5125310143e-02 -1.5908576032e+00 1.5104628435e-01 6.0775388245e-02 1.5104628435e-01 -4.4591944416e+00" polarizability="7.2801766160e+00 -2.4143644782e-03 7.1361243773e-02 -2.4143644782e-03 7.7184542364e+00 1.4537913463e-01 7.1361243773e-02 1.4537913463e-01 6.0471406064e+00" charge=1 multiplicity=1 method=wB97M-V basis=def2-svpd config_type=h3o+ sample_index=224 temperature=300.0 units=atomic
O         0.0033191951       0.0083182732       0.0773108725  -1.699166100759e-02  -2.667768140322e-02  -3.315818042555e-02
H        -0.0296411179       0.9575435703      -0.2622778380   5.316197645647e-03  -1.971210281693e-02   5.003177012589e-03
H         0.7539022422      -0.5516228862      -0.2879066269   1.012677853338e-03   2.239835791466e-02   1.038368782438e-02
H        -0.7773800755      -0.5309087647      -0.3044866787   1.066369177203e-02   2.399555402837e-02   1.777284463026e-02
4
Properties=species:S:1:pos:R:3:forces:R:3 energy=-7.659708719656e+01 dipole="4.5338033762e-02 6.5078106418e-02 -5.7755968392e-02" quadrupole="-1.1766202961e+00 -4.7635019387e-01 2.6041690458e-02 -4.7635019387e-01 -2.3359670237e+00 -8.4035086854e-02 2.6041690458e-02 -8.4035086854e-02 -4.8843060743e+00" polarizability="6.9140617342e+00 -3.4500893120e-01 7.8686201905e-03 -3.4500893120e-01 6.2031279381e+00 -2.9385559152e-02 7.8686201905e-03 -2.9385559152e-02 5.3449347633e+00" charge=1 multiplicity=1 method=wB97M-V basis=def2-svpd config_type=h3o+ sample_index=225 temperature=300.0 units=atomic
O         0.0016132505      -0.0083713055       0.0266683651   7.488995808973e-02  -2.963551198309e-02   7.997136100361e-03
H        -0.0809703011       0.8962125538      -0.0396981250   1.381009674437e-02   8.310355373125e-02  -5.180828542226e-03
H         0.9166655161      -0.4402917822       0.0020449161  -3.077189353047e-02   2.391459242901e-03  -6.280467546805e-04
H        -0.8615089151      -0.3148547889      -0.0060513990  -5.793210658409e-02  -5.585997589840e-02  -2.182880984911e-03
4
Properties=species:S:1:pos:R:3:forces:R:3 energy=-7.659513638953e+01 dipole="-2.0118121652e-01 -2.5336998341e-01 -6.6313941531e-02" quadrupole="-1.9688627564e+00 -2.8005690685e-01 1.5468588289e-01 -2.8005690685e-01 -1.2032782819e+00 1.9625789989e-01 1.5468588289e-01 1.9625789989e-01 -4.9911234435e+00" polarizability="7.3677601668e+00 1.1416448669e-01 1.2000247201e-01 1.1416448669e-01 7.3756199948e+00 1.2566966654e-01 1.2000247201e-01 1.2566966654e-01 5.6624319126e+00" charge=1 multiplicity=1 method=wB97M-V basis=def2-svpd config_type=h3o+ sample_index=226 temperature=300.0 units=atomic
O         0.0161536456       0.0186319523       0.0273156086  -6.883353208894e-02  -1.269777820035e-01  -8.136018856987e-03
H        -0.1324632747       0.9367187832       0.0346808966   1.176462302331e-02   5.471651176892e-02  -2.326605782698e-04
H         0.7390639518      -0.6541547696      -0.0038528009   1.520763741892e-02   2.966263991611e-02   1.417211625954e-03
H        -0.8650796751      -0.5737811792      -0.0845256588   4.186125639901e-02   4.260152138989e-02   6.953365226213e-03
4
Properties=species:S:1:pos:R:3:forces:R:3 energy=-7.660722820882e+01 dipole="5.0736308086e-02 -9.9154196581e-02 -6.2881048023e-01" quadrupole="-1.7262540124e+00 4.7912598625e-01 -1.1790767387e-01 4.7912598625e-01 -1.9853603507e+00 8.8278619159e-02 -1.1790767387e-01 8.8278619159e-02 -4.6372213797e+00" polarizability="7.5552457280e+00 3.1460050309e-01 -7.6903518631e-02 3.1460050309e-01 7.0709759007e+00 1.3410419653e-01 -7.6903518631e-02 1.3410419653e-01 5.8187118231e+00" charge=1 multiplicity=1 method=wB97M-V basis=def2-svpd config_type=h3o+ sample_index=227 temperature=300.0 units=atomic
O        -0.0071298682       0.0058103225       0.0662323711   2.524394191301e-03  -7.084403004134e-02  -8.002384154482e-03
H         0.1111469096       0.9010372106      -0.2102949378  -1.641328881563e-02   4.098448219899e-02  -1.136253694184e-02
H         0.8416347090      -0.4296532968      -0.2513262888  -1.728973263614e-02  -2.804631028752e-03   1.112101457682e-02
H        -0.8386850505      -0.5564345110      -0.2156855402   3.117251399911e-02   3.265779949853e-02   8.243144378670e-03
4
Properties=species:S:1:pos:R:3:forces:R:3 energy=-7.659273983822e+01 dipole="-2.9958400946e-01 8.7942393407e-02 -7.0198855782e-01" quadrupole="-1.6963908061e+00 -3.7861930498e-01 3.8912035393e-01 -3.7861930498e-01 -2.0554565209e+00 -1.1174368493e-01 3.8912035393e-01 -1.1174368493e-01 -4.5628970377e+00" polarizability="7.6340636602e+00 7.3399762360e-02 4.7259510606e-01 7.3399762360e-02 7.4432517616e+00 -1.1565970931e-01 4.7259510606e-01 -1.1565970931e-01 5.9964091401e+00" charge=1 multiplicity=1 method=wB97M-V basis=def2-svpd config_type=h3o+ sample_index=228 temperature=300.0 units=atomic
O         0.0210496442      -0.0052365141       0.0712994719  -1.623638152918e-01   6.575417482118e-02  -1.027654650941e-02
H        -0.1657651090       0.9559607588      -0.2692082006   3.480057897637e-02  -2.939582529894e-02   1.529017970716e-02
H         0.7535954107      -0.4784852277      -0.1921098195   6.814214404307e-02  -3.651107443507e-02  -3.193089103137e-02
H        -0.9246668954      -0.3856182506      -0.2972323892   5.941721035540e-02   1.514651282037e-04   2.691092576330e-02
4
Properties=species:S:1:pos:R:3:forces:R:3 energy=-7.660452767833e+01 dipole="-3.5540157928e-02 -1.3179500997e-01 -6.0307033773e-01" quadrupole="-2.6204496269e+00 -3.1781542706e-03 3.9915376123e-02 -3.1781542706e-03 -1.2079583563e+00 2.3294562222e-01 3.9915376123e-02 2.3294562222e-01 -4.6292925601e+00" polarizability="6.6573765505e+00 5.8456928197e-02 5.1706803922e-02 5.8456928197e-02 7.4572156639e+00 1.8911580793e-01 5.1706803922e-02 1.8911580793e-01 5.7036600422e+00" charge=1 multiplicity=1 method=wB97M-V basis=def2-svpd config_type=h3o+ sample_index=229 temperature=300.0 units=atomic
O         0.0025493972       0.0137236333       0.0643645568  -2.099791679762e-02  -3.552181701325e-02   9.149095707297e-04
H        -0.0145805982       0.9676767508      -0.1775042775   2.412834489023e-03  -4.861791506858e-03  -7.409721495009e-03
H         0.6990861631      -0.5906088631      -0.2284808391   3.679291593357e-02   1.428635042756e-02  -8.343269041762e-04
H        -0.7253015525      -0.5888868436      -0.2412104151  -1.820988123410e-02   2.609592187916e-02   7.335206668237e-03
4
Properties=species:S:1:pos:R:3:forces:R:3 energy=-7.660043378385e+01 dipole="1.0178576813e-01 5.5163411512e-02 -4.8503689630e-01" quadrupole="-2.0912041945e+00 3.3033658708e-01 -1.3374597730e-01 3.3033658708e-01 -1.9844060484e+00 -4.8640941598e-02 -1.3374597730e-01 -4.8640941598e-02 -4.6112012721e+00" polarizability="6.0932780173e+00 1.3570252004e-01 -9.4007715102e-02 1.3570252004e-01 6.3034671669e+00 -6.7238426156e-02 -9.4007715102e-02 -6.7238426156e-02 5.2649183757e+00" charge=1 multiplicity=1 method=wB97M-V basis=def2-svpd config_type=h3o+ sample_index=230 temperature=300.0 units=atomic
O        -0.0088685563      -0.0025934471       0.0558292182   4.251323640307e-02   6.245544032271e-02   4.434659303278e-02
H         0.1002718578       0.9190720455      -0.1789245441  -1.864252591838e-02   2.698959879181e-02  -4.541420368483e-03
H         0.7857606451      -0.3889861288      -0.1880508923   6.096861395386e-02  -4.501844060258e-02  -1.459689429869e-02
H        -0.7441144415      -0.4808580419      -0.1437420970  -8.484376206107e-02  -4.442951002385e-02  -2.520688981741e-02
4
Properties=species:S:1:pos:R:3:forces:R:3 energy=-7.658487531835e+01 dipole="-1.1735522040e-01 -2.7539384357e-01 -4.0133091759e-01" quadrupole="-1.9368591362e+00 -5.3921360722e-01 1.6968796074e-01 -5.3921360722e-01 -1.7287984166e+00 2.4041647971e-01 1.6968796074e-01 2.4041647971e-01 -4.7625380884e+00" polarizability="6.9988328913e+00 -1.8099527616e-01 1.2819558157e-01 -1.8099527616e-01 6.5735572013e+00 2.2702036820e-01 1.2819558157e-01 2.2702036820e-01 5.5020932094e+00" charge=1 multiplicity=1 method=wB97M-V basis=def2-svpd config_type=h3o+ sample_index=231 temperature=300.0 units=atomic
O         0.0131454973       0.0180371719       0.0498046279  -4.114940696551e-03  -2.263344475764e-01   2.101512406475e-02
H        -0.1576592677       0.8467700092      -0.0872656578  -4.192284053146e-03   1.765490241141e-01  -3.308034369580e-02
H         0.7678620467      -0.6398528729      -0.1305508125  -4.413536006194e-03   4.070613932408e-02   1.668818042177e-03
H        -0.8205594064      -0.4880231581      -0.1962332855   1.271445872912e-02   9.081777187322e-03   1.039661821381e-02
4
Properties=species:S:1:pos:R:3:forces:R:3 energy=-7.658240772500e+01 dipole="-1.0447759391e-01 -4.5040677469e-03 -7.8567396279e-01" quadrupole="-2.7938121720e+00 2.2863233009e-01 1.0747192694e-01 2.2863233009e-01 -1.6740498409e+00 8.5499176181e-02 1.0747192694e-01 8.5499176181e-02 -4.2564910788e+00" polarizability="6.0029694190e+00 3.8282134024e-01 2.2877301528e-01 3.8282134024e-01 6.8559120614e+00 -1.0642008549e-02 2.2877301528e-01 -1.0642008549e-02 5.5416173803e+00" charge=1 multiplicity=1 method=wB97M-V basis=def2-svpd config_type=h3o+ sample_index=232 temperature=300.0 units=atomic
O         0.0064623997       0.0047665981       0.0781617387  -1.497024212186e-01   9.607611624095e-02   5.916163794220e-02
H         0.0063106647       0.9371577940      -0.2770894623  -1.159094318549e-03  -9.728524323838e-03   4.783787938615e-03
H         0.6082194417      -0.4673084791      -0.2795045747   1.777894216769e-01  -1.002524827505e-01  -7.465216929737e-02
H        -0.7179395865      -0.5379404500      -0.3117443256  -2.692762055630e-02   1.390251623235e-02   1.070644901965e-02
4
Properties=species:S:1:pos:R:3:forces:R:3 energy=-7.660066222949e+01 dipole="-3.4589364071e-02 -8.1957417610e-02 -7.4163401196e-01" quadrupole="-1.9222662346e+00 4.1183152967e-01 -1.4373229678e-03 4.1183152967e-01 -1.5307558223e+00 1.2021841553e-01 -1.4373229678e-03 1.2021841553e-01 -4.6129296049e+00" polarizability="8.1781477366e+00 4.7667899714e-01 8.1732429245e-02 4.7667899714e-01 8.3432043173e+00 1.3627216312e-01 8.1732429245e-02 1.3627216312e-01 6.3063448794e+00" charge=1 multiplicity=1 method=wB97M-V basis=def2-svpd config_type=h3o+ sample_index=233 temperature=300.0 units=atomic
O        -0.0005129116       0.0065891656       0.0746275048  -2.329178003737e-02  -2.522565004713e-02  -4.600003105909e-02
H         0.0621490966       0.9875047054      -0.2528980386  -1.126623827301e-02  -3.756210125228e-02   1.037856601225e-02
H         0.8079186168      -0.4909617765      -0.2806955268  -1.578182070460e-02   1.378101426898e-02   1.292034538436e-02
H        -0.8618563855      -0.5939413689      -0.2780986442   5.033702397742e-02   4.900976942594e-02   2.269974015115e-02
4
Properties=species:S:1:pos:R:3:forces:R:3 energy=-7.660017766882e+01 dipole="-1.7124908939e-01 1.4468074755e-01 -6.4242203362e-01" quadrupole="-1.9771937006e+00 -3.1434590799e-01 2.1880796351e-01 -3.1434590799e-01 -2.0307901800e+00 -1.6448658470e-01 2.1880796351e-01 -1.6448658470e-01 -4.5360668005e+00" polarizability="6.6372325793e+00 -6.2390719550e-02 2.2503197112e-01 -6.2390719550e-02 6.9778252582e+00 -2.1453353151e-01 2.2503197112e-01 -2.1453353151e-01 5.6210220715e+00" charge=1 multiplicity=1 method=wB97M-V basis=def2-svpd config_type=h3o+ sample_index=234 temperature=300.0 units=atomic
O         0.0126487679      -0.0088761491       0.0670980566  -1.157650220126e-01   1.027045832776e-01   1.819524683036e-02
H        -0.1133688365       0.9606430953      -0.2572507640   2.535882690330e-02  -2.728897443925e-02   1.508675520414e-02
H         0.7493856223      -0.4451367729      -0.1854228042   9.157406343728e-02  -5.200092553034e-02  -3.615390350456e-02
H        -0.8384246691      -0.3654834327      -0.2485998960  -1.170722753724e-03  -2.341462464965e-02   2.870460621186e-03
4
Properties=species:S:1:pos:R:3:forces:R:3 energy=-7.658856069977e+01 dipole="-3.8256086722e-02 -2.6331297540e-01 -5.5032571369e-01" quadrupole="-1.7324876521e+00 5.4477180244e-01 -2.1985090460e-02 5.4477180244e-01 -1.8229116413e+00 2.4952971996e-01 -2.1985090460e-02 2.4952971996e-01 -4.7027357607e+00" polarizability="7.5762335139e+00 4.6808524637e-01 5.3125855400e-02 4.6808524637e-01 6.8961215978e+00 3.0326301430e-01 5.3125855400e-02 3.0326301430e-01 5.7246023250e+00" charge=1 multiplicity=1 method=wB97M-V basis=def2-svpd config_type=h3o+ sample_index=235 temperature=300.0 units=atomic
O        -0.0024220829       0.0159157987       0.0601480860  -4.173773656084e-02  -2.032440792257e-01   1.626243497699e-02
H         0.0937396422       0.8574861355      -0.1486564879  -2.279394254615e-03   1.431665414845e-01  -3.886992984097e-02
H         0.8068613875      -0.4821552939      -0.2216265047  -4.033747576416e-03   4.368217009184e-03   7.082739006348e-03
H        -0.8618335114      -0.6222524034      -0.2094839386   4.804961246162e-02   5.570309142588e-02   1.552091474562e-02
4
Properties=species:S:1:pos:R:3:forces:R:3 energy=-7.661213764391e+01 dipole="-6.6620863666e-02 -3.8172517827e-02 -3.0195571149e-01" quadrupole="-1.7338852241e+00 4.7793011272e-02 5.1583296453e-02 4.7793011272e-02 -1.8159347085e+00 2.8472340679e-02 5.1583296453e-02 2.8472340679e-02 -4.8496630034e+00" polarizability="6.8644343456e+00 1.2365412100e-01 5.5048194727e-02 1.2365412100e-01 6.6989159878e+00 3.2097028869e-02 5.5048194727e-02 3.2097028869e-02 5.4599955232e+00" charge=1 multiplicity=1 method=wB97M-V basis=def2-svpd config_type=h3o+ sample_index=236 temperature=300.0 units=atomic
O         0.0038765748       0.0025611359       0.0430408548  -4.993113641761e-02  -3.092872460000e-02   1.134257535164e-02
H        -0.0136590892       0.9345324002      -0.0956944183   2.290840003347e-03   3.701150131177e-02  -7.002641516429e-03
H         0.8053615962      -0.4779968283      -0.0953782168   3.070449309524e-02  -1.539009255140e-02  -6.677972030924e-03
H        -0.8537274909      -0.4901309237      -0.1147259817   1.693254177857e-02   9.304074918638e-03   2.343557417392e-03
4
Properties=species:S:1:pos:R:3:forces:R:3 energy=-7.659655624783e+01 dipole="-2.2903785984e-01 7.7117385648e-02 -3.5672282371e-01" quadrupole="-1.3310420595e+00 2.1230220164e-01 1.7370374855e-01 2.1230220164e-01 -1.8478730183e+00 -8.8109140456e-02 1.7370374855e-01 -8.8109140456e-02 -4.9131303275e+00" polarizability="7.6240393080e+00 4.4883943631e-01 1.9698920910e-01 4.4883943631e-01 7.3955862239e+00 -6.2237404556e-02 1.9698920910e-01 -6.2237404556e-02 5.7469878261e+00" charge=1 multiplicity=1 method=wB97M-V basis=def2-svpd config_type=h3o+ sample_index=237 temperature=300.0 units=atomic
O         0.0119375475      -0.0063154848       0.0465993008  -1.570239881439e-01   5.780585242740e-02   1.285431182310e-03
H        -0.0310456832       0.9910968726      -0.1402764355   7.203087758192e-03  -2.938646609543e-02   5.690097176386e-03
H         0.8059814214      -0.4130521340      -0.0815050535   7.894928899495e-02  -4.899210482345e-02  -1.768549093935e-02
H        -0.9659458010      -0.4695118528      -0.1410801120   7.087142768984e-02   2.057008945254e-02   1.070875574104e-02
4
Properties=species:S:1:pos:R:3:forces:R:3 energy=-7.659954259164e+01 dipole="-1.3301270104e-02 -1.7291527407e-01 -4.4923260463e-01" quadrupole="-1.3205419380e+00 -9.9090709776e-02 2.5812405147e-02 -9.9090709776e-02 -1.7103875176e+00 1.4298854445e-01 2.5812405147e-02 1.4298854445e-01 -4.9217305987e+00" polarizability="8.4658645399e+00 -5.5925408458e-02 2.1955338237e-02 -5.5925408458e-02 7.6082003765e+00 1.8938995812e-01 2.1955338237e-02 1.8938995812e-01 5.9749481013e+00" charge=1 multiplicity=1 method=wB97M-V basis=def2-svpd config_type=h3o+ sample_index=238 temperature=300.0 units=atomic
O         0.0017294816       0.0096536265       0.0531330184  -3.751702968498e-03  -1.083971822372e-01  -1.311596965945e-02
H        -0.0231676305       0.9360979035      -0.1291772437   3.046287844019e-03   3.460416464475e-02  -1.047129633658e-02
H         0.9011040050      -0.5535916069      -0.1647907805  -5.390006724424e-02   3.960769972311e-02   1.104978541698e-02
H        -0.9056095469      -0.5294125898      -0.1734329588   5.460575063687e-02   3.418386687650e-02   1.254097761584e-02
4
Properties=species:S:1:pos:R:3:forces:R:3 energy=-7.660063277641e+01 dipole="1.0130621019e-02 -4.0245866333e-02 -9.4378682955e-01" quadrupole="-1.7921547448e+00 1.9875938111e-01 -4.3316902255e-02 1.9875938111e-01 -2.6618540160e+00 8.6725760899e-03 -4.3316902255e-02 8.6725760899e-03 -4.1076270845e+00" polarizability="7.8022386003e+00 1.5478154016e-01 -2.0849045491e-02 1.5478154016e-01 6.7920012026e+00 1.4358449122e-01 -2.0849045491e-02 1.4358449122e-01 6.1955296217e+00" charge=1 multiplicity=1 method=wB97M-V basis=def2-svpd config_type=h3o+ sample_index=239 temperature=300.0 units=atomic
O        -0.0021905971       0.0008997564       0.0909156373  -3.705241057598e-03  -6.337789656296e-02  -3.806293922771e-02
H         0.0443514427       0.8221882039      -0.3564065472  -7.676744986146e-03   6.073905706858e-02  -1.005733904386e-02
H         0.8347079493      -0.3856820420      -0.3636990101  -2.331990887628e-02  -7.905137325191e-03   2.360269492720e-02
H        -0.8440118600      -0.4423179335      -0.3527441684   3.469706308533e-02   1.054749599454e-02   2.452233690590e-02
4
Properties=species:S:1:pos:R:3:forces:R:3 energy=-7.660741957619e+01 dipole="-4.1840119173e-03 -9.2381047292e-02 -7.5115935778e-01" quadrupole="-2.0684312308e+00 -5.7668034673e-02 1.1568174428e-02 -5.7668034673e-02 -1.6087436061e+00 1.4120959266e-01 1.1568174428e-02 1.4120959266e-01 -4.5524695551e+00" polarizability="7.8166442814e+00 -4.9331810759e-02 4.5982880224e-03 -4.9331810759e-02 7.9725080950e+00 1.6260297352e-01 4.5982880224e-03 1.6260297352e-01 6.1814725378e+00" charge=1 multiplicity=1 method=wB97M-V basis=def2-svpd config_type=h3o+ sample_index=240 temperature=300.0 units=atomic
O         0.0006696320       0.0077820820       0.0754431467   5.525986760835e-05  -3.788524675668e-02  -4.233196673249e-02
H        -0.0121956360       0.9655351984      -0.2538294516   2.169076349681e-03  -2.340679450446e-02   5.855746304507e-03
H         0.8127455353      -0.5484717684      -0.2837908746  -2.791967659397e-02   3.273679915149e-02   1.828055491988e-02
H        -0.8112703981      -0.5335198939      -0.2871406909   2.569556393776e-02   2.855805689467e-02   1.819251874128e-02
4
Properties=species:S:1:pos:R:3:forces:R:3 energy=-7.658836277847e+01 dipole="-1.4565154834e-01 1.6545873905e-01 -7.1370060908e-01" quadrupole="-1.4197601449e+00 -1.0680027859e-01 1.8141751425e-01 -1.0680027859e-01 -1.6684493930e+00 -2.1609054470e-01 1.8141751425e-01 -2.1609054470e-01 -4.7261639559e+00" polarizability="8.7154209092e+00 1.0511486058e-01 2.4196483489e-01 1.0511486058e-01 9.0381142794e+00 -2.9818173428e-01 2.4196483489e-01 -2.9818173428e-01 6.5125309291e+00" charge=1 multiplicity=1 method=wB97M-V basis=def2-svpd config_type=h3o+ sample_index=241 temperature=300.0 units=atomic
O         0.0091985352      -0.0107214085       0.0722650656  -6.117532052426e-02   5.829522294528e-02  -4.946175055688e-02
H        -0.0610259522       1.0704216616      -0.2901353670   1.346088450514e-02  -7.877955716673e-02   2.846874440733e-02
H         0.8621348016      -0.4558208418      -0.2189580554  -2.045722474611e-02   4.871571989839e-03   1.092487217896e-04
H        -0.9483034078      -0.4350183291      -0.2648885024   6.816753221061e-02   1.561387162985e-02   2.088682369856e-02
4
Properties=species:S:1:pos:R:3:forces:R:3 energy=-7.660061210392e+01 dipole="-5.0018771226e-02 2.1096269401e-01 -7.9367348663e-01" quadrupole="-2.0912023807e+00 -6.1372197276e-02 6.6492636697e-02 -6.1372197276e-02 -1.8159057150e+00 -2.5866979663e-01 6.6492636697e-02 -2.5866979663e-01 -4.4270469173e+00" polarizability="7.0870879788e+00 5.8781216872e-03 8.3750595530e-02 5.8781216872e-03 8.0399857333e+00 -4.1910405179e-01 8.3750595530e-02 -4.1910405179e-01 6.0852755567e+00" charge=1 multiplicity=1 method=wB97M-V basis=def2-svpd config_type=h3o+ sample_index=242 temperature=300.0 units=atomic
O         0.0034460635      -0.0124540554       0.0784679925  -3.307368469867e-02   1.013450209154e-01  -2.069756709376e-02
H        -0.0262117734       1.0310192104      -0.3283161727   5.928961160276e-03  -6.713445716480e-02   3.286124901818e-02
H         0.7853484678      -0.4185594115      -0.2639278884   3.093490419754e-02  -2.179105063828e-02  -1.288457847191e-02
H        -0.8142852993      -0.4049609519      -0.2811381245  -3.792365093446e-03  -1.242478152020e-02   7.223264816764e-04
4
Properties=species:S:1:pos:R:3:forces:R:3 energy=-7.657955269341e+01 dipole="-1.0290829316e-01 -9.7669323050e-02 -7.5348843454e-01" quadrupole="-2.9534859696e+00 3.4263072415e-01 1.0118437844e-01 3.4263072415e-01 -1.2842923939e+00 2.3355406742e-01 1.0118437844e-01 2.3355406742e-01 -4.3636977207e+00" polarizability="6.2219849957e+00 5.2523971868e-01 2.4790662136e-01 5.2523971868e-01 7.2954508277e+00 1.5904144124e-01 2.4790662136e-01 1.5904144124e-01 5.6703278501e+00" charge=1 multiplicity=1 method=wB97M-V basis=def2-svpd config_type=h3o+ sample_index=243 temperature=300.0 units=atomic
O         0.0060130068       0.0124006141       0.0754789772  -1.328099917934e-01   4.846212495446e-02   3.940051564740e-02
H         0.0249991748       0.9565217202      -0.2407411801  -3.286701875575e-03  -1.226243623007e-02  -2.569477775007e-03
H         0.5833527784      -0.5240114847      -0.2772612576   1.535449025062e-01  -7.754288800622e-02  -5.634778945752e-02
H        -0.7045674321      -0.6228833666      -0.3072473499  -1.745188865247e-02   4.134393169273e-02   1.950982013321e-02
4
Properties=species:S:1:pos:R:3:forces:R:3 energy=-7.660062873449e+01 dipole="2.1499832209e-02 -1.6978212413e-01 -8.0569871947e-01" quadrupole="-2.6362441633e+00 2.6240873803e-01 -5.0632338665e-02 2.6240873803e-01 -1.3431582640e+00 2.9457980881e-01 -5.0632338665e-02 2.9457980881e-01 -4.4164299222e+00" polarizability="7.2236880938e+00 2.3390223750e-01 -4.9331216294e-03 2.3390223750e-01 7.9392603316e+00 3.0570592568e-01 -4.9331216294e-03 3.0570592568e-01 6.1311556552e+00" charge=1 multiplicity=1 method=wB97M-V basis=def2-svpd config_type=h3o+ sample_index=244 temperature=300.0 units=atomic
O        -0.0030831380       0.0152414753       0.0796661516  -5.148485894664e-03  -5.974524055221e-02  -3.581515930894e-02
H         0.0580253825       0.9530522813      -0.2549183701  -8.934099761468e-03  -1.215260748830e-02  -1.581388959919e-03
H         0.7190309722      -0.5583581697      -0.3264061484   9.944410354207e-03   2.494827711178e-02   1.695642529492e-02
H        -0.7277221658      -0.6304491514      -0.3109901342   4.133457504176e-03   4.695302343536e-02   2.044104741083e-02
4
Properties=species:S:1:pos:R:3:forces:R:3 energy=-7.661338679268e+01 dipole="3.7002186600e-02 3.7994451218e-02 -5.7704562541e-01" quadrupole="-1.8212903711e+00 -1.8625748490e-01 -1.6914345126e-02 -1.8625748490e-01 -1.8629863305e+00 -4.3746624920e-02 -1.6914345126e-02 -4.3746624920e-02 -4.6848218680e+00" polarizability="7.1522826747e+00 -2.1199243922e-01 -5.2714132594e-02 -2.1199243922e-01 7.2356959614e+00 -5.3140825803e-02 -5.2714132594e-02 -5.3140825803e-02 5.7318267499e+00" charge=1 multiplicity=1 method=wB97M-V basis=def2-svpd config_type=h3o+ sample_index=245 temperature=300.0 units=atomic
O        -0.0010372646      -0.0022152225       0.0624698613   3.937311040467e-02   2.451577807555e-02  -4.552993836072e-03
H        -0.0229654023       0.9646803755      -0.2133036264   4.548205097262e-03  -1.863242795050e-02   6.324910727060e-03
H         0.8478845371      -0.4853908606      -0.2044585271  -2.204205886045e-02   1.170698609079e-02   5.470770774455e-03
H        -0.8083254728      -0.4360057572      -0.1992980072  -2.187632045306e-02  -1.757808686819e-02  -7.247202351082e-03
4
Properties=species:S:1:pos:R:3:forces:R:3 energy=-7.661137123910e+01 dipole="1.0851577517e-02 -1.0211400496e-01 -4.8812989931e-01" quadrupole="-2.0030281608e+00 1.0522799905e-01 -2.1484938042e-02 1.0522799905e-01 -1.4230491428e+00 1.3477427592e-01 -2.1484938042e-02 1.3477427592e-01 -4.8136685056e+00" polarizability="7.3416248742e+00 7.5729427250e-02 -1.0412807307e-02 7.5729427250e-02 7.5616702263e+00 1.2327917997e-01 -1.0412807307e-02 1.2327917997e-01 5.7879837009e+00" charge=1 multiplicity=1 method=wB97M-V basis=def2-svpd config_type=h3o+ sample_index=246 temperature=300.0 units=atomic
O        -0.0014801573       0.0087759535       0.0560586961  -2.044421075664e-04  -4.480704365744e-02  -9.331503166511e-03
H         0.0234198254       0.9733642407      -0.1473521141  -3.775571472677e-03  -6.646676424406e-03  -3.731359142002e-03
H         0.8094994271      -0.5396306710      -0.1871323640  -1.179057546144e-02   2.191182788134e-02   6.524916659871e-03
H        -0.8092308962      -0.5665496036      -0.1797330270   1.577424784520e-02   2.953237327699e-02   6.540442596580e-03
4
Properties=species:S:1:pos:R:3:forces:R:3 energy=-7.659439963363e+01 dipole="-4.7274913000e-02 1.9316553376e-01 -5.2084041607e-01" quadrupole="-2.0790975638e+00 1.4986618078e-01 2.6832175105e-02 1.4986618078e-01 -1.7990007541e+00 -1.8506000596e-01 2.6832175105e-02 -1.8506000596e-01 -4.6364454611e+00" polarizability="6.2076152683e+00 1.8290887467e-01 5.6190778994e-02 1.8290887467e-01 6.9802290936e+00 -2.5000391335e-01 5.6190778994e-02 -2.5000391335e-01 5.4437246065e+00" charge=1 multiplicity=1 method=wB97M-V basis=def2-svpd config_type=h3o+ sample_index=247 temperature=300.0 units=atomic
O         0.0021062484      -0.0113165271       0.0581713449  -8.911811237803e-02   1.500660168664e-01   3.826836611071e-02
H         0.0142862705       1.0010370681      -0.2165637139  -3.154748338567e-03  -4.486102791427e-02   1.500163014993e-02
H         0.7529048249      -0.3839844711      -0.1605974841   1.324198016502e-01  -7.705523065210e-02  -3.981021753029e-02
H        -0.8008905860      -0.4282011778      -0.1710965650  -4.014939299940e-02  -2.813725981046e-02  -1.346112651090e-02
4
Properties=species:S:1:pos:R:3:forces:R:3 energy=-7.660819524110e+01 dipole="-7.7691793972e-02 1.1317397435e-01 -4.3742471939e-01" quadrupole="-1.8721473121e+00 -1.6102620164e-01 8.8463604434e-02 -1.6102620164e-01 -1.8902013036e+00 -1.0916055928e-01 8.8463604434e-02 -1.0916055928e-01 -4.7337495607e+00" polarizability="6.5191040342e+00 -4.0520796424e-02 7.3562761494e-02 -4.0520796424e-02 6.8065518921e+00 -1.2127547952e-01 7.3562761494e-02 -1.2127547952e-01 5.4498653430e+00" charge=1 multiplicity=1 method=wB97M-V basis=def2-svpd config_type=h3o+ sample_index=248 temperature=300.0 units=atomic
O         0.0059041415      -0.0069212918       0.0524137534  -4.976497128051e-02   8.090201885096e-02   1.938852745666e-02
H        -0.0550334993       0.9696029961      -0.1731220994   1.192229183541e-02  -1.774312193676e-02   5.547986702019e-03
H         0.7883971815      -0.4460323816      -0.1267010802   6.203720532852e-02  -3.693744623734e-02  -1.807141472375e-02
H        -0.8278397487      -0.4051850943      -0.1561910843  -2.418885686588e-02  -2.621586253239e-02  -6.866688151733e-03
4
Properties=species:S:1:pos:R:3:forces:R:3 energy=-7.659734128779e+01 dipole="2.3052552893e-01 1.0607864412e-01 -8.0319375752e-01" quadrupole="-1.8124250282e+00 1.7679403609e-01 -3.0571716250e-01 1.7679403609e-01 -2.2818812303e+00 -1.5372713652e-01 -3.0571716250e-01 -1.5372713652e-01 -4.3715460038e+00" polarizability="7.3731331205e+00 -1.5167848660e-01 -4.1353308458e-01 -1.5167848660e-01 7.2048932751e+00 -1.7037217133e-01 -4.1353308458e-01 -1.7037217133e-01 5.9925829988e+00" charge=1 multiplicity=1 method=wB97M-V basis=def2-svpd config_type=h3o+ sample_index=249 temperature=300.0 units=atomic
O        -0.0155635950      -0.0075880328       0.0792421396   1.435052090190e-01   6.569339841329e-02  -1.101419112964e-02
H         0.1065715349       0.9294693469      -0.3184508978  -2.209931244196e-02  -2.014369392419e-02   1.957844344596e-02
H         0.8974366407      -0.3794082575      -0.3225492990  -4.888873727643e-02  -2.309896782742e-03   2.614823976033e-02
H        -0.7549695707      -0.4203562675      -0.2448357701  -7.251524718216e-02  -4.323638011752e-02  -3.471359488797e-02
4
Properties=species:S:1:pos:R:3:forces:R:3 energy=-7.660171995239e+01 dipole="1.0773737064e-01 4.1551488937e-02 -8.0276571809e-01" quadrupole="-2.5453355124e+00 4.2547834848e-02 -1.3965729916e-01 4.2547834848e-02 -1.4568242106e+00 2.2477092860e-02 -1.3965729916e-01 2.2477092860e-02 -4.3965126500e+00" polarizability="6.9066121859e+00 -1.3130324064e-01 -1.9638272506e-01 -1.3130324064e-01 7.9555119485e+00 -7.7898389847e-02 -1.9638272506e-01 -7.7898389847e-02 6.0379421532e+00" charge=1 multiplicity=1 method=wB97M-V basis=def2-svpd config_type=h3o+ sample_index=250 temperature=300.0 units=atomic
O        -0.0075796584       0.0020108861       0.0794137071   6.880755470230e-02   5.173857177602e-02  -2.192415507760e-02
H         0.0458637036       1.0090264367      -0.2916915957  -9.593805718340e-03  -5.514785640728e-02   1.951463376395e-02
H         0.7695048500      -0.5117808565      -0.3172600166  -3.102245191925e-03   1.816472436627e-02   1.745051943038e-02
H        -0.6940876429      -0.5212582292      -0.2794178560  -5.610989595135e-02  -1.475014814831e-02  -1.503487870651e-02
4
Properties=species:S:1:pos:R:3:forces:R:3 energy=-7.661188328842e+01 dipole="-1.8089814066e-02 -2.7345916584e-02 -6.2854005867e-01" quadrupole="-2.1726740096e+00 -2.8583613422e-01 5.1831963447e-02 -2.8583613422e-01 -1.8303299863e+00 4.9324313164e-02 5.1831963447e-02 4.9324313164e-02 -4.5550914063e+00" polarizability="6.6553539193e+00 -2.2072963939e-01 7.6474593430e-03 -2.2072963939e-01 6.8751788661e+00 2.9650138739e-02 7.6474593430e-03 2.9650138739e-02 5.5850929395e+00" charge=1 multiplicity=1 method=wB97M-V basis=def2-svpd config_type=h3o+ sample_index=251 temperature=300.0 units=atomic
O         0.0031336477       0.0033768886       0.0663290732   1.957039042040e-02  -2.749625408610e-04   1.096216399026e-02
H        -0.0622994965       0.9291015542      -0.2178316913   1.089208501191e-02   1.195677048301e-02  -3.358925674647e-03
H         0.7769703104      -0.5271236932      -0.2226666966   8.488266680480e-03   9.713146782767e-03   1.651250967898e-04
H        -0.7648220299      -0.4480917737      -0.2383405878  -3.894789306493e-02  -2.139123768765e-02  -7.774849586678e-03
4
Properties=species:S:1:pos:R:3:forces:R:3 energy=-7.660565090595e+01 dipole="-1.4996332626e-01 5.9274170475e-02 -6.0043985782e-01" quadrupole="-1.5853541783e+00 -3.7893593244e-01 2.0736565078e-01 -3.7893593244e-01 -1.8405513612e+00 -7.9254714785e-02 2.0736565078e-01 -7.9254714785e-02 -4.7435619511e+00" polarizability="7.8508315696e+00 -1.3044599216e-01 2.1488512060e-01 -1.3044599216e-01 7.7698963984e+00 -8.4437677033e-02 2.1488512060e-01 -8.4437677033e-02 6.0045244404e+00" charge=1 multiplicity=1 method=wB97M-V basis=def2-svpd config_type=h3o+ sample_index=252 temperature=300.0 units=atomic
O         0.0117869487      -0.0038341887       0.0640922219  -6.371418362417e-02   2.788213285058e-02  -2.382464744856e-02
H        -0.1165340005       0.9885809777      -0.2266282086   2.453145755801e-02  -3.896243721599e-02   1.270446720556e-02
H         0.8300136021      -0.5062328188      -0.1787730062  -6.525028820273e-03   8.104923357764e-03  -4.357442688213e-03
H        -0.9020963294      -0.4131327795      -0.2376518615   4.571575163133e-02   2.973950798620e-03   1.547900512662e-02
4
Properties=species:S:1:pos:R:3:forces:R:3 energy=-7.660582243805e+01 dipole="9.6275294564e-02 1.3676274118e-01 -4.5377266583e-01" quadrupole="-2.0022474687e+00 1.9565582398e-01 -1.0827112688e-01 1.9565582398e-01 -1.5074239404e+00 -1.0512863286e-01 -1.0827112688e-01 -1.0512863286e-01 -4.7919991510e+00" polarizability="6.7590537935e+00 5.4097258054e-02 -9.3004212144e-02 5.4097258054e-02 7.5152389530e+00 -1.5384044620e-01 -9.3004212144e-02 -1.5384044620e-01 5.6421909808e+00" charge=1 multiplicity=1 method=wB97M-V basis=def2-svpd config_type=h3o+ sample_index=253 temperature=300.0 units=atomic
O        -0.0071708044      -0.0060953921       0.0534933309   5.647309695287e-02   9.536075410153e-02   6.868047290177e-03
H         0.0656038996       1.0318229898      -0.1764952108  -1.462886295857e-02  -5.605993973987e-02   1.146206281511e-02
H         0.8245202034      -0.4396090115      -0.1662777109   1.127758822144e-02  -1.289364898963e-02  -2.659518946712e-03
H        -0.7753744416      -0.4870764439      -0.1304604387  -5.312557386945e-02  -2.640402607320e-02  -1.566668153969e-02
4
Properties=species:S:1:pos:R:3:forces:R:3 energy=-7.658977724647e+01 dipole="1.0068616611e-02 -8.0209533242e-02 -1.2092087368e-01" quadrupole="-1.7279691607e+00 -6.4195158144e-02 -6.5796311128e-04 -6.4195158144e-02 -2.1361022122e+00 3.6222360072e-02 -6.5796311128e-04 3.6222360072e-02 -4.7694556903e+00" polarizability="6.1819308014e+00 -5.1198171015e-02 -3.9293815943e-03 -5.1198171015e-02 5.7089619288e+00 3.2594039450e-02 -3.9293815943e-03 3.2594039450e-02 5.1018801505e+00" charge=1 multiplicity=1 method=wB97M-V basis=def2-svpd config_type=h3o+ sample_index=254 temperature=300.0 units=atomic
O        -0.0000593997       0.0041498608       0.0307404085   1.890689746795e-02  -1.464379392463e-01   2.138636703246e-02
H        -0.0099181724       0.8488245233      -0.0253964853   2.817233160596e-04   1.962379725141e-01  -1.319632491399e-02
H         0.8164446932      -0.4629000763      -0.0418574413   3.031215797167e-02  -1.840571827615e-02  -3.305586972843e-03
H        -0.8055690582      -0.4451607377      -0.0415652755  -4.950281822637e-02  -3.139062177402e-02  -4.880970726905e-03
4
Properties=species:S:1:pos:R:3:forces:R:3 energy=-7.659054272998e+01 dipole="-1.4796923715e-01 1.3897753803e-01 -8.0841804235e-01" quadrupole="-2.1845277749e+00 2.8039932288e-01 1.4969569587e-01 2.8039932288e-01 -1.7497615196e+00 -1.5149442649e-01 1.4969569587e-01 -1.5149442649e-01 -4.3897929464e+00" polarizability="7.0825605536e+00 4.9981681593e-01 2.9085749152e-01 4.9981681593e-01 7.9329313206e+00 -2.7797937011e-01 2.9085749152e-01 -2.7797937011e-01 6.0612377805e+00" charge=1 multiplicity=1 method=wB97M-V basis=def2-svpd config_type=h3o+ sample_index=255 temperature=300.0 units=atomic
O         0.0081296768      -0.0072704263       0.0795210404  -1.483679548512e-01   1.033665715152e-01  -2.215093938115e-03
H         0.0044111608       1.0130085712      -0.3190104715  -9.533238407678e-04  -6.003153890042e-02   2.873650899840e-02
H         0.7136619887      -0.4028543416      -0.2653180672   1.120072760743e-01  -6.432180799756e-02  -4.816341399755e-02
H        -0.8481600095      -0.4855948752      -0.3058762208   3.731486036598e-02   2.098656823422e-02   2.164832424463e-02
4
Properties=species:S:1:pos:R:3:forces:R:3 energy=-7.660962858315e+01 dipole="-1.0796758149e-01 -5.3712647426e-02 -5.5539347693e-01" quadrupole="-1.6926408744e+00 -3.7697368852e-01 1.6019344679e-01 -3.7697368852e-01 -1.8170586183e+00 4.7419216297e-02 1.6019344679e-01 4.7419216297e-02 -4.7505607344e+00" polarizability="7.6294104752e+00 -1.5654042550e-01 1.4896372454e-01 -1.5654042550e-01 7.3552710163e+00 6.8069630857e-02 1.4896372454e-01 6.8069630857e-02 5.8448453755e+00" charge=1 multiplicity=1 method=wB97M-V basis=def2-svpd config_type=h3o+ sample_index=256 temperature=300.0 units=atomic
O         0.0097581013       0.0035910171       0.0608772432  -3.819796702784e-02  -3.264630566999e-02  -1.303545358597e-02
H        -0.1080690445       0.9448199657      -0.1880552330   1.892603946059e-02   2.765113997700e-03  -1.578269969463e-03
H         0.8236076453      -0.5458362976      -0.1773492960  -1.541964666258e-02   2.197267788455e-02   1.002236645967e-03
H        -0.8716902486      -0.4486670379      -0.2261008436   3.470297341902e-02   7.904747794808e-03   1.361094283867e-02
4
Properties=species:S:1:pos:R:3:forces:R:3 energy=-7.660286558063e+01 dipole="8.2268940487e-02 7.8623516233e-02 -6.4683020450e-01" quadrupole="-1.9231380695e+00 -2.3934490061e-01 -5.7614793246e-02 -2.3934490061e-01 -2.2236505354e+00 -1.0652841573e-01 -5.7614793246e-02 -1.0652841573e-01 -4.4874192785e+00" polarizability="6.5288019311e+00 -2.9211896400e-01 -1.2367645148e-01 -2.9211896400e-01 6.5254937967e+00 -1.1063726513e-01 -1.2367645148e-01 -1.1063726513e-01 5.4869613138e+00" charge=1 multiplicity=1 method=wB97M-V basis=def2-svpd config_type=h3o+ sample_index=257 temperature=300.0 units=atomic
O        -0.0035617238      -0.0060764740       0.0676043972   1.091467443047e-01   5.276432453500e-02   3.242408963388e-02
H        -0.0216104671       0.9093012274      -0.2519003803   5.342661589862e-03   1.682585361131e-02   2.232896541685e-03
H         0.8379011392      -0.4371983107      -0.2326301386  -9.960082965133e-03  -3.377120365472e-03   2.916861252183e-03
H        -0.7593055215      -0.3668429689      -0.2148745354  -1.045286506479e-01  -6.621329444646e-02  -3.757394846780e-02
4
Properties=species:S:1:pos:R:3:forces:R:3 energy=-7.660394344797e+01 dipole="-1.1681894368e-01 9.3052225683e-02 -7.1471973848e-01" quadrupole="-2.1555603433e+00 -6.5775381340e-04 1.3336313150e-01 -6.5775381340e-04 -2.0288780609e+00 -1.0062360001e-01 1.3336313150e-01 -1.0062360001e-01 -4.4237880170e+00" polarizability="6.5351874742e+00 1.5522521470e-01 1.8568186855e-01 1.5522521470e-01 6.8953817173e+00 -1.5407318184e-01 1.8568186855e-01 -1.5407318184e-01 5.6278901505e+00" charge=1 multiplicity=1 method=wB97M-V basis=def2-svpd config_type=h3o+ sample_index=258 temperature=300.0 units=atomic
O         0.0076119474      -0.0051533016       0.0726862478  -1.070559699810e-01   8.035930165474e-02   1.973558644404e-02
H        -0.0382809860       0.9432283331      -0.2763971356   7.905062632074e-03  -1.732876061471e-02   1.268032183794e-02
H         0.7294522766      -0.4243467640      -0.2331809765   9.827939911795e-02  -5.613628684353e-02  -3.834010712771e-02
H        -0.8129779602      -0.4283105750      -0.2711825481   8.713661102613e-04  -6.893417786255e-03   5.924672774624e-03
4
Properties=species:S:1:pos:R:3:forces:R:3 energy=-7.659995686886e+01 dipole="1.0268680959e-01 1.3628434957e-01 -3.0812019885e-01" quadrupole="-9.0157071238e-01 3.4543748634e-01 -1.2908689368e-01 3.4543748634e-01 -2.0316839813e+00 -1.6835159397e-01 -1.2908689368e-01 -1.6835159397e-01 -5.0198299232e+00" polarizability="8.3327244908e+00 1.6736075200e-01 -1.0789687925e-01 1.6736075200e-01 7.7173081358e+00 -1.3040568779e-01 -1.0789687925e-01 -1.3040568779e-01 5.9292540459e+00" charge=1 multiplicity=1 method=wB97M-V basis=def2-svpd config_type=h3o+ sample_index=259 temperature=300.0 units=atomic
O        -0.0083526570      -0.0120919411       0.0435393607   4.170797063239e-02   4.352547527502e-02  -1.184008411046e-02
H         0.0904043683       1.0041456859      -0.1405576214  -2.025656402416e-02  -4.080312576628e-02   8.838248824275e-03
H         0.9690727032      -0.3618462838      -0.1075428137  -5.570735173094e-02  -7.533099056797e-03   5.426211293804e-03
H        -0.9258097287      -0.4413809446      -0.0658117855   3.424952717746e-02   4.808359199219e-03  -2.422268924723e-03
4
Properties=species:S:1:pos:R:3:forces:R:3 energy=-7.659671700398e+01 dipole="1.5002370284e-02 -4.6267295344e-02 -7.3349465285e-01" quadrupole="-2.1160999360e+00 6.3024647122e-01 -9.6630421843e-02 6.3024647122e-01 -2.2170716600e+00 3.7611827126e-02 -9.6630421843e-02 3.7611827126e-02 -4.3585963199e+00" polarizability="6.5613180956e+00 4.9035446660e-01 1.6780100216e-02 4.9035446660e-01 6.4376132961e+00 4.8353621596e-02 1.6780100216e-02 4.8353621596e-02 5.5362933023e+00" charge=1 multiplicity=1 method=wB97M-V basis=def2-svpd config_type=h3o+ sample_index=260 temperature=300.0 units=atomic
O        -0.0055026957       0.0026698148       0.0742395687  -6.918062388327e-02  -2.753079590035e-02   3.420461927557e-02
H         0.1354008697       0.8574305990      -0.2621732498  -2.158053697129e-02   6.773189605414e-02  -1.558005205552e-02
H         0.7434058178      -0.3540678760      -0.2855011448   8.156730695765e-02  -6.102888350514e-02  -2.448884654030e-02
H        -0.7907463901      -0.5379167690      -0.2579641901   9.202034786378e-03   2.083080728740e-02   5.862519304457e-03
4
Properties=species:S:1:pos:R:3:forces:R:3 energy=-7.660022139599e+01 dipole="-1.5068509029e-01 -1.6360240700e-01 -4.7119306161e-01" quadrupole="-2.3097995162e+00 -3.9594390267e-01 1.8596174850e-01 -3.9594390267e-01 -1.5473259041e+00 1.9648780622e-01 1.8596174850e-01 1.9648780622e-01 -4.6944467047e+00" polarizability="6.5607373217e+00 -8.6686400316e-02 1.5062793642e-01 -8.6686400316e-02 6.7505471356e+00 1.6673387768e-01 1.5062793642e-01 1.6673387768e-01 5.4746306705e+00" charge=1 multiplicity=1 method=wB97M-V basis=def2-svpd config_type=h3o+ sample_index=261 temperature=300.0 units=atomic
O         0.0134327409       0.0136482872       0.0548783955  -4.669394924217e-02  -8.085414205987e-02   1.938916051110e-02
H        -0.1375576964       0.9050858032      -0.1270302190   1.356517272090e-02   6.638548721457e-02  -1.877249081644e-02
H         0.7026504004      -0.6151003826      -0.1505863237   4.204822401248e-02   7.925999491214e-03  -8.094706231065e-03
H        -0.7800445585      -0.5007642347      -0.2176898809  -8.924136645643e-03   6.547788330953e-03   7.472621712183e-03
4
Properties=species:S:1:pos:R:3:forces:R:3 energy=-7.660427229396e+01 dipole="1.1236178395e-01 4.2538700348e-02 -6.3401511613e-01" quadrupole="-1.3858100305e+00 -2.7582831892e-01 -8.8596324322e-02 -2.7582831892e-01 -2.0278808627e+00 -8.2946479061e-02 -8.8596324322e-02 -8.2946479061e-02 -4.7113230598e+00" polarizability="8.1119210150e+00 -3.9834121190e-01 -1.6040239476e-01 -3.9834121190e-01 7.6547634577e+00 -5.7175298586e-02 -1.6040239476e-01 -5.7175298586e-02 6.0454005735e+00" charge=1 multiplicity=1 method=wB97M-V basis=def2-svpd config_type=h3o+ sample_index=262 temperature=300.0 units=atomic
O        -0.0047109597      -0.0046121018       0.0665287795   6.259379074131e-02   1.670051387441e-02  -2.439100925548e-02
H        -0.0155826653       0.9668594372      -0.2418953902   3.396192279384e-03  -2.678098347045e-02   1.158166544545e-02
H         0.9385494206      -0.4778211616      -0.2318601761  -6.486704928453e-02   2.388126384031e-02   1.653901662541e-02
H        -0.8475906570      -0.4072975428      -0.2083665429  -1.124292006311e-03  -1.379766652213e-02  -3.729376385853e-03
4
Properties=species:S:1:pos:R:3:forces:R:3 energy=-7.660716670013e+01 dipole="-8.8982348979e-02 6.9487092768e-02 -5.7513896347e-01" quadrupole="-1.2075088913e+00 7.4765823492e-02 8.2539444108e-02 7.4765823492e-02 -2.3032473769e+00 -1.2885202116e-01 8.2539444108e-02 -1.2885202116e-01 -4.7316417824e+00" polarizability="7.9273400123e+00 1.6773157451e-01 1.1399299454e-01 1.6773157451e-01 7.1172994702e+00 -7.0054318252e-02 1.1399299454e-01 -7.0054318252e-02 5.8639943780e+00" charge=1 multiplicity=1 method=wB97M-V basis=def2-svpd config_type=h3o+ sample_index=263 temperature=300.0 units=atomic
O         0.0046019596      -0.0076716137       0.0622952203  -4.815353367025e-02   6.431893358921e-03  -1.257824864053e-02
H        -0.0126383811       0.9308900494      -0.2280940857   2.066411538494e-03   1.707572316396e-03   4.843339494050e-03
H         0.8781808383      -0.3898180944      -0.1816595005  -9.293313088306e-03  -1.346063854023e-02  -3.154670263300e-03
H        -0.9391794185      -0.4104220162      -0.2046262354   5.537940299584e-02   5.323780200445e-03   1.088836345556e-02
4
Properties=species:S:1:pos:R:3:forces:R:3 energy=-7.659125109562e+01 dipole="-7.1915403822e-03 2.7041749795e-02 -1.0249499691e+00" quadrupole="-2.4846350890e+00 5.8917393941e-01 -4.9694975814e-02 5.8917393941e-01 -1.9292711505e+00 -1.5683812296e-02 -4.9694975814e-02 -1.5683812296e-02 -4.0066117489e+00" polarizability="7.4752385575e+00 6.6472554829e-01 9.8760476865e-02 6.6472554829e-01 8.1994571569e+00 -1.1486585618e-01 9.8760476865e-02 -1.1486585618e-01 6.6034690125e+00" charge=1 multiplicity=1 method=wB97M-V basis=def2-svpd config_type=h3o+ sample_index=264 temperature=300.0 units=atomic
O        -0.0024120125      -0.0000310369       0.0974755415  -4.129714054897e-02   2.994965838079e-02  -6.940060384531e-02
H         0.1090392287       0.9595063551      -0.3941299480  -2.320828335098e-02  -4.275391731966e-02   3.531478155450e-02
H         0.7143411400      -0.3918351453      -0.3978764872   3.732068506895e-02  -2.487278956614e-02   1.679557518649e-03
H        -0.7847835381      -0.5585431998      -0.3857774684   2.718147482051e-02   3.767938999486e-02   3.240464404990e-02
4
Properties=species:S:1:pos:R:3:forces:R:3 energy=-7.659578967879e+01 dipole="3.1893204054e-02 3.2338404472e-02 -8.7355226788e-01" quadrupole="-1.9072150765e+00 -6.7054716963e-01 4.8434499595e-02 -6.7054716963e-01 -2.4412752066e+00 -8.5451172666e-02 4.8434499595e-02 -8.5451172666e-02 -4.2176210566e+00" polarizability="7.2527484301e+00 -6.3002055840e-01 -8.9033987118e-02 -6.3002055840e-01 6.9529667133e+00 -7.4297471813e-02 -8.9033987118e-02 -7.4297471813e-02 5.9829039388e+00" charge=1 multiplicity=1 method=wB97M-V basis=def2-svpd config_type=h3o+ sample_index=265 temperature=300.0 units=atomic
O         0.0024989722      -0.0040966748       0.0851339551   7.107370572038e-02   1.219187645955e-02  -1.231073329882e-02
H        -0.1242176242       0.8740302461      -0.3398970583   2.751366290785e-02   2.025735065816e-02   1.054401694636e-02
H         0.8529758099      -0.4961221688      -0.3138930436  -4.054042937878e-02   2.408195326145e-02   1.916025051870e-02
H        -0.7687678154      -0.3039110464      -0.3264402773  -5.804699167470e-02  -5.652701071847e-02  -1.739125328819e-02
4
Properties=species:S:1:pos:R:3:forces:R:3 energy=-7.660971312166e+01 dipole="-7.2256041419e-02 2.2807415026e-02 -2.4532858587e-01" quadrupole="-1.5426399249e+00 2.8174629046e-01 2.8646182549e-02 2.8174629046e-01 -1.6304086941e+00 -2.3219016398e-02 2.8646182549e-02 -2.3219016398e-02 -4.9685214704e+00" polarizability="7.3787671364e+00 3.2284150439e-01 4.6357344461e-02 3.2284150439e-01 7.3894936297e+00 -1.8732870646e-02 4.6357344461e-02 -1.8732870646e-02 5.6720729121e+00" charge=1 multiplicity=1 method=wB97M-V basis=def2-svpd config_type=h3o+ sample_index=266 temperature=300.0 units=atomic
O         0.0022938302      -0.0015071769       0.0391678530  -6.168861058510e-02   1.838538647152e-02  -1.056481543951e-04
H         0.0281337955       0.9963239692      -0.0866966803  -4.929601106404e-03  -2.356885078102e-02   1.667759329131e-03
H         0.8314581777      -0.4474930026      -0.0728139553   2.411452481882e-02  -1.871608595345e-02  -5.075579246135e-03
H        -0.8962846199      -0.5174427208      -0.0842384881   4.250410784468e-02   2.389697085022e-02   3.516593114667e-03
4
Properties=species:S:1:pos:R:3:forces:R:3 energy=-7.660200168698e+01 dipole="-5.5494294921e-02 -1.4300589913e-01 -2.1869983046e-01" quadrupole="-1.8562869179e+00 5.6183491136e-01 8.4542059311e-05 5.6183491136e-01 -1.2204937171e+00 1.3673053257e-01 8.4542059311e-05 1.3673053257e-01 -4.9906034644e+00" polarizability="7.3876537449e+00 5.6396987657e-01 4.4241971311e-02 5.6396987657e-01 7.6378138500e+00 9.9247689461e-02 4.4241971311e-02 9.9247689461e-02 5.7121606088e+00" charge=1 multiplicity=1 method=wB97M-V basis=def2-svpd config_type=h3o+ sample_index=267 temperature=300.0 units=atomic
O        -0.0006142109       0.0107633973       0.0373771922  -6.064169901719e-02  -4.674312604202e-02   2.516103006552e-04
H         0.0822244781       0.9838896929      -0.0417639859  -1.129675978570e-02  -1.255226529250e-03  -3.378013468120e-03
H         0.7869031333      -0.5060596557      -0.0881389092   2.850730243744e-02  -7.769923572986e-03  -3.057142604519e-03
H        -0.8592817579      -0.6428977692      -0.0850215124   4.342610191550e-02   5.577212855211e-02   6.185748739637e-03
4
Properties=species:S:1:pos:R:3:forces:R:3 energy=-7.657606206657e+01 dipole="-1.5532195182e-01 2.0595919844e-01 -6.2710855272e-01" quadrupole="-1.2606135813e+00 7.5162875048e-01 4.9296444816e-02 7.5162875048e-01 -2.3564182108e+00 -2.9814808264e-01 4.9296444816e-02 -2.9814808264e-01 -4.6340940939e+00" polarizability="7.4810726406e+00 7.6008675110e-01 1.5488783978e-01 7.6008675110e-01 7.3335587641e+00 -3.1739923838e-01 1.5488783978e-01 -3.1739923838e-01 5.8534857294e+00" charge=1 multiplicity=1 method=wB97M-V basis=def2-svpd config_type=h3o+ sample_index=268 temperature=300.0 units=atomic
O         0.0035331078      -0.0185092882       0.0657611016  -1.753275708991e-01   9.669727445670e-02   1.565436084177e-02
H         0.1002236991       0.9581769720      -0.2778576327  -2.718311926091e-02  -2.643473968156e-02   2.132821014675e-02
H         0.8089018146      -0.2238178676      -0.1872861577   1.352833903882e-01  -8.314128850142e-02  -4.563874029421e-02
H        -0.9656466341      -0.4301620580      -0.2048495877   6.722465694395e-02   1.287964868249e-02   8.658923335605e-03
4
Properties=species:S:1:pos:R:3:forces:R:3 energy=-7.659742339760e+01 dipole="-1.5023409074e-01 1.2007495281e-02 -4.1705334386e-01" quadrupole="-2.1998886040e+00 -8.2289454018e-01 2.0427003378e-01 -8.2289454018e-01 -1.3211876913e+00 2.4642837401e-02 2.0427003378e-01 2.4642837401e-02 -4.8055376149e+00" polarizability="6.6843235489e+00 -5.5133020932e-01 1.0273470861e-01 -5.5133020932e-01 7.4469535005e+00 -3.5834913923e-02 1.0273470861e-01 -3.5834913923e-02 5.6025980880e+00" charge=1 multiplicity=1 method=wB97M-V basis=def2-svpd config_type=h3o+ sample_index=269 temperature=300.0 units=atomic
O         0.0146195161       0.0031679570       0.0511342970  -2.778978156808e-04   5.124819612665e-02   1.199695413192e-02
H        -0.2029725550       0.9982852416      -0.1371998039   3.822682041397e-02  -3.188331112917e-02   4.039799736362e-03
H         0.7429330223      -0.6291052880      -0.1125477703   1.863950697575e-02   1.817387549140e-02  -5.683768277111e-03
H        -0.7739086225      -0.4123539718      -0.1856127034  -5.658818336639e-02  -3.752890699214e-02  -1.035555811723e-02
4
Properties=species:S:1:pos:R:3:forces:R:3 energy=-7.658087624796e+01 dipole="1.5725463949e-01 2.1884673726e-01 -9.5649903776e-01" quadrupole="-2.4141736270e+00 1.5249733198e-01 -2.2653857908e-01 1.5249733198e-01 -2.3164664119e+00 -3.0859821584e-01 -2.2653857908e-01 -3.0859821584e-01 -3.9878345878e+00" polarizability="6.4243486218e+00 -5.2405788182e-02 -3.1931418054e-01 -5.2405788182e-02 7.1885470381e+00 -5.0590929109e-01 -3.1931418054e-01 -5.0590929109e-01 5.9801880988e+00" charge=1 multiplicity=1 method=wB97M-V basis=def2-svpd config_type=h3o+ sample_index=270 temperature=300.0 units=atomic
O        -0.0111347912      -0.0142182572       0.0917040724   1.411725151163e-01   1.400576034596e-01   2.148180184030e-02
H         0.0787246216       0.9427268459      -0.4041870028  -1.735832481672e-02  -3.598678129883e-02   4.074557310617e-02
H         0.7838634892      -0.3365068166      -0.3684597375   1.552816335266e-02  -2.646600306060e-02   8.363956347689e-03
H        -0.6844221949      -0.3700999841      -0.3128606163  -1.393460346977e-01  -7.760198727197e-02  -7.058854140129e-02
4
Properties=species:S:1:pos:R:3:forces:R:3 energy=-7.661305779535e+01 dipole="6.8892879413e-02 2.5718007376e-02 -1.4946689537e-01" quadrupole="-1.6033924141e+00 2.1541994462e-01 -6.9951786019e-02 2.1541994462e-01 -1.7076407297e+00 -2.3778311969e-02 -6.9951786019e-02 -2.3778311969e-02 -4.9544238818e+00" polarizability="7.0642352906e+00 8.5046418787e-02 -4.3449391004e-02 8.5046418787e-02 7.0409251735e+00 -1.5813031540e-02 -4.3449391004e-02 -1.5813031540e-02 5.5417176609e+00" charge=1 multiplicity=1 method=wB97M-V basis=def2-svpd config_type=h3o+ sample_index=271 temperature=300.0 units=atomic
O        -0.0059002169      -0.0015175409       0.0327312566   2.832841801612e-02   1.333601343326e-02   2.500187255107e-03
H         0.0624688567       0.9781699338      -0.0523304703  -1.190502124287e-02  -6.525329390438e-03  -7.951344294244e-05
H         0.8666252958      -0.4464885514      -0.0589013595  -8.814516750605e-03  -5.374542967045e-03   1.740311458152e-04
H        -0.8346689998      -0.5002585554      -0.0294233468  -7.608484516849e-03  -1.435728096531e-03  -2.591918302576e-03
4
Properties=species:S:1:pos:R:3:forces:R:3 energy=-7.660897495567e+01 dipole="-1.2297241551e-01 1.1809198104e-02 -7.6430844140e-01" quadrupole="-1.7886716417e+00 -9.9664187492e-02 1.6510683621e-01 -9.9664187492e-02 -2.0840132727e+00 -2.9073004993e-02 1.6510683621e-01 -2.9073004993e-02 -4.4829181450e+00" polarizability="7.6929831683e+00 9.5389055977e-02 2.2186365209e-01 9.5389055977e-02 7.4252213906e+00 -8.2814246447e-03 2.2186365209e-01 -8.2814246447e-03 6.0572513575e+00" charge=1 multiplicity=1 method=wB97M-V basis=def2-svpd config_type=h3o+ sample_index=272 temperature=300.0 units=atomic
O         0.0085180708      -0.0010685114       0.0764540352  -6.001216749193e-02   3.049195411229e-03  -3.155654128947e-02
H        -0.0600302081       0.9356097878      -0.2847498972   1.161115188069e-02  -1.383939513568e-02   1.072232664081e-02
H         0.8022352021      -0.4678506091      -0.2569044918   3.423633169716e-03  -1.159570742083e-03  -1.801356863169e-03
H        -0.8785137434      -0.4424885160      -0.2994403412   4.497863699670e-02   1.195432565040e-02   2.263488191795e-02
4
Properties=species:S:1:pos:R:3:forces:R:3 energy=-7.657048049103e+01 dipole="9.2073592175e-02 2.6111801013e-01 -3.4850715037e-01" quadrupole="-1.9813363531e+00 1.0078074011e-01 -8.1778595618e-02 1.0078074011e-01 -1.9643550539e+00 -2.3203950269e-01 -8.1778595618e-02 -2.3203950269e-01 -4.6796799448e+00" polarizability="5.7468745143e+00 -1.8604325950e-03 -6.1406036259e-02 -1.8604325950e-03 6.4667001703e+00 -2.3565753769e-01 -6.1406036259e-02 -2.3565753769e-01 5.1920727375e+00" charge=1 multiplicity=1 method=wB97M-V basis=def2-svpd config_type=h3o+ sample_index=273 temperature=300.0 units=atomic
O        -0.0061603017      -0.0172355955       0.0459793614   1.184591316121e-01   2.137537242181e-01   5.082594263023e-02
H         0.0453462072       0.9858712717      -0.1684648527  -1.134553739748e-02  -3.180364945073e-02   1.054780705221e-02
H         0.8024668108      -0.3404213304      -0.1076672744   1.019492380798e-01  -6.817740948520e-02  -2.171198847198e-02
H        -0.7492333243      -0.3621120505      -0.0769035053  -2.090654531870e-01  -1.137702901805e-01  -3.966298890827e-02
4
Properties=species:S:1:pos:R:3:forces:R:3 energy=-7.659378146630e+01 dipole="-1.5512048474e-01 2.2095945368e-02 -6.8459630261e-01" quadrupole="-1.5976786855e+00 6.3030383949e-01 9.5281706856e-02 6.3030383949e-01 -2.0924343822e+00 -5.9340239740e-02 9.5281706856e-02 -5.9340239740e-02 -4.5707504871e+00" polarizability="7.5617778620e+00 7.5290434205e-01 2.4360140284e-01 7.5290434205e-01 7.2863451076e+00 -4.4330399062e-02 2.4360140284e-01 -4.4330399062e-02 5.8859032080e+00" charge=1 multiplicity=1 method=wB97M-V basis=def2-svpd config_type=h3o+ sample_index=274 temperature=300.0 units=atomic
O         0.0050441411      -0.0035942646       0.0701372961  -1.353124508121e-01   3.163176118873e-02   3.839342920177e-03
H         0.0701504407       0.9346820547      -0.2582658764  -1.530185618285e-02  -5.308080140086e-03   8.294600692026e-03
H         0.7766175266      -0.3504723426      -0.2282754748   8.514242277750e-02  -5.974818110586e-02  -3.134789705000e-02
H        -0.9274721767      -0.5186510267      -0.2533973293   6.547384476143e-02   3.342379324966e-02   1.921554676955e-02
4
Properties=species:S:1:pos:R:3:forces:R:3 energy=-7.659307611625e+01 dipole="5.2756701152e-02 -2.7036351854e-01 -7.3564373661e-01" quadrupole="-2.6997395311e+00 3.7176140124e-01 -9.5897343649e-02 3.7176140124e-01 -1.2551255706e+00 4.0088362414e-01 -9.5897343649e-02 4.0088362414e-01 -4.4881359743e+00" polarizability="7.0393410335e+00 2.6313379577e-01 -4.4099615746e-02 2.6313379577e-01 7.6462734998e+00 4.2454416655e-01 -4.4099615746e-02 4.2454416655e-01 5.9567864317e+00" charge=1 multiplicity=1 method=wB97M-V basis=def2-svpd config_type=h3o+ sample_index=275 temperature=300.0 units=atomic
O        -0.0062866784       0.0215037176       0.0740969896  -1.851994818692e-03  -1.207995369191e-01  -1.335651157285e-02
H         0.0942450826       0.9176580231      -0.2071123904  -9.426489684432e-03   3.651942848945e-02  -2.106304280403e-02
H         0.7077287395      -0.5742401181      -0.3136844419   1.461215475454e-02   2.845331674760e-02   1.718550376378e-02
H        -0.7013741680      -0.6795157732      -0.2822628832  -3.335228317545e-03   5.582242993234e-02   1.723740489561e-02
4
Properties=species:S:1:pos:R:3:forces:R:3 energy=-7.660000823550e+01 dipole="2.7968533316e-02 -1.7478101230e-02 -4.1795521215e-01" quadrupole="-2.4190536932e+00 4.8882546898e-01 -6.3289349102e-02 4.8882546898e-01 -1.1898648714e+00 8.6406073643e-02 -6.3289349102e-02 8.6406073643e-02 -4.7775079596e+00" polarizability="6.4030288154e+00 4.1638874514e-01 1.1036970923e-02 4.1638874514e-01 7.3162327802e+00 1.7890207890e-02 1.1036970923e-02 1.7890207890e-02 5.5125565153e+00" charge=1 multiplicity=1 method=wB97M-V basis=def2-svpd config_type=h3o+ sample_index=276 temperature=300.0 units=atomic
O        -0.0046341932       0.0062046584       0.0511222930  -5.682218234024e-02   4.948876746167e-02   2.012517581455e-02
H         0.1003631093       1.0021304408      -0.1283855770  -1.728117608913e-02  -2.881743774726e-02   1.566087334225e-04
H         0.7184982360      -0.4813874394      -0.1649598356   9.194627304795e-02  -4.324674838036e-02  -1.937555809248e-02
H        -0.7446948495      -0.6125307387      -0.1417766058  -1.784072104238e-02   2.257095527168e-02  -9.054632924608e-04
4
Properties=species:S:1:pos:R:3:forces:R:3 energy=-7.660404926901e+01 dipole="-2.5654624299e-02 -1.0385824843e-01 -4.3230828355e-01" quadrupole="-2.3771874310e+00 3.5638976695e-01 -2.7359198917e-03 3.5638976695e-01 -1.1603042933e+00 1.6888001854e-01 -2.7359198917e-03 1.6888001854e-01 -4.8008079331e+00" polarizability="6.7135936638e+00 3.7124987619e-01 5.4841223947e-02 3.7124987619e-01 7.4385309833e+00 1.1601324408e-01 5.4841223947e-02 1.1601324408e-01 5.6125405356e+00" charge=1 multiplicity=1 method=wB97M-V basis=def2-svpd config_type=h3o+ sample_index=277 temperature=300.0 units=atomic
O        -0.0004604089       0.0111658274       0.0521125471  -5.591117983227e-02  -1.424054186265e-02   8.361056873730e-03
H         0.0563005581       0.9852191283      -0.1193789883  -7.954073260131e-03  -1.059123998106e-02  -4.909713647366e-03
H         0.7213305457      -0.5315308470      -0.1669506966   5.914358905911e-02  -1.551332858270e-02  -1.005017949746e-02
H        -0.7702545418      -0.6248583880      -0.1646184926   4.725232563386e-03   4.033742163718e-02   6.603614199753e-03
4
Properties=species:S:1:pos:R:3:forces:R:3 energy=-7.659163094248e+01 dipole="-1.2639749142e-02 1.5310004344e-01 -1.8612305680e-01" quadrupole="-1.7107827378e+00 9.5744640090e-02 -2.1501298944e-03 9.5744640090e-02 -2.1998100826e+00 -1.3440078753e-01 -2.1501298944e-03 -1.3440078753e-01 -4.7545271728e+00" polarizability="5.9667096227e+00 7.6029572360e-02 3.4384740948e-03 7.6029572360e-02 6.0083083306e+00 -8.2713942765e-02 3.4384740948e-03 -8.2713942765e-02 5.1272920995e+00" charge=1 multiplicity=1 method=wB97M-V basis=def2-svpd config_type=h3o+ sample_index=278 temperature=300.0 units=atomic
O         0.0000327712      -0.0119243620       0.0351842661  -3.664377396958e-02   8.986197562109e-02   2.571799598990e-02
H         0.0156649350       0.9230584668      -0.0954649169  -3.424085992412e-03   3.786964350644e-02  -3.121864164703e-03
H         0.8052396807      -0.3487430534      -0.0422508170   1.163684420949e-01  -7.384510467083e-02  -1.300142333787e-02
H        -0.8214198803      -0.3761959813      -0.0424023774  -7.630275418330e-02  -5.388868455659e-02  -9.585109141166e-03
4
Properties=species:S:1:pos:R:3:forces:R:3 energy=-7.660912661472e+01 dipole="7.3326328269e-02 1.9746361674e-02 -1.0469352096e-01" quadrupole="-1.6667707814e+00 5.2861409732e-01 -9.4971138354e-02 5.2861409732e-01 -1.5250081583e+00 -1.3935901711e-02 -9.4971138354e-02 -1.3935901711e-02 -4.9892711085e+00" polarizability="7.1407853269e+00 3.4267086396e-01 -4.8004790344e-02 3.4267086396e-01 7.3298698455e+00 -1.5686635046e-02 -4.8004790344e-02 -1.5686635046e-02 5.6032592616e+00" charge=1 multiplicity=1 method=wB97M-V basis=def2-svpd config_type=h3o+ sample_index=279 temperature=300.0 units=atomic
O        -0.0084168623      -0.0003238525       0.0297827298   3.616528806126e-03   2.154900265759e-02   1.189798536419e-03
H         0.1205567362       0.9986553393      -0.0331249932  -2.300810813359e-02  -2.288156253058e-02   1.004573653682e-03
H         0.8497965925      -0.4276117745      -0.0511654363   9.012990492079e-03  -1.695519714218e-02  -9.653407409854e-04
H        -0.8356512640      -0.5588134808      -0.0090951250   1.037391335675e-02   1.828520531835e-02  -1.227737288066e-03
4
Properties=species:S:1:pos:R:3:forces:R:3 energy=-7.659186076718e+01 dipole="-1.6541043926e-02 1.4614259960e-01 -2.3371122381e-01" quadrupole="-1.6543913449e+00 7.4528889663e-01 -5.6170980547e-02 7.4528889663e-01 -1.2044323725e+00 -1.0926019416e-01 -5.6170980547e-02 -1.0926019416e-01 -5.0288223531e+00" polarizability="7.4270720437e+00 7.1820100519e-01 -4.2009891282e-03 7.1820100519e-01 8.3335274758e+00 -1.3131397730e-01 -4.2009891282e-03 -1.3131397730e-01 5.8329713649e+00" charge=1 multiplicity=1 method=wB97M-V basis=def2-svpd config_type=h3o+ sample_index=280 temperature=300.0 units=atomic
O        -0.0035847793      -0.0075212988       0.0383167453  -7.693594158025e-02   8.689502675921e-02   1.164482619720e-04
H         0.1227636311       1.0870608918      -0.0994607082  -2.527325342495e-02  -7.466700081824e-02   8.355302599566e-03
H         0.8190314285      -0.3899159750      -0.0742964199   6.041567461450e-02  -4.437902114431e-02  -9.273032787854e-03
H        -0.8844122244      -0.5695773173      -0.0563326984   4.180103100322e-02   3.215066692263e-02   7.996097653901e-04
4
Properties=species:S:1:pos:R:3:forces:R:3 energy=-7.659586356398e+01 dipole="7.8297125602e-02 1.9409644719e-01 -8.8664932016e-01" quadrupole="-2.4237508153e+00 1.4544729212e-01 -1.1601901065e-01 1.4544729212e-01 -1.9044167590e+00 -2.3559621577e-01 -1.1601901065e-01 -2.3559621577e-01 -4.1980954089e+00" polarizability="6.6382408539e+00 3.9984745882e-02 -1.3951454078e-01 3.9984745882e-02 7.7171903684e+00 -4.3394344805e-01 -1.3951454078e-01 -4.3394344805e-01 6.0360869398e+00" charge=1 multiplicity=1 method=wB97M-V basis=def2-svpd config_type=h3o+ sample_index=281 temperature=300.0 units=atomic
O        -0.0058149605      -0.0105840900       0.0859418546   4.988251638201e-02   1.139860485598e-01  -8.049528759410e-03
H         0.0521185960       1.0008852877      -0.3628927728  -1.170453821370e-02  -5.775003738267e-02   3.615610420686e-02
H         0.7645357068      -0.3932513633      -0.3296258306   2.871348233290e-02  -2.136604142240e-02  -2.073216302229e-03
H        -0.7236113963      -0.4298705882      -0.3005840069  -6.689944471825e-02  -3.486902185468e-02  -2.602627358617e-02
4
Properties=species:S:1:pos:R:3:forces:R:3 energy=-7.659531363330e+01 dipole="-7.9650478254e-02 -3.8597309849e-02 -4.9029174514e-01" quadrupole="-1.9373358082e+00 -5.3662200925e-01 1.2779044262e-01 -5.3662200925e-01 -9.4979148375e-01 9.2703347205e-02 1.2779044262e-01 9.2703347205e-02 -4.9459504665e+00" polarizability="8.0903320619e+00 -4.1762007260e-01 8.8396222668e-02 -4.1762007260e-01 8.8966368551e+00 5.8988253272e-02 8.8396222668e-02 5.8988253272e-02 6.1674015319e+00" charge=1 multiplicity=1 method=wB97M-V basis=def2-svpd config_type=h3o+ sample_index=282 temperature=300.0 units=atomic
O         0.0084714593       0.0063962049       0.0562501717  -1.765457018273e-02  -8.266622035208e-03  -2.672928888795e-02
H        -0.1189819893       1.0648608473      -0.1552049917   2.236047357198e-02  -6.567499530619e-02   7.493507355071e-03
H         0.8241855852      -0.6438118921      -0.1598406417  -3.293987848284e-02   5.091113600133e-02   7.439586328557e-03
H        -0.8407672948      -0.5158432778      -0.2021797936   2.822830918326e-02   2.302934833548e-02   1.179610964152e-02
4
Properties=species:S:1:pos:R:3:forces:R:3 energy=-7.661008274500e+01 dipole="2.7504763825e-02 -1.0134580785e-01 -2.7843824458e-01" quadrupole="-1.6201734189e+00 2.6367576070e-01 -4.9830873252e-02 2.6367576070e-01 -1.5608387802e+00 8.4194406064e-02 -4.9830873252e-02 8.4194406064e-02 -4.9619182848e+00" polarizability="7.5501293822e+00 1.6938722620e-01 -2.8590258504e-02 1.6938722620e-01 7.3469686799e+00 7.7385084363e-02 -2.8590258504e-02 7.7385084363e-02 5.7069251292e+00" charge=1 multiplicity=1 method=wB97M-V basis=def2-svpd config_type=h3o+ sample_index=283 temperature=300.0 units=atomic
O        -0.0039089161       0.0067816042       0.0414498787   2.163323685420e-03  -5.916883740101e-02  -2.697565609382e-03
H         0.0586006102       0.9624286304      -0.0750110033  -8.983093918470e-03   1.298157841026e-02  -4.396824917044e-03
H         0.8583945670      -0.4990934168      -0.1123853301  -2.287142684201e-02   1.430116011936e-02   4.022006909969e-03
H        -0.8544354754      -0.5645529560      -0.0928452555   2.969283443063e-02   3.188705255223e-02   3.076012981687e-03
4
Properties=species:S:1:pos:R:3:forces:R:3 energy=-7.655377869258e+01 dipole="2.5994436240e-01 1.2192676906e-01 -6.1435924050e-01" quadrupole="-1.5421446934e+00 -5.0964492541e-01 -1.9233925766e-01 -5.0964492541e-01 -2.4158455065e+00 -1.7670288534e-01 -1.9233925766e-01 -1.7670288534e-01 -4.5142457336e+00" polarizability="6.7152003445e+00 -6.4448646334e-01 -3.2225649314e-01 -6.4448646334e-01 6.4389828917e+00 -1.4706397262e-01 -3.2225649314e-01 -1.4706397262e-01 5.4665958106e+00" charge=1 multiplicity=1 method=wB97M-V basis=def2-svpd config_type=h3o+ sample_index=284 temperature=300.0 units=atomic
O        -0.0118609729      -0.0118103913       0.0645946839   3.484062387944e-01   1.069509882138e-01   8.219449613532e-02
H        -0.0257574426       0.8961953333      -0.2523399293   9.969159640690e-03   2.773293840315e-02   2.576583307856e-03
H         0.9413666976      -0.4267052529      -0.2290495843  -6.302581288900e-02   9.848237975856e-03   1.446504362637e-02
H        -0.7258286893      -0.2725011425      -0.1698905368  -2.953452144933e-01  -1.445343140752e-01  -9.923519623958e-02
4
Properties=species:S:1:pos:R:3:forces:R:3 energy=-7.660388578961e+01 dipole="8.4111476842e-02 -7.2840474623e-02 -2.1006973411e-01" quadrupole="-1.0924574854e+00 1.3735029269e-01 -8.4168369969e-02 1.3735029269e-01 -2.0422008736e+00 1.4735773592e-02 -8.4168369969e-02 1.4735773592e-02 -4.9780819227e+00" polarizability="7.9044302583e+00 -1.3288150496e-02 -7.1487114704e-02 -1.3288150496e-02 6.8669412897e+00 4.6258231778e-02 -7.1487114704e-02 4.6258231778e-02 5.6631309000e+00" charge=1 multiplicity=1 method=wB97M-V basis=def2-svpd config_type=h3o+ sample_index=285 temperature=300.0 units=atomic
O        -0.0063656725       0.0018851968       0.0367552182   3.281524380331e-02  -9.110278204832e-02   2.154922686712e-03
H         0.0539997935       0.9153130071      -0.0640351490  -6.921394786905e-03   6.462600486443e-02  -7.555037520436e-03
H         0.9408625352      -0.4517140211      -0.0864579833  -5.508206366224e-02   1.307633575195e-02   5.487425583289e-03
H        -0.8929915483      -0.4865059642      -0.0546630143   2.919007621369e-02   1.339834981145e-02  -8.329863830930e-05
4
Properties=species:S:1:pos:R:3:forces:R:3 energy=-7.660844125515e+01 dipole="1.2415033333e-01 3.5494579666e-02 -2.2098897725e-01" quadrupole="-1.4561408899e+00 -1.7063818679e-01 -7.7653137124e-02 -1.7063818679e-01 -1.8019311099e+00 -4.1949401913e-02 -7.7653137124e-02 -4.1949401913e-02 -4.9478794617e+00" polarizability="7.2817660798e+00 -2.8122577789e-01 -7.8226980154e-02 -2.8122577789e-01 7.0969600898e+00 -2.2851333710e-02 -7.8226980154e-02 -2.2851333710e-02 5.5979525662e+00" charge=1 multiplicity=1 method=wB97M-V basis=def2-svpd config_type=h3o+ sample_index=286 temperature=300.0 units=atomic
O        -0.0061719490      -0.0031580268       0.0374889420   9.153448370314e-02   2.019796065934e-02   2.661984715330e-03
H         0.0076600272       0.9758177634      -0.0824865679  -1.943224647375e-03  -7.802377909862e-03   3.946604961350e-04
H         0.9155860566      -0.4808796112      -0.0826040721  -4.714212656643e-02   1.666677773557e-02   4.127780688185e-03
H        -0.8244813826      -0.4371446256      -0.0518049673  -4.244993737417e-02  -2.906613878644e-02  -7.179167293511e-03
4
Properties=species:S:1:pos:R:3:forces:R:3 energy=-7.660784091761e+01 dipole="-3.7322161114e-02 1.3320062407e-01 -7.1045502025e-01" quadrupole="-2.1440592561e+00 -8.4049202654e-02 5.1962666511e-02 -8.4049202654e-02 -1.9205561476e+00 -1.4682109210e-01 5.1962666511e-02 -1.4682109210e-01 -4.4660686883e+00" polarizability="6.6353584113e+00 -2.7871311016e-02 5.3320340920e-02 -2.7871311016e-02 7.2245693635e+00 -2.3069516194e-01 5.3320340920e-02 -2.3069516194e-01 5.7209595273e+00" charge=1 multiplicity=1 method=wB97M-V basis=def2-svpd config_type=h3o+ sample_index=287 temperature=300.0 units=atomic
O         0.0028725302      -0.0075084648       0.0723508915  -2.182803122400e-02   8.880675882026e-02   5.210858117572e-03
H        -0.0278457963       0.9771905608      -0.2813826278   6.235931511530e-03  -3.928148365130e-02   1.956491529778e-02
H         0.7702836858      -0.4353415049      -0.2398255146   4.512574020461e-02  -2.666652333161e-02  -1.645745088388e-02
H        -0.7884082343      -0.4136130794      -0.2541751736  -2.953468698898e-02  -2.285706609038e-02  -8.317472297978e-03
4
Properties=species:S:1:pos:R:3:forces:R:3 energy=-7.658985474261e+01 dipole="-5.6360267144e-02 -9.0465447265e-02 -4.6647893541e-01" quadrupole="-2.9246966875e+00 -6.6884508539e-02 5.7059587548e-02 -6.6884508539e-02 -7.5208441885e-01 2.3145949704e-01 5.7059587548e-02 2.3145949704e-01 -4.7425480104e+00" polarizability="6.2403059153e+00 2.3977309865e-02 5.2233446097e-02 2.3977309865e-02 7.5916789798e+00 1.3933994676e-01 5.2233446097e-02 1.3933994676e-01 5.5675779664e+00" charge=1 multiplicity=1 method=wB97M-V basis=def2-svpd config_type=h3o+ sample_index=288 temperature=300.0 units=atomic
O         0.0043517490       0.0146361690       0.0545198820  -2.769320325384e-02   2.137503705749e-02   1.764719933681e-02
H        -0.0342512663       1.0166825976      -0.1222498386   5.676530870894e-03  -3.194590872046e-02  -5.095653705214e-03
H         0.6392130475      -0.6312698526      -0.1727172725   7.890478514552e-02  -2.797268366845e-03  -1.026334704361e-02
H        -0.6745966666      -0.6121028998      -0.1944509380  -5.688675049279e-02   1.337343090709e-02  -2.280729920036e-03
4
Properties=species:S:1:pos:R:3:forces:R:3 energy=-7.660866326586e+01 dipole="-1.0500079065e-01 -1.5495275213e-02 -3.9953320099e-01" quadrupole="-1.4636552077e+00 2.6769472705e-01 6.5934793531e-02 2.6769472705e-01 -1.8720690307e+00 -6.5070491440e-03 6.5934793531e-02 -6.5070491440e-03 -4.8687742337e+00" polarizability="7.5258409441e+00 3.5135940934e-01 1.0162527147e-01 3.5135940934e-01 7.1494496207e+00 1.7343095478e-02 1.0162527147e-01 1.7343095478e-02 5.6957781584e+00" charge=1 multiplicity=1 method=wB97M-V basis=def2-svpd config_type=h3o+ sample_index=289 temperature=300.0 units=atomic
O         0.0043189145      -0.0002037869       0.0497403577  -7.262713124278e-02  -1.379669640910e-02   4.798832018436e-04
H         0.0157375805       0.9532191719      -0.1394605212  -2.588100076879e-03   6.496278033167e-03  -1.939684250350e-03
H         0.8301884059      -0.4376238038      -0.1260730392   2.159723276013e-02  -1.852413277632e-02  -7.176762065892e-03
H        -0.9150265840      -0.5047944276      -0.1476093454   5.361660343351e-02   2.582660420115e-02   8.636340590834e-03
4
Properties=species:S:1:pos:R:3:forces:R:3 energy=-7.661033887143e+01 dipole="-3.4740690722e-02 2.1800660148e-02 -3.6315395733e-01" quadrupole="-1.7907334618e+00 2.4803398459e-01 2.6536046139e-03 2.4803398459e-01 -1.8934227930e+00 -2.5800053014e-02 2.6536046139e-03 -2.5800053014e-02 -4.7876070563e+00" polarizability="6.6350063450e+00 2.3307684606e-01 3.1527345154e-02 2.3307684606e-01 6.6277408765e+00 -2.1375688894e-02 3.1527345154e-02 -2.1375688894e-02 5.4118053314e+00" charge=1 multiplicity=1 method=wB97M-V basis=def2-svpd config_type=h3o+ sample_index=290 temperature=300.0 units=atomic
O         0.0003170909      -0.0014913134       0.0472680358  -5.795163267316e-02   1.609340496896e-02   1.862634131646e-02
H         0.0366652398       0.9400820443      -0.1299714724  -6.473188126840e-03   2.043171129490e-02  -3.953109906784e-03
H         0.7975194573      -0.4211179567      -0.1210119347   5.949912578922e-02  -3.963032115835e-02  -1.336670688258e-02
H        -0.8392498364      -0.4875952109      -0.1225698984   4.927259085759e-03   3.103478192662e-03  -1.306031434050e-03
4
Properties=species:S:1:pos:R:3:forces:R:3 energy=-7.659933318977e+01 dipole="-5.5085282119e-02 2.2669311309e-01 -6.0885435528e-01" quadrupole="-1.7916605307e+00 1.0126416589e-01 4.4399221577e-02 1.0126416589e-01 -1.6173877061e+00 -2.4916729014e-01 4.4399221577e-02 -2.4916729014e-01 -4.7210843407e+00" polarizability="7.3342818827e+00 1.6822280765e-01 7.2023057033e-02 1.6822280765e-01 8.2420306818e+00 -3.5431362151e-01 7.2023057033e-02 -3.5431362151e-01 5.9902742436e+00" charge=1 multiplicity=1 method=wB97M-V basis=def2-svpd config_type=h3o+ sample_index=291 temperature=300.0 units=atomic
O         0.0027212317      -0.0135972660       0.0644704704  -5.075669178622e-02   1.040274865138e-01  -1.270641369033e-02
H         0.0019823210       1.0670540872      -0.2567763348  -2.067916140288e-04  -7.619184300974e-02   2.484166369741e-02
H         0.8185699258      -0.4065174438      -0.1893942889   3.151504681131e-02  -2.673227781828e-02  -1.404515487133e-02
H        -0.8640946154      -0.4350895857      -0.2029692918   1.944643191861e-02  -1.096411698573e-03   1.912624843357e-03
4
Properties=species:S:1:pos:R:3:forces:R:3 energy=-7.659316803047e+01 dipole="-1.7122548137e-01 -8.6603369758e-02 -6.9708282114e-01" quadrupole="-1.4026843333e+00 2.1326035841e-01 1.8363690832e-01 2.1326035841e-01 -1.7452022310e+00 8.7088208822e-02 1.8363690832e-01 8.7088208822e-02 -4.7173455286e+00" polarizability="8.9467512117e+00 4.9971335481e-01 3.0517990610e-01 4.9971335481e-01 8.3000063297e+00 1.5894734120e-01 3.0517990610e-01 1.5894734120e-01 6.3832879880e+00" charge=1 multiplicity=1 method=wB97M-V basis=def2-svpd config_type=h3o+ sample_index=292 temperature=300.0 units=atomic
O         0.0091134284       0.0047325948       0.0710108464  -5.835696252106e-02  -2.999950490954e-02  -4.133556321026e-02
H        -0.0203169281       0.9733467766      -0.2389103455   4.160553770437e-03  -2.759781985490e-02   7.535562601523e-03
H         0.8392341798      -0.4960654729      -0.2347088608  -2.249982955088e-02   1.575297431753e-02   6.532989240630e-03
H        -0.9647446460      -0.5450339687      -0.2801894047   7.669641927611e-02   4.184943549417e-02   2.726104748938e-02
4
Properties=species:S:1:pos:R:3:forces:R:3 energy=-7.659189727751e+01 dipole="-1.6324071585e-01 5.6823944968e-02 -5.4666175237e-01" quadrupole="-2.3460307848e+00 1.0578158304e-01 1.5470096104e-01 1.0578158304e-01 -1.4490638475e+00 4.6017384325e-03 1.5470096104e-01 4.6017384325e-03 -4.6447189743e+00" polarizability="6.4053731822e+00 3.3340627287e-01 2.1117487816e-01 3.3340627287e-01 7.1992364664e+00 -5.8664672781e-02 2.1117487816e-01 -5.8664672781e-02 5.5406068361e+00" charge=1 multiplicity=1 method=wB97M-V basis=def2-svpd config_type=h3o+ sample_index=293 temperature=300.0 units=atomic
O         0.0103577527       0.0006175318       0.0600480851  -1.725099674093e-01   1.098179781543e-01   3.273004837951e-02
H        -0.0362859783       0.9983185846      -0.1921998210   8.580269345183e-03  -3.741194607580e-02   6.387239670827e-03
H         0.6759318351      -0.4838379927      -0.1671393189   1.558496145828e-01  -8.906420191571e-02  -4.822648046422e-02
H        -0.8053835094      -0.5166226987      -0.2188380770   8.074740616314e-03   1.665452915219e-02   9.104146551172e-03
4
Properties=species:S:1:pos:R:3:forces:R:3 energy=-7.658996603511e+01 dipole="-4.3843233939e-04 1.6228698233e-01 -1.0923148773e+00" quadrupole="-2.2327252987e+00 1.8193266303e-01 -2.0861864832e-02 1.8193266303e-01 -2.2737012653e+00 -2.6669432727e-01 -2.0861864832e-02 -2.6669432727e-01 -3.8861452897e+00" polarizability="7.8557710388e+00 2.0217149410e-01 1.5503560022e-02 2.0217149410e-01 8.4047715386e+00 -4.4995277189e-01 1.5503560022e-02 -4.4995277189e-01 6.9244245866e+00" charge=1 multiplicity=1 method=wB97M-V basis=def2-svpd config_type=h3o+ sample_index=294 temperature=300.0 units=atomic
O        -0.0008684539      -0.0107850279       0.1030857370  -9.455938449699e-03   5.649595894274e-02  -9.872624791042e-02
H         0.0341632332       0.9735948901      -0.4551042154  -7.871977736781e-03  -5.344607876724e-02   5.084882749048e-02
H         0.7885824587      -0.3705061363      -0.4085121403  -6.931080189377e-03  -9.899825203619e-03   2.037390522249e-02
H        -0.8088582064      -0.4216967148      -0.4041608777   2.425682353519e-02   6.852069165139e-03   2.751169787150e-02
4
Properties=species:S:1:pos:R:3:forces:R:3 energy=-7.660321573442e+01 dipole="-7.1450392850e-02 8.6870252385e-02 -4.1602376998e-01" quadrupole="-2.1085551826e+00 2.2903554363e-01 4.3679505102e-02 2.2903554363e-01 -1.2659129247e+00 -3.1833539486e-02 4.3679505102e-02 -3.1833539486e-02 -4.8417556052e+00" polarizability="6.8131309245e+00 3.1593118982e-01 7.9437697450e-02 3.1593118982e-01 7.7120687208e+00 -8.2930934864e-02 7.9437697450e-02 -8.2930934864e-02 5.6676531862e+00" charge=1 multiplicity=1 method=wB97M-V basis=def2-svpd config_type=h3o+ sample_index=295 temperature=300.0 units=atomic
O         0.0032625393      -0.0016335508       0.0508533821  -8.662111996438e-02   8.033489366732e-02   7.038200090721e-03
H         0.0175140190       1.0445402429      -0.1495208856  -2.587626052747e-03  -5.853520782818e-02   8.086828552920e-03
H         0.7530653053      -0.4752032917      -0.1325448389   7.728716010019e-02  -3.988338056172e-02  -1.817313216711e-02
H        -0.8227773079      -0.5356950157      -0.1488103517   1.192132205928e-02   1.808080313744e-02   3.057522163309e-03
4
Properties=species:S:1:pos:R:3:forces:R:3 energy=-7.660830750367e+01 dipole="-1.5771293329e-02 2.4372528862e-02 -3.1454233844e-01" quadrupole="-1.7917339307e+00 8.0451645385e-03 1.2755108815e-02 8.0451645385e-03 -1.2202976816e+00 1.0714723142e-02 1.2755108815e-02 1.0714723142e-02 -4.9958990608e+00" polarizability="7.5520958984e+00 3.0732814566e-02 1.4023324029e-02 3.0732814566e-02 8.0907667613e+00 -1.1533924264e-02 1.4023324029e-02 -1.1533924264e-02 5.8463808946e+00" charge=1 multiplicity=1 method=wB97M-V basis=def2-svpd config_type=h3o+ sample_index=296 temperature=300.0 units=atomic
O         0.0009350255       0.0011962802       0.0439307174  -9.267223175493e-03   1.962336649916e-02  -8.811254257689e-03
H        -0.0038021197       1.0485451972      -0.1043498432   9.017615443576e-04  -5.629747775715e-02   4.724917146531e-03
H         0.8374588799      -0.5291604287      -0.1054705689  -1.353259281528e-02   1.622309231819e-02   1.193846525560e-03
H        -0.8486127402      -0.5312072254      -0.1101365693   2.189846495401e-02   2.045204403886e-02   2.898156832891e-03
4
Properties=species:S:1:pos:R:3:forces:R:3 energy=-7.660428487484e+01 dipole="-9.5009953673e-02 -1.3418609417e-01 -6.2445189636e-01" quadrupole="-1.7341926153e+00 1.9010933660e-01 8.6226250523e-02 1.9010933660e-01 -2.0351467879e+00 1.2879809206e-01 8.6226250523e-02 1.2879809206e-01 -4.6116511927e+00" polarizability="7.4524893151e+00 2.9974053585e-01 1.5030994232e-01 2.9974053585e-01 6.8156240702e+00 1.9831207807e-01 1.5030994232e-01 1.9831207807e-01 5.7324905522e+00" charge=1 multiplicity=1 method=wB97M-V basis=def2-svpd config_type=h3o+ sample_index=297 temperature=300.0 units=atomic
O         0.0046628253       0.0079789314       0.0657753038  -5.552009119670e-02  -1.092595277111e-01   6.674740756278e-03
H         0.0028538092       0.8780387511      -0.2016075861  -8.473509812604e-04   8.021260841650e-02  -2.431435795845e-02
H         0.7983584277      -0.4748890541      -0.2225565889   8.729779541676e-03  -2.696936777351e-03  -9.877269442810e-04
H        -0.8758226676      -0.5229064509      -0.2458183384   4.763626786511e-02   3.175032615712e-02   1.861907722225e-02
4
Properties=species:S:1:pos:R:3:forces:R:3 energy=-7.658745382275e+01 dipole="1.7529125769e-01 3.0020145161e-04 -5.7050175441e-01" quadrupole="-2.0741529749e+00 1.2004926299e-01 -1.9951573372e-01 1.2004926299e-01 -7.7592577230e-01 8.7895237940e-02 -1.9951573372e-01 8.7895237940e-02 -4.8955721780e+00" polarizability="8.2224231079e+00 -1.8653405048e-01 -2.5251844823e-01 -1.8653405048e-01 9.3596697176e+00 5.0406058924e-02 -2.5251844823e-01 5.0406058924e-02 6.3309217570e+00" charge=1 multiplicity=1 method=wB97M-V basis=def2-svpd config_type=h3o+ sample_index=298 temperature=300.0 units=atomic
O        -0.0120471173       0.0057714347       0.0618453776   7.153166101636e-02   6.583622946796e-03  -3.353165576414e-02
H         0.0803375496       1.0976344777      -0.1869054342  -1.657035704517e-02  -7.964590121191e-02   1.128838675624e-02
H         0.8764921286      -0.5771827314      -0.2400376895  -5.318052536366e-02   4.650197726947e-02   2.211942690403e-02
H        -0.7640546954      -0.6051436281      -0.1798837352  -1.772156006723e-03   2.655222135090e-02   1.238152275495e-04
4
Properties=species:S:1:pos:R:3:forces:R:3 energy=-7.659152095527e+01 dipole="9.6689633207e-03 1.2570122610e-01 -5.1547125246e-01" quadrupole="-1.6333278216e+00 7.2803854594e-01 -1.0515710297e-01 7.2803854594e-01 -2.2675594296e+00 -1.7372865215e-01 -1.0515710297e-01 -1.7372865215e-01 -4.6449743924e+00" polarizability="6.6217878765e+00 5.3934559565e-01 -1.9078352295e-02 5.3934559565e-01 6.5754125906e+00 -1.6805578662e-01 -1.9078352295e-02 -1.6805578662e-01 5.4489437841e+00" charge=1 multiplicity=1 method=wB97M-V basis=def2-svpd config_type=h3o+ sample_index=299 temperature=300.0 units=atomic
O        -0.0057872133      -0.0109473583       0.0579267536  -8.892908954135e-02   6.554047307903e-02   3.416068498122e-02
H         0.1467360076       0.9179917056      -0.2142061009  -3.316148872233e-02   1.569659300838e-02   4.212418363165e-03
H         0.8030587168      -0.2670610603      -0.1795958368   1.117564065640e-01  -8.174046835788e-02  -3.191698440425e-02
H        -0.8571750338      -0.4679276934      -0.1506303873   1.032952629168e-02   5.037931801424e-04  -6.457523227477e-03
4
Properties=species:S:1:pos:R:3:forces:R:3 energy=-7.659669710830e+01 dipole="1.1244904126e-01 -1.9552756695e-02 -6.3141564230e-01" quadrupole="-9.3378025804e-01 2.0533658703e-01 -1.5896294533e-01 2.0533658703e-01 -2.3944397266e+00 -4.8785996094e-02 -1.5896294533e-01 -4.8785996094e-02 -4.7281806427e+00" polarizability="8.8080054257e+00 4.8555904775e-03 -1.9290902545e-01 4.8555904775e-03 7.2380360256e+00 6.9222214632e-02 -1.9290902545e-01 6.9222214632e-02 6.0903464497e+00" charge=1 multiplicity=1 method=wB97M-V basis=def2-svpd config_type=h3o+ sample_index=300 temperature=300.0 units=atomic
O        -0.0083979093      -0.0024125674       0.0662957770   3.738490205445e-02  -5.203249273952e-02  -2.141015581248e-02
H         0.0743085893       0.8983374629      -0.2343189229  -1.213858374867e-02   3.062376102220e-02  -4.917231116379e-03
H         0.9771067516      -0.4002689628      -0.2430362659  -7.186049158031e-02   7.201430673069e-03   1.992823164890e-02
H        -0.9170331740      -0.4514886693      -0.2010914187   4.661642332844e-02   1.420676133234e-02   6.403133612122e-03
4
Properties=species:S:1:pos:R:3:forces:R:3 energy=-7.657336939619e+01 dipole="-1.4486434600e-01 -6.0169039711e-02 -1.0972048223e+00" quadrupole="-2.0128719822e+00 3.2409445432e-01 1.9804888884e-01 3.2409445432e-01 -1.8828817838e+00 1.0460700972e-01 1.9804888884e-01 1.0460700972e-01 -4.0297240793e+00" polarizability="9.3512655197e+00 6.7054758894e-01 4.3503646075e-01 6.7054758894e-01 9.2986494150e+00 1.6760269943e-01 4.3503646075e-01 1.6760269943e-01 7.4173822987e+00" charge=1 multiplicity=1 method=wB97M-V basis=def2-svpd config_type=h3o+ sample_index=301 temperature=300.0 units=atomic
O         0.0076360032       0.0045432171       0.1028143192  -3.943310246540e-02  -7.993162252604e-03  -1.167881417808e-01
H         0.0067288117       0.9761837671      -0.4094567241  -1.901763247776e-03  -5.439858340267e-02   3.769321575643e-02
H         0.7806938957      -0.4789897319      -0.4078541262  -2.329423015151e-02   1.776370747242e-02   2.957251524627e-02
H        -0.9096164554      -0.5611874295      -0.4459493934   6.463030981670e-02   4.462109378808e-02   4.952170953428e-02
4
Properties=species:S:1:pos:R:3:forces:R:3 energy=-7.660713219932e+01 dipole="8.8570869295e-03 -3.4392102152e-02 -1.4330868167e-01" quadrupole="-1.1797549525e+00 -3.8204185193e-01 3.4591940785e-02 -3.8204185193e-01 -1.8391965647e+00 -6.3181816537e-03 3.4591940785e-02 -6.3181816537e-03 -5.0270240282e+00" polarizability="7.8671042977e+00 -2.9642811829e-01 1.3378936412e-02 -2.9642811829e-01 7.2347043313e+00 9.5536221105e-03 1.3378936412e-02 9.5536221105e-03 5.7144597223e+00" charge=1 multiplicity=1 method=wB97M-V basis=def2-svpd config_type=h3o+ sample_index=302 temperature=300.0 units=atomic
O         0.0027556315       0.0000215747       0.0323138411   1.549307019434e-02  -3.769575297184e-02  -8.198114909741e-04
H        -0.0677650664       0.9598284177      -0.0456567771   1.155111435518e-02   1.254092857079e-02  -1.579208081741e-03
H         0.9210705195      -0.5225190734      -0.0372694530  -5.057636002645e-02   2.799467217235e-02   1.490273096590e-03
H        -0.8973974834      -0.4305218403      -0.0510573925   2.352964461533e-02  -2.842889356015e-03   9.153572638127e-04
4
Properties=species:S:1:pos:R:3:forces:R:3 energy=-7.660108702211e+01 dipole="-1.0485962779e-01 3.2272366729e-02 -5.7201763662e-01" quadrupole="-1.6155618472e+00 -2.0553307020e-02 1.1141118201e-01 -2.0553307020e-02 -2.4759505037e+00 -7.7711779034e-02 1.1141118201e-01 -7.7711779034e-02 -4.5545929564e+00" polarizability="6.7114025015e+00 1.0669905169e-01 1.3497227047e-01 1.0669905169e-01 6.0693289542e+00 -5.1733467170e-03 1.3497227047e-01 -5.1733467170e-03 5.3814827323e+00" charge=1 multiplicity=1 method=wB97M-V basis=def2-svpd config_type=h3o+ sample_index=303 temperature=300.0 units=atomic
O         0.0066685595      -0.0044390457       0.0620878291  -7.957092754777e-02  -3.790911773856e-02   3.978160880007e-02
H        -0.0379228053       0.8528203828      -0.2177030194   4.134594484340e-03   9.541066781979e-02  -2.222466076889e-02
H         0.8022320631      -0.3889914709      -0.1800426032   5.933454072206e-02  -4.279613251883e-02  -2.172925687704e-02
H        -0.8710177106      -0.3848617352      -0.2133361113   1.610180218847e-02  -1.470236522063e-02   4.172899501508e-03
4
Properties=species:S:1:pos:R:3:forces:R:3 energy=-7.660568179864e+01 dipole="1.2163212748e-02 -2.7411050879e-02 -2.5549181513e-01" quadrupole="-1.3587213165e+00 4.2305317397e-01 -6.0477475301e-02 4.2305317397e-01 -2.1273125031e+00 -1.7398759584e-02 -6.0477475301e-02 -1.7398759584e-02 -4.8732376228e+00" polarizability="7.1356795646e+00 2.7498395962e-01 -2.5085946168e-02 2.7498395962e-01 6.4665798784e+00 1.6197072222e-02 -2.5085946168e-02 1.6197072222e-02 5.4556840917e+00" charge=1 multiplicity=1 method=wB97M-V basis=def2-svpd config_type=h3o+ sample_index=304 temperature=300.0 units=atomic
O        -0.0044881876      -0.0006845890       0.0398877905  -2.232378152191e-02  -6.493219054578e-02   1.303965645367e-02
H         0.0870774715       0.8998102342      -0.0881993683  -1.204011425625e-02   7.680221907309e-02  -1.012520811715e-02
H         0.8665996635      -0.3860141385      -0.0948108488   7.955556504925e-03  -2.540532992197e-02  -2.358362754055e-03
H        -0.8818448320      -0.4954791593      -0.0723624303   2.641030987001e-02   1.353511230315e-02  -5.550383519312e-04
4
Properties=species:S:1:pos:R:3:forces:R:3 energy=-7.660726864343e+01 dipole="-1.1975682510e-01 8.3455830152e-03 -4.3060913368e-01" quadrupole="-2.1676563132e+00 -1.5583751874e-02 1.1362106198e-01 -1.5583751874e-02 -1.3575072906e+00 4.4053218155e-02 1.1362106198e-01 4.4053218155e-02 -4.8041177733e+00" polarizability="6.7639177791e+00 1.6229764735e-01 1.2551879997e-01 1.6229764735e-01 7.3864191396e+00 5.2571311528e-03 1.2551879997e-01 5.2571311528e-03 5.6106602154e+00" charge=1 multiplicity=1 method=wB97M-V basis=def2-svpd config_type=h3o+ sample_index=305 temperature=300.0 units=atomic
O         0.0079969373       0.0033147235       0.0519463101  -8.725837440215e-02   4.136959095880e-02   7.226176008718e-03
H        -0.0444522675       1.0037323150      -0.1411120515   9.362359799043e-03  -3.257116751250e-02   2.210796922295e-03
H         0.7343643807      -0.5262095536      -0.1336640601   6.672197792379e-02  -2.630225541044e-02  -1.570703821271e-02
H        -0.8178730078      -0.5230331194      -0.1735889450   1.116766639510e-02   1.749462397392e-02   6.278612552121e-03
4
Properties=species:S:1:pos:R:3:forces:R:3 energy=-7.659428242639e+01 dipole="4.3619031673e-02 1.4264841003e-01 -9.4443421684e-01" quadrupole="-1.8884958932e+00 -5.2360820332e-01 1.0897943031e-02 -5.2360820332e-01 -2.4238380942e+00 -2.4299233906e-01 1.0897943031e-02 -2.4299233906e-01 -4.1494457069e+00" polarizability="7.5781604743e+00 -5.5925825814e-01 -1.0785747600e-01 -5.5925825814e-01 7.5969621364e+00 -3.2366479594e-01 -1.0785747600e-01 -3.2366479594e-01 6.3373163080e+00" charge=1 multiplicity=1 method=wB97M-V basis=def2-svpd config_type=h3o+ sample_index=306 temperature=300.0 units=atomic
O         0.0003966177      -0.0114668510       0.0907372558   6.028759840864e-02   6.016737915322e-02  -4.564743150088e-02
H        -0.0879529835       0.9312463962      -0.3910736380   2.208935488919e-02  -2.883559935081e-02   3.556023586992e-02
H         0.8676017769      -0.4439823467      -0.3384563348  -4.326567445000e-02   1.417894973757e-02   2.169067067388e-02
H        -0.7860156644      -0.2952057117      -0.3404921668  -3.910742423846e-02  -4.551159665499e-02  -1.159782025950e-02
4
Properties=species:S:1:pos:R:3:forces:R:3 energy=-7.660893494813e+01 dipole="7.4539022110e-02 -3.2683544814e-02 -6.6171319978e-01" quadrupole="-1.6047011179e+00 -1.5808146975e-02 -8.3925618654e-02 -1.5808146975e-02 -2.3177618574e+00 -1.4448942751e-03 -8.3925618654e-02 -1.4448942751e-03 -4.5483915714e+00" polarizability="7.3834629336e+00 -1.1621153197e-01 -1.1750328577e-01 -1.1621153197e-01 6.6339241360e+00 7.5595370568e-02 -1.1750328577e-01 7.5595370568e-02 5.7103969579e+00" charge=1 multiplicity=1 method=wB97M-V basis=def2-svpd config_type=h3o+ sample_index=307 temperature=300.0 units=atomic
O        -0.0045797330       0.0004086688       0.0687024629   4.180217566725e-02  -6.015836539512e-02   3.581214902609e-03
H         0.0220234150       0.8735448388      -0.2390747157  -2.633258511773e-03   6.182302321486e-02  -1.544537205220e-02
H         0.8786030592      -0.4380895678      -0.2503783528  -3.722710772441e-02   6.950631294583e-03   1.373712523836e-02
H        -0.8273466419      -0.4339572883      -0.2275163029  -1.943685740370e-03  -8.611243071102e-03  -1.875942045026e-03
4
Properties=species:S:1:pos:R:3:forces:R:3 energy=-7.661125955389e+01 dipole="2.4429960756e-02 4.2784444467e-02 -8.1903071211e-01" quadrupole="-1.9945356504e+00 2.4910791865e-01 -6.3007012638e-02 2.4910791865e-01 -2.2459843141e+00 -7.1672176083e-02 -6.3007012638e-02 -7.1672176083e-02 -4.3234634632e+00" polarizability="7.1503814889e+00 1.8801663261e-01 -3.5432054883e-02 1.8801663261e-01 7.0594619009e+00 -7.7224598615e-02 -3.5432054883e-02 -7.7224598615e-02 5.9258809557e+00" charge=1 multiplicity=1 method=wB97M-V basis=def2-svpd config_type=h3o+ sample_index=308 temperature=300.0 units=atomic
O        -0.0032306646      -0.0032370303       0.0809255469  -3.390748529326e-03   1.687741112017e-02  -2.279166376919e-02
H         0.0571636914       0.9104562933      -0.3149152593  -1.197903195981e-02  -2.207814858853e-03   1.221573177637e-02
H         0.8032836904      -0.3905560783      -0.3070020223   7.427119813360e-03  -1.806880365454e-02   4.150305733089e-03
H        -0.8087531125      -0.4597908626      -0.2908496083   7.940051043388e-03   3.402023054425e-03   6.426792960219e-03
4
Properties=species:S:1:pos:R:3:forces:R:3 energy=-7.660408137118e+01 dipole="-1.4904925199e-01 -7.8937505162e-02 -2.9789794165e-01" quadrupole="-1.8033554505e+00 -3.2522559844e-01 1.5678238724e-01 -3.2522559844e-01 -1.2119617381e+00 9.8395218871e-02 1.5678238724e-01 9.8395218871e-02 -5.0024533313e+00" polarizability="7.7184713041e+00 -5.4305201307e-02 1.3769596874e-01 -5.4305201307e-02 7.9717511480e+00 8.1313245933e-02 1.3769596874e-01 8.1313245933e-02 5.8620914720e+00" charge=1 multiplicity=1 method=wB97M-V basis=def2-svpd config_type=h3o+ sample_index=309 temperature=300.0 units=atomic
O         0.0119607524       0.0077360379       0.0428354883  -5.782992918620e-02  -2.604642099041e-02  -9.644828212109e-03
H        -0.1103089156       1.0122800932      -0.0796548986   2.005531004251e-02  -3.111023617964e-02   3.817261403405e-05
H         0.7970913784      -0.6047455193      -0.0814880601  -5.161074486241e-03   2.838514201972e-02  -6.935476765627e-04
H        -0.8781729104      -0.5240399630      -0.1412290643   4.293248358971e-02   2.877528307292e-02   1.030084846660e-02
4
Properties=species:S:1:pos:R:3:forces:R:3 energy=-7.660664812936e+01 dipole="-1.4893629624e-02 1.0449323118e-01 -3.9021233086e-01" quadrupole="-1.9018569405e+00 3.1345296697e-01 -1.7749828921e-02 3.1345296697e-01 -1.3885458318e+00 -7.0539730978e-02 -1.7749828921e-02 -7.0539730978e-02 -4.8828321368e+00" polarizability="7.0343045643e+00 3.0733443151e-01 1.8032720557e-02 3.0733443151e-01 7.7588971334e+00 -1.0823414354e-01 1.8032720557e-02 -1.0823414354e-01 5.7128656331e+00" charge=1 multiplicity=1 method=wB97M-V basis=def2-svpd config_type=h3o+ sample_index=310 temperature=300.0 units=atomic
O        -0.0010019087      -0.0041919136       0.0490860605  -4.388869044712e-02   7.151318912951e-02   7.675755715020e-04
H         0.0511441781       1.0436672738      -0.1474440222  -1.031375714841e-02  -5.876103834867e-02   9.119014393156e-03
H         0.8012384536      -0.4448618954      -0.1300952878   4.169118710292e-02  -2.642470000510e-02  -9.986920546446e-03
H        -0.8363407980      -0.5242503862      -0.1250636985   1.251221948673e-02   1.367398813899e-02   1.042890907272e-04
4
Properties=species:S:1:pos:R:3:forces:R:3 energy=-7.660616427254e+01 dipole="-3.1028783123e-02 5.0070071930e-03 -6.4663016082e-01" quadrupole="-1.6915042147e+00 -5.8976187547e-01 1.0608874313e-01 -5.8976187547e-01 -1.8357566835e+00 -2.2169020969e-02 1.0608874313e-01 -2.2169020969e-02 -4.6776423055e+00" polarizability="7.7698945922e+00 -4.9023863965e-01 4.3799222739e-02 -4.9023863965e-01 7.7105451179e+00 -2.7021063612e-02 4.3799222739e-02 -2.7021063612e-02 6.0044103831e+00" charge=1 multiplicity=1 method=wB97M-V basis=def2-svpd config_type=h3o+ sample_index=311 temperature=300.0 units=atomic
O         0.0060826366      -0.0006464614       0.0675735360   9.063050051800e-03   5.720415553651e-03  -2.460284254881e-02
H        -0.1192387958       0.9688888409      -0.2360549711   2.384364330136e-02  -2.620671923021e-02   1.002591861073e-02
H         0.8625506866      -0.5505425928      -0.2161617531  -4.042753596944e-02   3.311401679006e-02   9.081288749842e-03
H        -0.8406563640      -0.4000632345      -0.2465835655   7.524542539739e-03  -1.263413137699e-02   5.496257618415e-03
4
Properties=species:S:1:pos:R:3:forces:R:3 energy=-7.656688874143e+01 dipole="8.9035793774e-02 -1.3379052111e-01 -3.7937549924e-01" quadrupole="-2.4332758692e+00 -6.6011812330e-01 -2.8912068587e-02 -6.6011812330e-01 -1.3977201454e+00 1.7009201418e-01 -2.8912068587e-02 1.7009201418e-01 -4.6943541668e+00" polarizability="5.9989354553e+00 -6.7992072024e-01 -1.3987908525e-01 -6.7992072024e-01 6.5649967536e+00 1.0132467616e-01 -1.3987908525e-01 1.0132467616e-01 5.2498711758e+00" charge=1 multiplicity=1 method=wB97M-V basis=def2-svpd config_type=h3o+ sample_index=312 temperature=300.0 units=atomic
O        -0.0019786753       0.0116674718       0.0482156723   2.280138867141e-01   3.753264974422e-02   6.433923282766e-02
H        -0.0962473065       0.9222813776      -0.0971295614   8.998419805590e-03   5.781051838343e-02  -1.429208836230e-02
H         0.7701856762      -0.6433050606      -0.1506266462  -5.604824868159e-03   4.601702077735e-02   7.191855677952e-03
H        -0.6422874847      -0.4582111857      -0.1408154820  -2.314063102715e-01  -1.413600648218e-01  -5.723646312104e-02
4
Properties=species:S:1:pos:R:3:forces:R:3 energy=-7.660586463015e+01 dipole="-2.0728490384e-02 -6.1562918867e-03 -3.4242455701e-01" quadrupole="-1.8170601063e+00 -3.2721959445e-01 4.7789213856e-02 -3.2721959445e-01 -1.1670395021e+00 3.9773867122e-02 4.7789213856e-02 3.9773867122e-02 -4.9925091320e+00" polarizability="7.6567461856e+00 -2.7505415995e-01 1.8343720640e-02 -2.7505415995e-01 8.2031606909e+00 1.3900986409e-02 1.8343720640e-02 1.3900986409e-02 5.8938781020e+00" charge=1 multiplicity=1 method=wB97M-V basis=def2-svpd config_type=h3o+ sample_index=313 temperature=300.0 units=atomic
O         0.0034998600       0.0032337207       0.0458728866   5.494684022443e-03   7.345564402889e-03  -1.093781033857e-02
H        -0.0640678320       1.0455001540      -0.1088587703   1.211789118115e-02  -5.427838891830e-02   4.286156331661e-03
H         0.8444403793      -0.5843026585      -0.1123444381  -2.955563452098e-02   3.550054752860e-02   3.917089661989e-03
H        -0.8363764016      -0.5055882280      -0.1298446060   1.193838142048e-02   1.143238755538e-02   2.739317063867e-03
4
Properties=species:S:1:pos:R:3:forces:R:3 energy=-7.659709575705e+01 dipole="2.6982583984e-03 -2.5724473439e-01 -9.2199493716e-02" quadrupole="-2.3161604172e+00 -1.9128400513e-01 7.5657177589e-03 -1.9128400513e-01 -1.1573040674e+00 2.2242253107e-01 7.5657177589e-03 2.2242253107e-01 -4.9055541334e+00" polarizability="6.5901006899e+00 -1.5759604472e-01 -5.3473130524e-03 -1.5759604472e-01 6.9596506218e+00 1.2163511107e-01 -5.3473130524e-03 1.2163511107e-01 5.4411542542e+00" charge=1 multiplicity=1 method=wB97M-V basis=def2-svpd config_type=h3o+ sample_index=314 temperature=300.0 units=atomic
O         0.0012898124       0.0198581938       0.0289527240   2.247356759916e-02  -1.409712155108e-01  -4.951847582015e-04
H        -0.0358307538       0.9254955352       0.0294519422   1.495051901784e-03   8.515764405788e-02  -2.696552030574e-03
H         0.7554026878      -0.6432406177      -0.0514511874   6.415206353688e-03   4.029790559713e-02   2.935317067887e-03
H        -0.7402055453      -0.5930522157      -0.0579072984  -3.037966100101e-02   1.552042778011e-02   2.553754626835e-04
4
Properties=species:S:1:pos:R:3:forces:R:3 energy=-7.660282938545e+01 dipole="2.0711759960e-01 5.3390126517e-02 -4.3796046068e-01" quadrupole="-1.4473401211e+00 -1.4594966518e-02 -1.9319122458e-01 -1.4594966518e-02 -1.8538946727e+00 -6.5766625629e-02 -1.9319122458e-01 -6.5766625629e-02 -4.8581028881e+00" polarizability="7.6326930799e+00 -2.8111171551e-01 -2.2087876254e-01 -2.8111171551e-01 7.3905489287e+00 -4.4503935537e-02 -2.2087876254e-01 -4.4503935537e-02 5.7842326695e+00" charge=1 multiplicity=1 method=wB97M-V basis=def2-svpd config_type=h3o+ sample_index=315 temperature=300.0 units=atomic
O        -0.0123816904      -0.0040756810       0.0523238368   1.248742160003e-01   3.695918405441e-02  -3.139639946308e-03
H         0.0623237994       0.9807038040      -0.1644225823  -1.325607956901e-02  -2.467852518024e-02   5.480905452941e-03
H         0.9428084053      -0.4571184279      -0.1759680569  -6.340763950817e-02   1.674039245135e-02   1.320341861503e-02
H        -0.8070037116      -0.4507671570      -0.1141548697  -4.821280233996e-02  -2.902158669109e-02  -1.554534347449e-02
4
Properties=species:S:1:pos:R:3:forces:R:3 energy=-7.660937252649e+01 dipole="8.5291147502e-04 1.0135719949e-01 -2.2490972928e-01" quadrupole="-1.4214352617e+00 5.1461893960e-03 -1.2508672616e-03 5.1461893960e-03 -2.1685850864e+00 -1.1081034265e-01 -1.2508672616e-03 -1.1081034265e-01 -4.8584890357e+00" polarizability="6.7833465086e+00 2.8026306320e-03 -7.1018577801e-04 2.8026306320e-03 6.4656539126e+00 -6.3451319795e-02 -7.1018577801e-04 -6.3451319795e-02 5.3895602225e+00" charge=1 multiplicity=1 method=wB97M-V basis=def2-svpd config_type=h3o+ sample_index=316 temperature=300.0 units=atomic
O        -0.0000913655      -0.0090259545       0.0378449733   1.642484259679e-04   2.767104044824e-02   1.203099156497e-02
H         0.0012553907       0.9347880866      -0.1013179537  -2.490548293161e-04   2.556481802711e-02  -2.193914215452e-03
H         0.8655345198      -0.3908432234      -0.0609242347   1.782144100064e-02  -2.677433498438e-02  -4.901193325554e-03
H        -0.8653209964      -0.3921747771      -0.0604654451  -1.773663634186e-02  -2.646502553896e-02  -4.927806315073e-03
4
Properties=species:S:1:pos:R:3:forces:R:3 energy=-7.661356414167e+01 dipole="7.7342404478e-02 -5.4963759375e-04 -4.8653920655e-01" quadrupole="-1.6281812544e+00 1.2795569356e-01 -9.2502250859e-02 1.2795569356e-01 -1.9367827857e+00 -1.5549915802e-02 -9.2502250859e-02 -1.5549915802e-02 -4.7740736039e+00" polarizability="7.3064934696e+00 -1.8783275440e-03 -9.2826013451e-02 -1.8783275440e-03 7.0297427039e+00 5.1698900915e-03 -9.2826013451e-02 5.1698900915e-03 5.6736869351e+00" charge=1 multiplicity=1 method=wB97M-V basis=def2-svpd config_type=h3o+ sample_index=317 temperature=300.0 units=atomic
O        -0.0058147938      -0.0005074949       0.0559440855   3.881640959470e-02  -1.114818074310e-02  -1.083905435086e-03
H         0.0498900414       0.9431409008      -0.1735020296  -9.162725544783e-03   7.653642945523e-03  -1.627464881194e-03
H         0.8731028040      -0.4472845595      -0.1840351566  -2.758915387499e-02   4.186334382845e-03   6.743081883698e-03
H        -0.8299432374      -0.4800422933      -0.1549929081  -2.069460182202e-03  -6.871004547293e-04  -4.031942531574e-03
4
Properties=species:S:1:pos:R:3:forces:R:3 energy=-7.659135362049e+01 dipole="-1.4681851939e-01 1.5819032446e-01 -1.3861799364e-01" quadrupole="-1.2879045053e+00 -6.5591955889e-01 1.6436213468e-01 -6.5591955889e-01 -1.2852453214e+00 -1.2610613205e-01 1.6436213468e-01 -1.2610613205e-01 -5.1373072866e+00" polarizability="8.2188330500e+00 -4.2978494756e-01 1.1384464347e-01 -4.2978494756e-01 8.7010937217e+00 -1.1849687183e-01 1.1384464347e-01 -1.1849687183e-01 6.0273089686e+00" charge=1 multiplicity=1 method=wB97M-V basis=def2-svpd config_type=h3o+ sample_index=318 temperature=300.0 units=atomic
O         0.0127541917      -0.0090148507       0.0320108580  -4.771273478885e-02   6.069155070210e-02  -8.224759968313e-03
H        -0.1525724679       1.0972094031      -0.0700478619   3.282183002828e-02  -7.814037728379e-02   7.051819208269e-03
H         0.8804991495      -0.5462582750       0.0023385994  -2.850158953354e-02   2.109713803595e-02  -2.363286719624e-03
H        -0.9320143989      -0.3996301403      -0.0613858571   4.339365517720e-02  -3.647083367906e-03   3.536748093174e-03
4
Properties=species:S:1:pos:R:3:forces:R:3 energy=-7.659184761362e+01 dipole="1.0208639389e-01 2.3145207722e-01 -4.8392119637e-01" quadrupole="-1.3920398404e+00 2.4754241208e-01 -1.2429133268e-01 2.4754241208e-01 -1.4626626682e+00 -2.4542861562e-01 -1.2429133268e-01 -2.4542861562e-01 -4.9477405584e+00" polarizability="8.1649024332e+00 1.1328394514e-01 -1.1981497969e-01 1.1328394514e-01 8.8852695460e+00 -3.1388284175e-01 -1.1981497969e-01 -3.1388284175e-01 6.1792942044e+00" charge=1 multiplicity=1 method=wB97M-V basis=def2-svpd config_type=h3o+ sample_index=319 temperature=300.0 units=atomic
O        -0.0073034062      -0.0143099000       0.0555141590   4.459234250581e-02   8.365086545410e-02  -2.312099432663e-02
H         0.0701149501       1.1050487296      -0.2109367536  -1.572940342090e-02  -8.568585110743e-02   2.069354279035e-02
H         0.9241528124      -0.4071861414      -0.1655983030  -4.542447403761e-02   6.903555763668e-04   6.485701616322e-03
H        -0.8773953392      -0.4612472715      -0.1291159552   1.655846293622e-02   1.346553808073e-03  -4.061885045427e-03
4
Properties=species:S:1:pos:R:3:forces:R:3 energy=-7.658387586557e+01 dipole="-1.0660600556e-01 -4.1729367249e-02 -5.1410151794e-01" quadrupole="-2.4842893076e+00 3.2354715042e-01 7.6984565034e-02 3.2354715042e-01 -1.5494982006e+00 1.0257676404e-01 7.6984565034e-02 1.0257676404e-01 -4.5892936833e+00" polarizability="5.9792514884e+00 4.3552758523e-01 1.6067885961e-01 4.3552758523e-01 6.5720332862e+00 4.4483377993e-02 1.6067885961e-01 4.4483377993e-02 5.2941520300e+00" charge=1 multiplicity=1 method=wB97M-V basis=def2-svpd config_type=h3o+ sample_index=320 temperature=300.0 units=atomic
O         0.0055348750       0.0064875431       0.0577830569  -1.792908565602e-01   7.152653298025e-02   6.225819317640e-02
H         0.0242113472       0.9379448369      -0.1631954085  -2.744479558875e-03   2.093266639948e-02  -9.120784151859e-03
H         0.6497117425      -0.4704820568      -0.1755415779   1.929884916627e-01  -1.131351691916e-01  -5.821174739373e-02
H        -0.7624826368      -0.5635716318      -0.2031408954  -1.095246198853e-02   2.066793513467e-02   5.072463258872e-03
4
Properties=species:S:1:pos:R:3:forces:R:3 energy=-7.658128891499e+01 dipole="3.3537142389e-02 -1.3339968417e-01 -6.2592264417e-01" quadrupole="-1.8084604957e+00 -3.8894722668e-03 -3.8095162461e-02 -3.8894722668e-03 -2.4423702301e+00 1.0426005767e-01 -3.8095162461e-02 1.0426005767e-01 -4.4479070034e+00" polarizability="6.6268173713e+00 -5.0679252592e-02 -5.1212582360e-02 -5.0679252592e-02 5.7533067181e+00 2.1094300415e-01 -5.1212582360e-02 2.1094300415e-01 5.3039985919e+00" charge=1 multiplicity=1 method=wB97M-V basis=def2-svpd config_type=h3o+ sample_index=321 temperature=300.0 units=atomic
O        -0.0022195759       0.0075017115       0.0659189788   1.981750125856e-02  -2.364879335340e-01   7.826470429100e-02
H         0.0117112256       0.7830760215      -0.2037840962   1.447273890016e-03   2.529403887277e-01  -8.040437140864e-02
H         0.8199584760      -0.4476568067      -0.2398374956  -3.643913788674e-03  -3.577130182021e-03   5.402688657220e-03
H        -0.7961555965      -0.4474524205      -0.2287571152  -1.762094347390e-02  -1.286645305042e-02  -3.267706010639e-03
4
Properties=species:S:1:pos:R:3:forces:R:3 energy=-7.659126737990e+01 dipole="2.2047195031e-01 9.6989471074e-02 -4.8590800452e-01" quadrupole="-1.1789849647e+00 -2.9028645746e-01 -1.6770544070e-01 -2.9028645746e-01 -2.3988258156e+00 -1.4961095581e-01 -1.6770544070e-01 -1.4961095581e-01 -4.7374963911e+00" polarizability="7.4089818694e+00 -4.3955225339e-01 -2.2106205679e-01 -4.3955225339e-01 6.6521341573e+00 -7.9070468188e-02 -2.2106205679e-01 -7.9070468188e-02 5.6106204156e+00" charge=1 multiplicity=1 method=wB97M-V basis=def2-svpd config_type=h3o+ sample_index=322 temperature=300.0 units=atomic
O        -0.0103558204      -0.0103069303       0.0556516761   1.707752871172e-01   3.203337920636e-02   1.918594277301e-02
H         0.0080632151       0.9106013353      -0.2001894580   5.917690505292e-04   2.700953176241e-02  -1.282935988247e-03
H         0.9739276269      -0.4097911414      -0.1797428494  -6.884477337226e-02   7.009511349939e-03   1.144162561167e-02
H        -0.8162863521      -0.3281083300      -0.1280708510  -1.025197349778e-01  -6.605018384765e-02  -2.934661464867e-02
4
Properties=species:S:1:pos:R:3:forces:R:3 energy=-7.659497138262e+01 dipole="2.1528344679e-01 9.7842835691e-02 -2.6361063660e-01" quadrupole="-2.1799398763e+00 3.3009518848e-01 -1.9082093806e-01 3.3009518848e-01 -1.1516333987e+00 -1.9280608613e-02 -1.9082093806e-01 -1.9280608613e-02 -4.9025128820e+00" polarizability="6.6386272057e+00 1.6895741122e-02 -1.3962891505e-01 1.6895741122e-02 7.5373906292e+00 -4.6927593010e-02 -1.3962891505e-01 -4.6927593010e-02 5.5715927383e+00" charge=1 multiplicity=1 method=wB97M-V basis=def2-svpd config_type=h3o+ sample_index=323 temperature=300.0 units=atomic
O        -0.0157039941      -0.0004335014       0.0403738491   1.300134312833e-01   1.051652841535e-01   6.783166351647e-03
H         0.1297904328       1.0466038144      -0.0900512860  -2.731665133582e-02  -5.601976940381e-02   4.679510714454e-03
H         0.8281724456      -0.4762594635      -0.1256802565  -1.622999852601e-03   1.651363070832e-03   2.662926080947e-03
H        -0.7066628489      -0.5561531482      -0.0472494856  -1.010721483608e-01  -5.079500500675e-02  -1.412743925278e-02
4
Properties=species:S:1:pos:R:3:forces:R:3 energy=-7.658940216922e+01 dipole="1.7382826881e-01 2.5293228100e-02 -5.0443671167e-01" quadrupole="-1.8768822271e+00 -5.1159892630e-01 -1.2536607880e-01 -5.1159892630e-01 -1.1836096022e+00 1.6926940366e-02 -1.2536607880e-01 1.6926940366e-02 -4.8624535988e+00" polarizability="7.6659291342e+00 -7.7654523354e-01 -2.3018979161e-01 -7.7654523354e-01 8.3956906789e+00 -2.0172061479e-02 -2.3018979161e-01 -2.0172061479e-02 5.9857173619e+00" charge=1 multiplicity=1 method=wB97M-V basis=def2-svpd config_type=h3o+ sample_index=324 temperature=300.0 units=atomic
O        -0.0078847138       0.0010233227       0.0569170505   1.371436894838e-01   5.835288958955e-02  -3.887111797602e-03
H        -0.0312464365       1.0538736667      -0.1742622323   4.185735696110e-03  -6.408737804118e-02   1.023368983404e-02
H         0.9059453478      -0.5948113979      -0.1965179681  -6.109863223612e-02   4.906605485020e-02   1.646239655288e-02
H        -0.7485391420      -0.4678227365      -0.1572000333  -8.023267472336e-02  -4.333071309582e-02  -2.280735618758e-02
4
Properties=species:S:1:pos:R:3:forces:R:3 energy=-7.660494558378e+01 dipole="-7.3742625634e-02 -5.4413419588e-02 -7.2881624537e-01" quadrupole="-1.5250374253e+00 -2.6606109097e-01 1.2849456430e-01 -2.6606109097e-01 -2.3886654206e+00 1.6981410487e-02 1.2849456430e-01 1.6981410487e-02 -4.4949365007e+00" polarizability="7.7887969353e+00 -1.0249558824e-01 1.3667222981e-01 -1.0249558824e-01 6.7937388201e+00 1.2115811495e-01 1.3667222981e-01 1.2115811495e-01 5.8930705053e+00" charge=1 multiplicity=1 method=wB97M-V basis=def2-svpd config_type=h3o+ sample_index=325 temperature=300.0 units=atomic
O         0.0068643431       0.0015697717       0.0737255582  -2.300147623787e-02  -7.540282158365e-02  -1.045607741225e-02
H        -0.0780752157       0.8615598614      -0.2625767797   1.110838803776e-02   6.305557031160e-02  -1.611924375182e-02
H         0.8522113424      -0.4752191147      -0.2502824034  -2.738806129235e-02   1.328761020342e-02   7.700032421664e-03
H        -0.8839855084      -0.4033055794      -0.2845786900   3.927966749226e-02  -9.336271599228e-04   1.887457218882e-02
4
Properties=species:S:1:pos:R:3:forces:R:3 energy=-7.659974420602e+01 dipole="1.1660555396e-02 2.1175966792e-03 -3.4588007835e-01" quadrupole="-2.5268974437e+00 -1.8016817749e-01 2.1148665821e-03 -1.8016817749e-01 -1.0369940109e+00 8.9996685981e-02 2.1148665821e-03 8.9996685981e-02 -4.8182520929e+00" polarizability="6.2548825564e+00 -1.8904670643e-01 -2.4353556310e-02 -1.8904670643e-01 7.3187735254e+00 2.0408064231e-02 -2.4353556310e-02 2.0408064231e-02 5.4651734584e+00" charge=1 multiplicity=1 method=wB97M-V basis=def2-svpd config_type=h3o+ sample_index=326 temperature=300.0 units=atomic
O         0.0001358217       0.0065186350       0.0460906133   4.360522880225e-02   6.519457770094e-02   1.960155606875e-02
H        -0.0286536218       1.0216491054      -0.1005830801   4.520949078281e-03  -3.764882343178e-02  -3.262227835182e-04
H         0.7302906562      -0.5835009330      -0.1266065641   4.056980350955e-02   5.727505059177e-03  -4.088510724823e-03
H        -0.7038099704      -0.5350926879      -0.1273019972  -8.869784534522e-02  -3.327837818248e-02  -1.517991845783e-02
4
Properties=species:S:1:pos:R:3:forces:R:3 energy=-7.659239503947e+01 dipole="1.5993484676e-01 7.9626039295e-03 -6.7537664334e-01" quadrupole="-2.4919163092e+00 1.4334800937e-01 -1.9487262472e-01 1.4334800937e-01 -1.8619952215e+00 3.7762212188e-02 -1.9487262472e-01 3.7762212188e-02 -4.3976036893e+00" polarizability="6.0337824568e+00 -1.0266494163e-01 -2.2472788613e-01 -1.0266494163e-01 6.4812684661e+00 -1.6118228066e-02 -2.2472788613e-01 -1.6118228066e-02 5.3839144438e+00" charge=1 multiplicity=1 method=wB97M-V basis=def2-svpd config_type=h3o+ sample_index=327 temperature=300.0 units=atomic
O        -0.0119406795       0.0027140202       0.0697485765   1.305369720377e-01   7.402238901223e-02   5.478627309169e-02
H         0.0867688010       0.9146971269      -0.2380362778  -1.535413727512e-02   1.662629204956e-02  -4.096210942582e-03
H         0.7581995463      -0.4550076742      -0.2776062442   2.917283162107e-02  -1.084980346805e-02   2.827786474493e-03
H        -0.6538999913      -0.4950986599      -0.2179804428  -1.443559807395e-01  -7.979273664449e-02  -5.351427402717e-02
4
Properties=species:S:1:pos:R:3:forces:R:3 energy=-7.660121876113e+01 dipole="-3.0739377761e-02 -8.6974589439e-02 -3.7249885062e-01" quadrupole="-2.4838928761e+00 -2.5768984868e-01 4.6710989358e-02 -2.5768984868e-01 -1.3329573946e+00 1.4391597682e-01 4.6710989358e-02 1.4391597682e-01 -4.7430616926e+00" polarizability="6.1186008036e+00 -1.7775796093e-01 7.0114213817e-03 -1.7775796093e-01 6.7553845566e+00 7.9991234486e-02 7.0114213817e-03 7.9991234486e-02 5.3374711927e+00" charge=1 multiplicity=1 method=wB97M-V basis=def2-svpd config_type=h3o+ sample_index=328 temperature=300.0 units=atomic
O         0.0037579341       0.0103207905       0.0479678891   2.195701963161e-02   1.621042070428e-03   2.812035170126e-02
H        -0.0615189314       0.9525316754      -0.0996770212   8.253959248066e-03   2.227399022539e-02  -9.348901543111e-03
H         0.7150526873      -0.5910764681      -0.1330625995   4.752572920148e-02   3.263069031112e-03  -5.852981152996e-03
H        -0.7136686831      -0.5191637762      -0.1518498258  -7.773912330508e-02  -2.716535073058e-02  -1.291287844646e-02
4
Properties=species:S:1:pos:R:3:forces:R:3 energy=-7.660707717850e+01 dipole="1.0672307389e-01 1.2334871312e-01 -3.5165296991e-01" quadrupole="-1.3528045008e+00 -1.0263932273e-01 -7.6660336710e-02 -1.0263932273e-01 -2.1178218710e+00 -1.4460874906e-01 -7.6660336710e-02 -1.4460874906e-01 -4.8543825858e+00" polarizability="7.1750708548e+00 -1.8806223915e-01 -8.3487945934e-02 -1.8806223915e-01 6.8986774813e+00 -1.0699751370e-01 -8.3487945934e-02 -1.0699751370e-01 5.5756718029e+00" charge=1 multiplicity=1 method=wB97M-V basis=def2-svpd config_type=h3o+ sample_index=329 temperature=300.0 units=atomic
O        -0.0054014084      -0.0104519451       0.0464535233   8.537466565965e-02   5.171910285193e-02   6.108362165804e-03
H         0.0118083901       0.9607844402      -0.1514313692  -2.340637529617e-03  -8.970403262076e-03   4.162912720830e-03
H         0.9176838056      -0.4077200226      -0.1180645544  -3.588915406443e-02  -3.592589608741e-03   2.370168971636e-03
H        -0.8430590832      -0.3782927228      -0.0911075142  -4.714613495978e-02  -3.915341225629e-02  -1.264585776012e-02
4
Properties=species:S:1:pos:R:3:forces:R:3 energy=-7.660769034412e+01 dipole="-3.6849501667e-02 8.3703893661e-02 -6.4765790917e-01" quadrupole="-2.2675901787e+00 2.8592186152e-02 3.6907086465e-02 2.8592186152e-02 -1.7823646896e+00 -6.3848324617e-02 3.6907086465e-02 -6.3848324617e-02 -4.5183108604e+00" polarizability="6.3986014540e+00 7.6453226717e-02 5.5461560878e-02 7.6453226717e-02 7.0171683081e+00 -1.3314156350e-01 5.5461560878e-02 -1.3314156350e-01 5.5676100479e+00" charge=1 multiplicity=1 method=wB97M-V basis=def2-svpd config_type=h3o+ sample_index=330 temperature=300.0 units=atomic
O         0.0022671012      -0.0031389199       0.0676750706  -3.934269449346e-02   8.082779895195e-02   1.952755231279e-02
H        -0.0067789431       0.9702854099      -0.2438003302   1.508794970463e-03  -2.826412547254e-02   1.083866793536e-02
H         0.7414099383      -0.4514524119      -0.2226574512   7.070699879037e-02  -3.708254126253e-02  -2.279287601199e-02
H        -0.7709099815      -0.4606447166      -0.2339732758  -3.287096762428e-02  -1.547112691711e-02  -7.582151284409e-03
4
Properties=species:S:1:pos:R:3:forces:R:3 energy=-7.659517230729e+01 dipole="-1.1188106696e-02 -5.9935119823e-03 -1.4737912644e-01" quadrupole="-5.2504758713e-01 -1.9149944750e-01 3.3610245387e-02 -1.9149944750e-01 -2.2400678914e+00 -5.8346015478e-02 3.3610245387e-02 -5.8346015478e-02 -5.0779126316e+00" polarizability="8.8063400372e+00 -1.1980533739e-01 2.4081453657e-02 -1.1980533739e-01 7.1624403337e+00 -4.1499652934e-03 2.4081453657e-02 -4.1499652934e-03 5.8556350821e+00" charge=1 multiplicity=1 method=wB97M-V basis=def2-svpd config_type=h3o+ sample_index=331 temperature=300.0 units=atomic
O         0.0024222478      -0.0047428050       0.0326258625  -3.730648307018e-03  -5.909507337052e-02  -1.189801382183e-03
H        -0.0386882850       0.9323518347      -0.0610522503   6.398432509285e-03   3.692593711977e-02  -3.319133129449e-03
H         0.9871457841      -0.4469752915      -0.0329630044  -6.681702313865e-02   1.696622876552e-02   1.586039174915e-03
H        -0.9872110865      -0.4022946096      -0.0450687942   6.414961930823e-02   5.202713086718e-03   2.928850641147e-03
4
Properties=species:S:1:pos:R:3:forces:R:3 energy=-7.659051726287e+01 dipole="4.2182256584e-02 2.5009636821e-01 -8.8559699071e-01" quadrupole="-2.2365701285e+00 -8.7381306254e-02 -4.0963622860e-02 -8.7381306254e-02 -2.2514659845e+00 -3.4967868327e-01 -4.0963622860e-02 -3.4967868327e-01 -4.1527336627e+00" polarizability="6.4991318867e+00 -1.3185886706e-01 -8.5819148634e-02 -1.3185886706e-01 7.3214633457e+00 -5.3899508628e-01 -8.5819148634e-02 -5.3899508628e-01 5.9190405164e+00" charge=1 multiplicity=1 method=wB97M-V basis=def2-svpd config_type=h3o+ sample_index=332 temperature=300.0 units=atomic
O        -0.0022783482      -0.0170264667       0.0858564429   6.015944086796e-02   1.334899096778e-01   1.250844617471e-02
H        -0.0047477484       0.9679792356      -0.3810134169   1.840529289056e-03  -4.468602366521e-02   3.951048758427e-02
H         0.7858652803      -0.3581677686      -0.3110981807   3.153672477893e-02  -2.993295405468e-02  -1.034316066016e-02
H        -0.7446708829      -0.3288939766      -0.2997361241  -9.353793742204e-02  -5.887351787916e-02  -4.167433747880e-02
4
Properties=species:S:1:pos:R:3:forces:R:3 energy=-7.660119040930e+01 dipole="5.6032840643e-02 1.8118121217e-01 -3.6833985255e-01" quadrupole="-1.7714759420e+00 -2.5599287412e-01 -2.0542805386e-02 -2.5599287412e-01 -1.4482038413e+00 -1.5168928245e-01 -2.0542805386e-02 -1.5168928245e-01 -4.9027772411e+00" polarizability="7.0645018964e+00 -3.0121431361e-01 -4.5763478997e-02 -3.0121431361e-01 7.8769936602e+00 -1.8654784821e-01 -4.5763478997e-02 -1.8654784821e-01 5.7337678859e+00" charge=1 multiplicity=1 method=wB97M-V basis=def2-svpd config_type=h3o+ sample_index=333 temperature=300.0 units=atomic
O        -0.0018156660      -0.0099072854       0.0474641998   7.351025908403e-02   1.040059801438e-01   1.827259506426e-03
H        -0.0285570802       1.0643361722      -0.1552418001   5.714241787878e-03  -6.996572269003e-02   1.257254511835e-02
H         0.8649428013      -0.4823058807      -0.1152358268  -1.894674689519e-02   6.145718746958e-03  -4.679218022119e-05
H        -0.8073327711      -0.4160388097      -0.1061940439  -6.028024448999e-02  -4.018816744880e-02  -1.435611970516e-02
4
Properties=species:S:1:pos:R:3:forces:R:3 energy=-7.660617804583e+01 dipole="7.8965616811e-02 -5.2369185825e-02 -1.8053622273e-01" quadrupole="-2.1555094240e+00 -1.0590729546e-01 -5.2054279403e-02 -1.0590729546e-01 -1.0180344189e+00 1.0182571463e-01 -5.2054279403e-02 1.0182571463e-01 -4.9813128432e+00" polarizability="6.9571257735e+00 -2.1739331494e-01 -5.3546834801e-02 -2.1739331494e-01 7.6938316598e+00 5.9593567910e-02 -5.3546834801e-02 5.9593567910e-02 5.6434159821e+00" charge=1 multiplicity=1 method=wB97M-V basis=def2-svpd config_type=h3o+ sample_index=334 temperature=300.0 units=atomic
O        -0.0045662744       0.0081557023       0.0348555150   5.949294265897e-02   5.185408675858e-03   1.074961267201e-03
H         0.0094086375       1.0262419573      -0.0357980327  -2.672518843147e-03  -3.503873793005e-02  -9.958661138693e-04
H         0.8154912384      -0.5877646397      -0.0807487555  -1.544933333948e-02   3.373401240141e-02   3.680253759622e-03
H        -0.7518264640      -0.5618921377      -0.0579600352  -4.137202357515e-02  -3.876604133694e-03  -3.761955353249e-03
4
Properties=species:S:1:pos:R:3:forces:R:3 energy=-7.659519204785e+01 dipole="1.2625686040e-01 -1.3940217579e-01 -9.7668712234e-01" quadrupole="-2.0979248645e+00 -2.5485575887e-01 -1.5808737799e-01 -2.5485575887e-01 -2.3114051697e+00 1.8784883991e-01 -1.5808737799e-01 1.8784883991e-01 -4.0668146909e+00" polarizability="7.8477495449e+00 -4.6039803236e-01 -3.2832040197e-01 -4.6039803236e-01 7.2041871450e+00 3.3636679828e-01 -3.2832040197e-01 3.3636679828e-01 6.3571432012e+00" charge=1 multiplicity=1 method=wB97M-V basis=def2-svpd config_type=h3o+ sample_index=335 temperature=300.0 units=atomic
O        -0.0067608101       0.0090343833       0.0933089186   5.779404314479e-02  -8.015658013192e-02  -4.211306958266e-02
H        -0.0035209355       0.8417351973      -0.3457504402   2.757840760846e-03   4.964924677603e-02  -1.123052871073e-02
H         0.8561701050      -0.5231391112      -0.3995195688  -5.001629790492e-02   3.507296586803e-02   4.227656819353e-02
H        -0.7444813036      -0.4545867130      -0.3657943593  -1.054015539213e-02  -4.571830816062e-03   1.107160722011e-02
4
Properties=species:S:1:pos:R:3:forces:R:3 energy=-7.660591915351e+01 dipole="3.1555548105e-03 1.3897932614e-01 -7.4160278903e-01" quadrupole="-2.0556064510e+00 2.2222915149e-01 -2.9040619476e-02 2.2222915149e-01 -1.7309446257e+00 -1.5457449906e-01 -2.9040619476e-02 -1.5457449906e-01 -4.5186912031e+00" polarizability="7.2103551629e+00 2.1646244833e-01 6.0009664316e-03 2.1646244833e-01 7.9592784915e+00 -2.5980434068e-01 6.0009664316e-03 -2.5980434068e-01 6.0321185586e+00" charge=1 multiplicity=1 method=wB97M-V basis=def2-svpd config_type=h3o+ sample_index=336 temperature=300.0 units=atomic
O        -0.0014245528      -0.0074295703       0.0746168952  -1.808826238806e-02   7.280809417569e-02  -2.367906056832e-02
H         0.0414706100       1.0199822579      -0.2932498301  -9.089024106355e-03  -6.073075655630e-02   2.529975300661e-02
H         0.7959529152      -0.4171379777      -0.2627636267   1.955520905509e-02  -1.746892071038e-02  -5.075599802457e-03
H        -0.8146281870      -0.4758565568      -0.2556313627   7.622275741795e-03   5.394297237299e-03   3.454217339567e-03
4
Properties=species:S:1:pos:R:3:forces:R:3 energy=-7.659293263033e+01 dipole="-1.8044824572e-01 -1.3801857224e-01 -6.2460497170e-01" quadrupole="-1.2984194449e+00 -2.7161038252e-01 2.4944320460e-01 -2.7161038252e-01 -2.2329419964e+00 1.0302524705e-01 2.4944320460e-01 1.0302524705e-01 -4.6704809100e+00" polarizability="8.2709811925e+00 8.1581940836e-02 3.0667070918e-01 8.1581940836e-02 6.9211438883e+00 2.2266693101e-01 3.0667070918e-01 2.2266693101e-01 5.9232839053e+00" charge=1 multiplicity=1 method=wB97M-V basis=def2-svpd config_type=h3o+ sample_index=337 temperature=300.0 units=atomic
O         0.0139202501       0.0069665010       0.0656044632  -5.715617293559e-02  -1.283992857467e-01  -3.658285272830e-04
H        -0.1172582889       0.8596861865      -0.2036074110   1.038962274666e-02   9.237325961107e-02  -2.695433079894e-02
H         0.8422219049      -0.5189385951      -0.1970801692  -2.154569606723e-02   2.018006952865e-02   1.620773602028e-03
H        -0.9477157847      -0.4442888098      -0.2666027757   6.831992666440e-02   1.584423622807e-02   2.569868674175e-02
4
Properties=species:S:1:pos:R:3:forces:R:3 energy=-7.657151669410e+01 dipole="-1.6158732962e-01 1.3813246617e-01 -6.9825848294e-01" quadrupole="-2.5075494231e+00 2.4499198973e-01 1.5526931495e-01 2.4499198973e-01 -1.4332835543e+00 -8.5837041951e-02 1.5526931495e-01 -8.5837041951e-02 -4.4662600818e+00" polarizability="6.3193972472e+00 4.7916015645e-01 2.7749841285e-01 4.7916015645e-01 7.5408034690e+00 -2.2222056066e-01 2.7749841285e-01 -2.2222056066e-01 5.6732960771e+00" charge=1 multiplicity=1 method=wB97M-V basis=def2-svpd config_type=h3o+ sample_index=338 temperature=300.0 units=atomic
O         0.0098357239      -0.0042379986       0.0709643118  -2.299130890228e-01   1.756600618966e-01   5.814595371331e-02
H        -0.0081306354       1.0264024804      -0.2645411192   2.897304885139e-03  -6.097882335005e-02   1.964911149801e-02
H         0.6415117849      -0.4369139957      -0.2197248652   2.214485723171e-01  -1.316599998146e-01  -9.018380639289e-02
H        -0.7907656467      -0.5136758587      -0.2688023534   5.569985458194e-03   1.698302803564e-02   1.238653596760e-02
4
Properties=species:S:1:pos:R:3:forces:R:3 energy=-7.658057460242e+01 dipole="2.1439862928e-01 -6.8675756687e-02 -7.6108355198e-01" quadrupole="-1.1414815755e+00 -4.0385874901e-01 -2.0516521953e-01 -4.0385874901e-01 -2.6740274157e+00 8.0590879952e-03 -2.0516521953e-01 8.0590879952e-03 -4.4398868384e+00" polarizability="8.2449439365e+00 -5.9707033537e-01 -3.6853196203e-01 -5.9707033537e-01 6.5300489321e+00 1.9782757655e-01 -3.6853196203e-01 1.9782757655e-01 5.9227650821e+00" charge=1 multiplicity=1 method=wB97M-V basis=def2-svpd config_type=h3o+ sample_index=339 temperature=300.0 units=atomic
O        -0.0094750798       0.0005420953       0.0756786705   9.860370482743e-02  -1.140905745487e-01   2.147015849090e-02
H        -0.0108086282       0.8115576148      -0.2759857112   6.388015069875e-03   1.255318412702e-01  -3.957686069036e-02
H         0.9889762955      -0.4591213546      -0.3000379623  -7.954989543959e-02   2.288482348720e-02   2.794974271566e-02
H        -0.8265644011      -0.3528655535      -0.2527734715  -2.544433484713e-02  -3.433559858030e-02  -9.843048563984e-03
4
Properties=species:S:1:pos:R:3:forces:R:3 energy=-7.661233257411e+01 dipole="-6.5601116629e-02 4.7936107833e-02 -2.9903770768e-01" quadrupole="-1.8043504380e+00 -2.2486010736e-01 7.6115500645e-02 -2.2486010736e-01 -1.5402526573e+00 -2.7118520977e-02 7.6115500645e-02 -2.7118520977e-02 -4.9115679286e+00" polarizability="7.0066655625e+00 -1.0528212671e-01 5.2346345813e-02 -1.0528212671e-01 7.3357651580e+00 -3.8588238321e-02 5.2346345813e-02 -3.8588238321e-02 5.6092503960e+00" charge=1 multiplicity=1 method=wB97M-V basis=def2-svpd config_type=h3o+ sample_index=340 temperature=300.0 units=atomic
O         0.0056571691      -0.0014512791       0.0428621807  -2.529064194289e-02   3.791367592399e-02   2.028237798656e-03
H        -0.0625001824       1.0048345549      -0.1062861854   1.266876376713e-02  -3.201061987160e-02   3.067604405570e-03
H         0.8137142346      -0.5151660028      -0.0841816159   1.293271609017e-02  -5.668889495287e-04  -4.585851775489e-03
H        -0.8417360035      -0.4590959310      -0.1124434779  -3.143639597902e-04  -5.338018029113e-03  -5.089720355106e-04
4
Properties=species:S:1:pos:R:3:forces:R:3 energy=-7.660540123993e+01 dipole="-4.9975283479e-02 -6.2320276980e-02 -5.8755573120e-01" quadrupole="-1.4394866092e+00 -3.4722737203e-02 6.0086239470e-02 -3.4722737203e-02 -2.3318349377e+00 1.8825978369e-02 6.0086239470e-02 1.8825978369e-02 -4.6397810497e+00" polarizability="7.5081039900e+00 4.3801470969e-02 7.3191056157e-02 4.3801470969e-02 6.5191496447e+00 1.1082539250e-01 7.3191056157e-02 1.1082539250e-01 5.6544470031e+00" charge=1 multiplicity=1 method=wB97M-V basis=def2-svpd config_type=h3o+ sample_index=341 temperature=300.0 units=atomic
O         0.0034380900       0.0017787684       0.0631631343  -2.305943737264e-02  -1.019066786646e-01   1.162730884679e-02
H        -0.0239285179       0.8618114918      -0.2055168419   2.367139970178e-03   9.463488323994e-02  -2.506269783341e-02
H         0.8572905042      -0.4460394509      -0.2027750872  -1.683465659871e-02   1.268655923111e-03   2.584093433198e-03
H        -0.8883782485      -0.4363244692      -0.2199427956   3.752941267134e-02   6.010068587199e-03   1.085008641607e-02
4
Properties=species:S:1:pos:R:3:forces:R:3 energy=-7.661065788553e+01 dipole="1.8251648465e-03 2.1661594875e-02 -3.2993065372e-01" quadrupole="-1.7229439734e+00 -3.0173332341e-02 1.9399486760e-03 -3.0173332341e-02 -2.0304144665e+00 -3.3947466337e-02 1.9399486760e-03 -3.3947466337e-02 -4.7802803358e+00" polarizability="6.5459921228e+00 -2.4021735528e-02 -1.2966752673e-03 -2.4021735528e-02 6.3634159292e+00 -1.4764246030e-02 -1.2966752673e-03 -1.4764246030e-02 5.3347616018e+00" charge=1 multiplicity=1 method=wB97M-V basis=def2-svpd config_type=h3o+ sample_index=342 temperature=300.0 units=atomic
O         0.0001262855      -0.0021224212       0.0449853512   5.262934018788e-03  -4.171950224393e-03   2.192124304496e-02
H        -0.0053740435       0.9180192637      -0.1195949691   8.963639558103e-04   4.733071810851e-02  -7.897057260137e-03
H         0.8262473142      -0.4423648432      -0.1083952752   2.394264205985e-02  -1.938556474657e-02  -6.530102602088e-03
H        -0.8228902088      -0.4342168074      -0.1090274693  -3.010260170130e-02  -2.377393517728e-02  -7.493980573839e-03
4
Properties=species:S:1:pos:R:3:forces:R:3 energy=-7.661076880025e+01 dipole="-6.9579311606e-02 -2.2545947445e-02 -4.5992985333e-01" quadrupole="-1.9804895915e+00 -3.7272207720e-01 1.0749530524e-01 -3.7272207720e-01 -1.8123232441e+00 2.8351665827e-02 1.0749530524e-01 2.8351665827e-02 -4.7187200178e+00" polarizability="6.6323571343e+00 -2.0513617932e-01 6.5247977801e-02 -2.0513617932e-01 6.7146513043e+00 1.6798674996e-02 6.5247977801e-02 1.6798674996e-02 5.4621023910e+00" charge=1 multiplicity=1 method=wB97M-V basis=def2-svpd config_type=h3o+ sample_index=343 temperature=300.0 units=atomic
O         0.0072575117       0.0025369414       0.0540927393  -8.728658398898e-03  -4.384934780866e-03   1.728521379893e-02
H        -0.0968126146       0.9313889472      -0.1548446569   1.615085175669e-02   2.413922105778e-02  -6.226601538960e-03
H         0.7831501236      -0.5325488217      -0.1458610785   1.948150684610e-02   1.748525935440e-03  -6.630818190116e-03
H        -0.8024746759      -0.4317909659      -0.1821298019  -2.689939865731e-02  -2.150367069915e-02  -4.424798257812e-03
4
Properties=species:S:1:pos:R:3:forces:R:3 energy=-7.660312306983e+01 dipole="7.0608505997e-02 4.4436012140e-02 -3.2075560402e-01" quadrupole="-1.5097437173e+00 -1.5461184983e-01 -4.5281778987e-02 -1.5461184983e-01 -1.3238364606e+00 -2.8699305189e-02 -4.5281778987e-02 -2.8699305189e-02 -5.0362638861e+00" polarizability="8.0221307812e+00 -2.4368531918e-01 -6.0841181563e-02 -2.4368531918e-01 8.3184746501e+00 -3.7968874552e-02 -6.0841181563e-02 -3.7968874552e-02 5.9677631086e+00" charge=1 multiplicity=1 method=wB97M-V basis=def2-svpd config_type=h3o+ sample_index=344 temperature=300.0 units=atomic
O        -0.0031965805      -0.0016096944       0.0443218345   4.024156578840e-02   2.438158882589e-02  -1.283714725079e-02
H        -0.0042775532       1.0557735434      -0.1145197215   1.912788722437e-04  -6.183918583742e-02   6.819618413709e-03
H         0.9103559394      -0.5298092039      -0.1138421313  -5.260907459818e-02   3.050024797226e-02   6.624002789630e-03
H        -0.8549250741      -0.4928678290      -0.0978953014   1.217674680098e-02   6.953996206440e-03  -6.045053647563e-04
4
Properties=species:S:1:pos:R:3:forces:R:3 energy=-7.659375057857e+01 dipole="1.7853949669e-01 2.3064005737e-01 -2.4241213031e-01" quadrupole="-1.2117778554e+00 2.7177266435e-01 -1.6387573780e-01 2.7177266435e-01 -1.6381307281e+00 -2.0911066783e-01 -1.6387573780e-01 -2.0911066783e-01 -5.0471786992e+00" polarizability="7.9004281956e+00 4.8774443480e-02 -1.2952230568e-01 4.8774443480e-02 8.2247861430e+00 -1.9833658259e-01 -1.2952230568e-01 -1.9833658259e-01 5.9249601356e+00" charge=1 multiplicity=1 method=wB97M-V basis=def2-svpd config_type=h3o+ sample_index=345 temperature=300.0 units=atomic
O        -0.0117274578      -0.0154742121       0.0388850153   9.266374388155e-02   9.654213655148e-02  -9.917108334355e-03
H         0.0954163869       1.0761968836      -0.1254162696  -2.237396689247e-02  -7.479234007770e-02   1.183522421987e-02
H         0.9570436392      -0.3821259222      -0.0862328744  -5.368163452354e-02  -4.526084743869e-03   4.718243988577e-03
H        -0.8647909437      -0.4391739395      -0.0276614654  -1.660598556676e-02  -1.722161122941e-02  -6.631780171650e-03
4
Properties=species:S:1:pos:R:3:forces:R:3 energy=-7.661054566448e+01 dipole="-1.8673698188e-02 4.4956316670e-02 -7.9685100963e-01" quadrupole="-2.0372427522e+00 -3.3535496128e-01 6.4867864303e-02 -3.3535496128e-01 -2.1283201137e+00 -6.5557967326e-02 6.4867864303e-02 -6.5557967326e-02 -4.3663632096e+00" polarizability="7.0998099754e+00 -2.7841910050e-01 1.7064123284e-02 -2.7841910050e-01 7.1751828761e+00 -8.9821186477e-02 1.7064123284e-02 -8.9821186477e-02 5.9102564675e+00" charge=1 multiplicity=1 method=wB97M-V basis=def2-svpd config_type=h3o+ sample_index=346 temperature=300.0 units=atomic
O         0.0033671334      -0.0029193113       0.0791460952   1.529087479852e-02   2.546628367825e-02  -1.988256895082e-02
H        -0.0714861212       0.9274110741      -0.3044844552   1.512589826412e-02  -1.167965425443e-02   1.381201372549e-02
H         0.8083539738      -0.4826198129      -0.2814547888  -1.096862291490e-02   9.405485226753e-03   7.097303433255e-03
H        -0.7907599542      -0.3898224934      -0.2982999085  -1.944784030931e-02  -2.318554881844e-02  -1.024763811545e-03
4
Properties=species:S:1:pos:R:3:forces:R:3 energy=-7.658743695017e+01 dipole="-2.4279418419e-01 -1.7326642287e-02 -3.8753919089e-01" quadrupole="-1.5060698924e+00 1.4513455444e-01 2.0215217067e-01 1.4513455444e-01 -2.1851877658e+00 -9.6072743681e-03 2.0215217067e-01 -9.6072743681e-03 -4.7444052847e+00" polarizability="6.8988117568e+00 3.9262885132e-01 2.2929232382e-01 3.9262885132e-01 6.2673869398e+00 4.1692818809e-02 2.2929232382e-01 4.1692818809e-02 5.3923068743e+00" charge=1 multiplicity=1 method=wB97M-V basis=def2-svpd config_type=h3o+ sample_index=347 temperature=300.0 units=atomic
O         0.0139254884      -0.0005462449       0.0486759659  -1.972813140398e-01  -2.237454791358e-02   3.429109888774e-02
H        -0.0516641420       0.8841186462      -0.1347835051   5.368349214551e-03   8.653676954219e-02  -1.638446028860e-02
H         0.7602531335      -0.4143571029      -0.0959349563   1.337523167765e-01  -7.798038149685e-02  -3.001948480506e-02
H        -0.9314118721      -0.4534436910      -0.1654414285   5.816093892306e-02   1.382082846953e-02   1.211117192167e-02
4
Properties=species:S:1:pos:R:3:forces:R:3 energy=-7.659042039498e+01 dipole="7.7762129584e-02 -2.6472480430e-01 -6.8729127100e-01" quadrupole="-2.1244636567e+00 -5.5198477891e-01 -3.6788034374e-02 -5.5198477891e-01 -1.6888582598e+00 3.1432665436e-01 -3.6788034374e-02 3.1432665436e-01 -4.5361539638e+00" polarizability="7.3553044347e+00 -6.0584567631e-01 -1.6766996408e-01 -6.0584567631e-01 7.1360576106e+00 3.7901046639e-01 -1.6766996408e-01 3.7901046639e-01 5.8309206447e+00" charge=1 multiplicity=1 method=wB97M-V basis=def2-svpd config_type=h3o+ sample_index=348 temperature=300.0 units=atomic
O        -0.0009656509       0.0176037893       0.0702142256   6.386290644094e-02  -1.561633164080e-01   1.086059642210e-02
H        -0.0782818590       0.8703762177      -0.1976002909   5.096839679232e-03   1.000395607118e-01  -3.525105463352e-02
H         0.8295644478      -0.6443477257      -0.2740700578  -4.142311872267e-02   6.068267787713e-02   2.391921561114e-02
H        -0.7358447361      -0.4997494152      -0.2693028634  -2.753443129212e-02  -4.553444384789e-03   4.715066245644e-04
4
Properties=species:S:1:pos:R:3:forces:R:3 energy=-7.659038824118e+01 dipole="4.0197468627e-02 1.5598520746e-01 -4.6041255958e-01" quadrupole="-1.4942418941e+00 -8.3098450931e-01 6.2405764780e-02 -8.3098450931e-01 -1.7554698523e+00 -1.8539836968e-01 6.2405764780e-02 -1.8539836968e-01 -4.8471206406e+00" polarizability="7.4087396062e+00 -7.7587789835e-01 -2.0580381252e-02 -7.7587789835e-01 7.8297939520e+00 -2.2476524369e-01 -2.0580381252e-02 -2.2476524369e-01 5.8241262392e+00" charge=1 multiplicity=1 method=wB97M-V basis=def2-svpd config_type=h3o+ sample_index=349 temperature=300.0 units=atomic
O         0.0030914045      -0.0116406690       0.0539151259   9.815186414915e-02   9.040261536099e-02   3.825823436767e-03
H        -0.1378178898       1.0251115396      -0.1947249673   3.110427564218e-02  -5.355202764422e-02   1.542799808985e-02
H         0.9092292371      -0.5207522537      -0.1349218170  -4.922503193444e-02   2.503280572955e-02   2.443150158891e-03
H        -0.8208917328      -0.3104409037      -0.1504305388  -8.002958604559e-02  -6.188615649524e-02  -2.169576467705e-02
4
Properties=species:S:1:pos:R:3:forces:R:3 energy=-7.659051449739e+01 dipole="-1.3145138227e-01 -2.5747952864e-01 -7.7468644998e-01" quadrupole="-2.1464848418e+00 3.9225275691e-01 1.3154078815e-01 3.9225275691e-01 -1.7660455410e+00 3.3096753682e-01 1.3154078815e-01 3.3096753682e-01 -4.4304077991e+00" polarizability="7.5827617940e+00 5.9245586198e-01 2.8705961702e-01 5.9245586198e-01 7.2633482905e+00 4.4006058192e-01 2.8705961702e-01 4.4006058192e-01 5.9970975062e+00" charge=1 multiplicity=1 method=wB97M-V basis=def2-svpd config_type=h3o+ sample_index=350 temperature=300.0 units=atomic
O         0.0061346677       0.0174058753       0.0767807796  -6.820745840048e-02  -1.459843696506e-01  -1.247767725547e-04
H         0.0244520742       0.8677086731      -0.2332695539  -2.585979472446e-03   8.660480931581e-02  -3.401204022091e-02
H         0.7239613623      -0.5195308619      -0.2911538493   2.343231658847e-02   2.643330565548e-03   1.933767944469e-03
H        -0.8465753350      -0.6185782802      -0.3217465083   4.735930860584e-02   5.674153208742e-02   3.220120958240e-02
4
Properties=species:S:1:pos:R:3:forces:R:3 energy=-7.660516068609e+01 dipole="3.3725058048e-02 7.7345364201e-02 -4.8477192600e-01" quadrupole="-1.4163695241e+00 -1.9380402253e-01 -1.0109840188e-02 -1.9380402253e-01 -1.6617855354e+00 -9.2628920550e-02 -1.0109840188e-02 -9.2628920550e-02 -4.9044213276e+00" polarizability="8.0804388191e+00 -2.2239065682e-01 -3.4476879687e-02 -2.2239065682e-01 8.1104010767e+00 -1.0051835200e-01 -3.4476879687e-02 -1.0051835200e-01 6.0206423902e+00" charge=1 multiplicity=1 method=wB97M-V basis=def2-svpd config_type=h3o+ sample_index=351 temperature=300.0 units=atomic
O        -0.0006416348      -0.0053712149       0.0557811956   2.295147928071e-02   3.297661951747e-02  -2.143824114044e-02
H        -0.0238206105       1.0287231735      -0.1866195683   4.826695620773e-03  -5.546122496854e-02   1.240814229889e-02
H         0.9107200736      -0.4911705566      -0.1632341489  -4.955628528692e-02   2.122098178531e-02   7.373687931680e-03
H        -0.8766335160      -0.4439575374      -0.1600470235   2.177839843570e-02   1.269045323733e-03   1.653962300399e-03
4
Properties=species:S:1:pos:R:3:forces:R:3 energy=-7.660282986338e+01 dipole="8.7742342569e-02 3.2088627114e-02 -6.2780873961e-01" quadrupole="-2.5357715471e+00 4.6114253294e-02 -9.9710765573e-02 4.6114253294e-02 -1.3440839212e+00 4.5838195366e-02 -9.9710765573e-02 4.5838195366e-02 -4.5805635848e+00" polarizability="6.4501539652e+00 -8.9685792297e-02 -1.2054826120e-01 -8.9685792297e-02 7.4471244752e+00 -3.9245461467e-02 -1.2054826120e-01 -3.9245461467e-02 5.6567282721e+00" charge=1 multiplicity=1 method=wB97M-V basis=def2-svpd config_type=h3o+ sample_index=352 temperature=300.0 units=atomic
O        -0.0062448605       0.0032628647       0.0661536447   6.537666502252e-02   6.772003014109e-02   1.225324912441e-02
H         0.0396988370       1.0047127038      -0.2172103854  -8.296371101022e-03  -4.326591459401e-02   8.063546056619e-03
H         0.7506176596      -0.5189720914      -0.2449551953   2.328847572161e-02   5.310496032246e-03   2.310186460961e-03
H        -0.6903904156      -0.5300939709      -0.2137754365  -8.036864362848e-02  -2.976558802231e-02  -2.263186066429e-02
4
Properties=species:S:1:pos:R:3:forces:R:3 energy=-7.658848347848e+01 dipole="-9.1090608400e-02 2.9800539961e-01 -2.9144305777e-01" quadrupole="-1.5711493938e+00 2.3556813076e-01 4.1538441060e-02 2.3556813076e-01 -1.6205440270e+00 -2.6400162141e-01 4.1538441060e-02 -2.6400162141e-01 -4.9239527112e+00" polarizability="6.9557474081e+00 2.9175203700e-01 4.6879768899e-02 2.9175203700e-01 7.8714650648e+00 -2.7782787487e-01 4.6879768899e-02 -2.7782787487e-01 5.6998161119e+00" charge=1 multiplicity=1 method=wB97M-V basis=def2-svpd config_type=h3o+ sample_index=353 temperature=300.0 units=atomic
O         0.0037325216      -0.0194459200       0.0420814910  -1.164217232908e-01   1.520036216750e-01   4.037568233699e-03
H         0.0174378017       1.0800824046      -0.1539598934  -3.679363344688e-03  -7.729199386859e-02   1.500061034274e-02
H         0.8186640148      -0.3484164621      -0.0589881269   1.031590281027e-01  -6.462486626654e-02  -1.695052519054e-02
H        -0.8958169415      -0.4131172145      -0.0775969479   1.693721912858e-02  -1.008734699219e-02  -2.085477072476e-03
4
Properties=species:S:1:pos:R:3:forces:R:3 energy=-7.660112424513e+01 dipole="1.3659239567e-01 1.0928895744e-01 -3.5181090279e-01" quadrupole="-2.1025581665e+00 2.9013120613e-01 -1.4113738535e-01 2.9013120613e-01 -1.5386814714e+00 -6.4292613466e-02 -1.4113738535e-01 -6.4292613466e-02 -4.7941088297e+00" polarizability="6.3456172216e+00 8.1855536687e-02 -1.0195499993e-01 8.1855536687e-02 7.0013315102e+00 -9.5059792857e-02 -1.0195499993e-01 -9.5059792857e-02 5.4272523645e+00" charge=1 multiplicity=1 method=wB97M-V basis=def2-svpd config_type=h3o+ sample_index=354 temperature=300.0 units=atomic
O        -0.0104694383      -0.0038468226       0.0464017228   8.272601698163e-02   1.089510786882e-01   2.009412474035e-02
H         0.0982224909       1.0038744764      -0.1321213855  -2.105984390135e-02  -3.573751947876e-02   5.181302734356e-03
H         0.8079646143      -0.4306686331      -0.1399004707   3.226508815563e-02  -2.419516810217e-02  -5.581214299349e-03
H        -0.7386505196      -0.5042008653      -0.0876053346  -9.393042200625e-02  -4.901783126288e-02  -1.969233242328e-02
4
Properties=species:S:1:pos:R:3:forces:R:3 energy=-7.660974240606e+01 dipole="4.5929080710e-03 5.1430908946e-02 -7.5947082862e-01" quadrupole="-1.9072166969e+00 3.0957017099e-01 -4.3138834776e-02 3.0957017099e-01 -1.9395000050e+00 -6.8465176880e-02 -4.3138834776e-02 -6.8465176880e-02 -4.4949521767e+00" polarizability="7.5066975857e+00 2.8638170253e-01 2.4789233965e-03 2.8638170253e-01 7.6581013252e+00 -9.9572694970e-02 2.4789233965e-03 -9.9572694970e-02 6.0576715720e+00" charge=1 multiplicity=1 method=wB97M-V basis=def2-svpd config_type=h3o+ sample_index=355 temperature=300.0 units=atomic
O        -0.0022814397      -0.0030924986       0.0761330368  -1.544247476748e-02   2.731778564958e-02  -3.284879518005e-02
H         0.0594106864       0.9680810166      -0.2888621378  -1.259329974499e-02  -3.474286308686e-02   1.784635636384e-02
H         0.8143787971      -0.4142734166      -0.2792479236   7.856933389112e-04  -1.068429182486e-02   3.856925165489e-03
H        -0.8372814068      -0.4961707145      -0.2678293906   2.725242663632e-02   1.811025576772e-02   1.114627681204e-02
4
Properties=species:S:1:pos:R:3:forces:R:3 energy=-7.659725199409e+01 dipole="5.0925677353e-02 2.3869039650e-01 -7.1861345871e-01" quadrupole="-1.5148628308e+00 -3.2509523042e-01 -9.2721399925e-03 -3.2509523042e-01 -2.3758692496e+00 -3.4010814905e-01 -9.2721399925e-03 -3.4010814905e-01 -4.5148867727e+00" polarizability="7.3449940794e+00 -3.3085704277e-01 -6.2969522923e-02 -3.3085704277e-01 7.3913291107e+00 -3.9625431011e-01 -6.2969522923e-02 -3.9625431011e-01 5.9414421614e+00" charge=1 multiplicity=1 method=wB97M-V basis=def2-svpd config_type=h3o+ sample_index=356 temperature=300.0 units=atomic
O        -0.0008345062      -0.0190081179       0.0728154111   6.381001003393e-02   9.647395163542e-02  -1.048909181307e-02
H        -0.0478513506       0.9663948436      -0.3170023886   1.285386757295e-02  -3.885671349390e-02   2.858629136082e-02
H         0.8986036357      -0.3723508266      -0.2350606453  -3.073837182175e-02  -8.317193654063e-03   2.653910474468e-03
H        -0.8374092565      -0.2817062863      -0.2309274054  -4.592100524387e-02  -4.930208998038e-02  -2.075009202733e-02
4
Properties=species:S:1:pos:R:3:forces:R:3 energy=-7.659795526161e+01 dipole="-4.2540887389e-02 5.0327583519e-02 -3.8603845146e-01" quadrupole="-2.3205218632e+00 -7.5696776283e-02 4.4006400551e-02 -7.5696776283e-02 -1.6195837510e+00 -2.6005119417e-03 4.4006400551e-02 -2.6005119417e-03 -4.6894105878e+00" polarizability="5.8743495477e+00 -8.9628378173e-03 3.2450764993e-02 -8.9628378173e-03 6.4721890755e+00 -4.7684712970e-02 3.2450764993e-02 -4.7684712970e-02 5.2219546651e+00" charge=1 multiplicity=1 method=wB97M-V basis=def2-svpd config_type=h3o+ sample_index=357 temperature=300.0 units=atomic
O         0.0033130921       0.0001588138       0.0488298245  -2.998728063695e-02   9.722260686923e-02   4.318305554066e-02
H        -0.0294562873       0.9610873967      -0.1335724621   5.670307340851e-03   3.562753691084e-04  -2.217148666817e-03
H         0.7209222031      -0.4882809271      -0.1241953880   1.080506838670e-01  -5.534303104381e-02  -2.358028957561e-02
H        -0.7444791301      -0.4678303784      -0.1407428324  -8.373810772085e-02  -4.223847792954e-02  -1.737613942864e-02
4
Properties=species:S:1:pos:R:3:forces:R:3 energy=-7.660447580919e+01 dipole="-8.3637506263e-02 4.0133913181e-02 -4.7690249987e-01" quadrupole="-1.6044015721e+00 4.2570056836e-01 3.3990307465e-02 4.2570056836e-01 -1.5976438403e+00 -4.2523819289e-02 3.3990307465e-02 -4.2523819289e-02 -4.8662075622e+00" polarizability="7.6916341962e+00 4.9941837723e-01 9.4258386823e-02 4.9941837723e-01 7.8656146473e+00 -5.5354201718e-02 9.4258386823e-02 -5.5354201718e-02 5.8925404113e+00" charge=1 multiplicity=1 method=wB97M-V basis=def2-svpd config_type=h3o+ sample_index=358 temperature=300.0 units=atomic
O         0.0021607652      -0.0024117844       0.0551713538  -6.931309346061e-02   3.283105913540e-02  -1.046382457901e-02
H         0.0495778550       1.0136341017      -0.1748388967  -9.526880275383e-03  -4.492493969408e-02   8.946828716191e-03
H         0.8205004066      -0.4307627852      -0.1572588844   2.500364309288e-02  -2.089481496602e-02  -8.222063082289e-03
H        -0.9046436757      -0.5366505884      -0.1680072333   5.383291993133e-02   3.299459637686e-02   9.739366860357e-03
4
Properties=species:S:1:pos:R:3:forces:R:3 energy=-7.660033602322e+01 dipole="-2.2114816413e-01 -8.2685156008e-02 -5.0300224962e-01" quadrupole="-1.9299784524e+00 3.8731096791e-02 2.2386864649e-01 3.8731096791e-02 -1.6597693680e+00 1.0712358403e-01 2.2386864649e-01 1.0712358403e-01 -4.7407598725e+00" polarizability="7.1761186546e+00 3.7595838337e-01 2.8128841048e-01 3.7595838337e-01 7.1126703359e+00 1.1794270899e-01 2.8128841048e-01 1.1794270899e-01 5.6745678453e+00" charge=1 multiplicity=1 method=wB97M-V basis=def2-svpd config_type=h3o+ sample_index=359 temperature=300.0 units=atomic
O         0.0143683252       0.0070346933       0.0568957162  -1.375136382946e-01  -1.625008920449e-02   9.750943714412e-03
H        -0.0725396326       0.9407750114      -0.1568557864   1.206986643622e-02   1.701642392198e-02  -7.422939185074e-03
H         0.7265416056      -0.5193373028      -0.1495463167   7.493327995514e-02  -3.373820452196e-02  -2.162921719434e-02
H        -0.8839155943      -0.5263330028      -0.2212763100   5.050837605574e-02   3.296221828605e-02   1.930338723705e-02
4
Properties=species:S:1:pos:R:3:forces:R:3 energy=-7.657084444009e+01 dipole="3.9595817314e-02 -2.3424344775e-01 -5.7554855419e-01" quadrupole="-2.1289014057e+00 9.4146434160e-02 -5.6716913585e-02 9.4146434160e-02 -2.1001906915e+00 2.3298281764e-01 -5.6716913585e-02 2.3298281764e-01 -4.4864305338e+00" polarizability="6.3571497597e+00 -2.5536122474e-03 -5.3387165601e-02 -2.5536122474e-03 5.8401363702e+00 2.8402588684e-01 -5.3387165601e-02 2.8402588684e-01 5.2482261390e+00" charge=1 multiplicity=1 method=wB97M-V basis=def2-svpd config_type=h3o+ sample_index=360 temperature=300.0 units=atomic
O        -0.0037257601       0.0157326704       0.0620659762   5.888580368447e-03  -3.049477720282e-01   8.307265522052e-02
H         0.0370259536       0.7887670780      -0.1594694555   6.008737221664e-03   2.963888961229e-01  -8.613802953943e-02
H         0.7709961441      -0.5014467847      -0.2348423204   1.303004795862e-02   3.841564254673e-03   4.953074738321e-03
H        -0.7484035327      -0.5312052069      -0.2162318406  -2.492878978944e-02   4.714990302323e-03  -1.893379144159e-03
4
Properties=species:S:1:pos:R:3:forces:R:3 energy=-7.660525024979e+01 dipole="-1.9217835050e-01 -4.7384437690e-02 -3.9441740377e-01" quadrupole="-1.7731853827e+00 -1.6192012024e-01 1.9565686924e-01 -1.6192012024e-01 -1.8300547864e+00 4.4940542620e-02 1.9565686924e-01 4.4940542620e-02 -4.7976551468e+00" polarizability="7.0000434243e+00 1.4066624373e-01 1.9407710148e-01 1.4066624373e-01 6.7688359366e+00 5.6852958719e-02 1.9407710148e-01 5.6852958719e-02 5.5303303726e+00" charge=1 multiplicity=1 method=wB97M-V basis=def2-svpd config_type=h3o+ sample_index=361 temperature=300.0 units=atomic
O         0.0136716209       0.0037738796       0.0493626039  -1.124211694399e-01  -2.200157059293e-02   1.193704441283e-02
H        -0.0982123075       0.9271267433      -0.1259919212   1.529396880212e-02   3.475371604900e-02  -8.074571570029e-03
H         0.7616383361      -0.5119602862      -0.1063991582   5.848344587303e-02  -2.543775700503e-02  -1.509018220447e-02
H        -0.8821928866      -0.4680242803      -0.1746686335   3.864620740086e-02   1.268255857361e-02   1.123410171238e-02
4
Properties=species:S:1:pos:R:3:forces:R:3 energy=-7.659153632861e+01 dipole="1.1927999412e-01 -5.4873519259e-02 -6.6839215714e-01" quadrupole="-2.3192851199e+00 3.6414450134e-01 -1.7891897550e-01 3.6414450134e-01 -2.1819917999e+00 6.8058830049e-02 -1.7891897550e-01 6.8058830049e-02 -4.3594752858e+00" polarizability="6.0098884632e+00 1.1582249968e-01 -1.4642439340e-01 1.1582249968e-01 5.9687610691e+00 6.8247893615e-02 -1.4642439340e-01 6.8247893615e-02 5.2523891041e+00" charge=1 multiplicity=1 method=wB97M-V basis=def2-svpd config_type=h3o+ sample_index=362 temperature=300.0 units=atomic
O        -0.0108475997       0.0048567386       0.0693470314   3.744992558184e-02  -3.339157245633e-02   6.766428392991e-02
H         0.1219179020       0.8402686424      -0.2297308897  -1.294101514646e-02   1.069034766823e-01  -3.134801902413e-02
H         0.7515665716      -0.3994089287      -0.2758548067   5.533716421543e-02  -3.918600331786e-02  -8.859133833637e-03
H        -0.6999018757      -0.5105174851      -0.2216602337  -7.984384516352e-02  -3.432589823350e-02  -2.745721876265e-02
4
Properties=species:S:1:pos:R:3:forces:R:3 energy=-7.659687037713e+01 dipole="-1.1136645920e-01 -9.7739032995e-02 -5.4470307268e-01" quadrupole="-2.0867867420e+00 4.9670460557e-01 7.5171851223e-02 4.9670460557e-01 -1.1241773888e+00 1.5905279768e-01 7.5171851223e-02 1.5905279768e-01 -4.8162032771e+00" polarizability="7.6329952842e+00 6.8312064996e-01 1.8213900624e-01 6.8312064996e-01 8.2620990343e+00 1.3782966159e-01 1.8213900624e-01 1.3782966159e-01 5.9943033982e+00" charge=1 multiplicity=1 method=wB97M-V basis=def2-svpd config_type=h3o+ sample_index=363 temperature=300.0 units=atomic
O         0.0042111619       0.0093630304       0.0599518192  -8.113852704783e-02  -8.841051290946e-03  -1.258659944904e-02
H         0.0478812834       1.0163181517      -0.1664576240  -6.933696646321e-03  -4.045019321838e-02   2.768415927585e-03
H         0.7441704910      -0.5182957606      -0.1945462494   3.950154259366e-02  -9.382974408496e-03  -8.423184666848e-03
H        -0.8594271176      -0.6401828981      -0.2155262505   4.857323404451e-02   5.866685862277e-02   1.823976399008e-02
4
Properties=species:S:1:pos:R:3:forces:R:3 energy=-7.660222173871e+01 dipole="1.2699574350e-01 1.6643853335e-01 -3.1616895285e-01" quadrupole="-1.4322078543e+00 1.9455313299e-01 -1.2503404233e-01 1.9455313299e-01 -1.5784976667e+00 -1.5344957101e-01 -1.2503404233e-01 -1.5344957101e-01 -4.9900688328e+00" polarizability="7.6660849584e+00 2.1431216498e-02 -1.0744581251e-01 2.1431216498e-02 8.0264844774e+00 -1.5755317276e-01 -1.0744581251e-01 -1.5755317276e-01 5.8636070736e+00" charge=1 multiplicity=1 method=wB97M-V basis=def2-svpd config_type=h3o+ sample_index=364 temperature=300.0 units=atomic
O        -0.0086550692      -0.0104107780       0.0439420561   6.714358095168e-02   7.672184783333e-02  -8.742394109248e-03
H         0.0708300961       1.0579036643      -0.1378600192  -1.626707211161e-02  -6.700622979786e-02   1.119867283131e-02
H         0.9183561054      -0.4205574393      -0.1128203634  -4.056522119280e-02   6.051594682983e-04   4.254415129973e-03
H        -0.8506828116      -0.4633724382      -0.0695933819  -1.030643436514e-02  -1.032341259928e-02  -6.711909811257e-03
4
Properties=species:S:1:pos:R:3:forces:R:3 energy=-7.660590807074e+01 dipole="-3.6859896752e-02 -8.3604468440e-02 -2.8315014408e-01" quadrupole="-1.5033713255e+00 -6.2247082356e-01 9.6245288373e-02 -6.2247082356e-01 -1.6704599073e+00 5.0604345716e-02 9.6245288373e-02 5.0604345716e-02 -4.9570160733e+00" polarizability="7.5978343364e+00 -4.3775318039e-01 4.6640366212e-02 -4.3775318039e-01 7.3006013685e+00 4.9539132296e-02 4.6640366212e-02 4.9539132296e-02 5.7068241806e+00" charge=1 multiplicity=1 method=wB97M-V basis=def2-svpd config_type=h3o+ sample_index=365 temperature=300.0 units=atomic
O         0.0074114134       0.0046526145       0.0418114128   8.832387975012e-03  -4.642862058096e-02  -9.720596687136e-04
H        -0.1285753731       0.9539003200      -0.0830813370   2.055234767398e-02   1.453027007830e-02  -3.409828690179e-03
H         0.8712354599      -0.5877050714      -0.0829662376  -3.942936573816e-02   3.933677217188e-02   2.349445849818e-03
H        -0.8612595086      -0.4333171745      -0.1200214232   1.004130793361e-02  -7.438973508238e-03   2.031773397889e-03
4
Properties=species:S:1:pos:R:3:forces:R:3 energy=-7.660331760814e+01 dipole="2.1970805581e-02 1.7494457956e-01 -5.7444813364e-01" quadrupole="-2.0513274483e+00 -1.6349811751e-01 -4.4039077771e-03 -1.6349811751e-01 -1.5261256180e+00 -1.6076929958e-01 -4.4039077771e-03 -1.6076929958e-01 -4.6975268913e+00" polarizability="6.8386782230e+00 -1.8547209065e-01 -3.3714198414e-02 -1.8547209065e-01 7.8040093961e+00 -2.5185602926e-01 -3.3714198414e-02 -2.5185602926e-01 5.7730615104e+00" charge=1 multiplicity=1 method=wB97M-V basis=def2-svpd config_type=h3o+ sample_index=366 temperature=300.0 units=atomic
O        -0.0004847366      -0.0087644516       0.0620646757   4.085274157622e-02   1.054038593042e-01   2.708394268227e-03
H        -0.0226863503       1.0468227788      -0.2299995011   4.771266223337e-03  -6.703962297042e-02   1.893230530712e-02
H         0.8134856246      -0.4712865335      -0.1914797299   8.175900234160e-03  -4.834175246783e-03  -4.054500952555e-03
H        -0.7830462756      -0.4274888418      -0.1890756732  -5.379954870907e-02  -3.351692095041e-02  -1.759014489877e-02
4
Properties=species:S:1:pos:R:3:forces:R:3 energy=-7.659962004873e+01 dipole="-1.5573167746e-01 -1.9590025677e-01 -4.4488385685e-01" quadrupole="-1.9125739890e+00 -5.6938270590e-01 2.1194223151e-01 -5.6938270590e-01 -1.5659798385e+00 1.9291928065e-01 2.1194223151e-01 1.9291928065e-01 -4.8152235626e+00" polarizability="7.3896730477e+00 -2.0269234905e-01 1.7998221946e-01 -2.0269234905e-01 7.1967489581e+00 1.9014325427e-01 1.7998221946e-01 1.9014325427e-01 5.7238255940e+00" charge=1 multiplicity=1 method=wB97M-V basis=def2-svpd config_type=h3o+ sample_index=367 temperature=300.0 units=atomic
O         0.0151332772       0.0138301148       0.0529943386  -4.012550959988e-02  -1.095707827562e-01  -8.021277383765e-04
H        -0.1691136343       0.9120293091      -0.1164211049   1.809783126793e-02   5.535726299376e-02  -1.451703938057e-02
H         0.7718194702      -0.6395461032      -0.1365522559  -6.193747155598e-03   3.898098212762e-02   6.966216594239e-04
H        -0.8448706498      -0.4862249890      -0.2121591399   2.821713977432e-02   1.523964329162e-02   1.462277237093e-02
4
Properties=species:S:1:pos:R:3:forces:R:3 energy=-7.658095949216e+01 dipole="6.1255398890e-03 -2.2138826652e-01 -1.0445136915e+00" quadrupole="-2.4415627744e+00 1.2913587597e-01 -2.6204917496e-02 1.2913587597e-01 -2.4980389362e+00 3.2290597402e-01 -2.6204917496e-02 3.2290597402e-01 -3.8089593305e+00" polarizability="7.2812678118e+00 1.0255423996e-01 -1.0990527657e-03 1.0255423996e-01 6.5994034832e+00 5.4808324931e-01 -1.0990527657e-03 5.4808324931e-01 6.2255747029e+00" charge=1 multiplicity=1 method=wB97M-V basis=def2-svpd config_type=h3o+ sample_index=368 temperature=300.0 units=atomic
O        -0.0014417832       0.0155820560       0.0993778592  -6.819288210426e-03  -1.821955584043e-01  -6.557026440644e-03
H         0.0307600618       0.7545344686      -0.3593498965  -1.590636067735e-03   1.496027272394e-01  -6.568741556109e-02
H         0.7389718703      -0.4775647022      -0.4280707140  -3.872636596976e-03   9.190629497264e-03   3.522562292503e-02
H        -0.7466711632      -0.5175609769      -0.4208618607   1.228601996094e-02   2.339948110022e-02   3.701624628162e-02
4
Properties=species:S:1:pos:R:3:forces:R:3 energy=-7.660671566832e+01 dipole="4.4254780921e-03 9.0537062590e-02 -6.9078375262e-01" quadrupole="-2.2636650616e+00 2.6511443552e-01 -3.4305874986e-02 2.6511443552e-01 -1.7912535089e+00 -7.8431231875e-02 -3.4305874986e-02 -7.8431231875e-02 -4.4826345684e+00" polarizability="6.5235724325e+00 2.4032267881e-01 1.4681398981e-02 2.4032267881e-01 7.1865625818e+00 -1.5992725210e-01 1.4681398981e-02 -1.5992725210e-01 5.6648712712e+00" charge=1 multiplicity=1 method=wB97M-V basis=def2-svpd config_type=h3o+ sample_index=369 temperature=300.0 units=atomic
O        -0.0017713795      -0.0037721232       0.0708995446  -3.582321230257e-02   7.913774491479e-02   1.179344686378e-02
H         0.0520462796       0.9750976667      -0.2628585949  -1.112900698896e-02  -3.435897037384e-02   1.474556731510e-02
H         0.7476110217      -0.4164294172      -0.2490491514   6.848144252660e-02  -4.034977966543e-02  -2.153984394608e-02
H        -0.7713105110      -0.4902741121      -0.2401800080  -2.152652006134e-02  -4.426484901774e-03  -5.001504275086e-03
4
Properties=species:S:1:pos:R:3:forces:R:3 energy=-7.659360140502e+01 dipole="2.9304458952e-01 1.0530373232e-01 -1.3119212723e-01" quadrupole="-1.3960893162e+00 2.0415837554e-01 -2.2188636846e-01 2.0415837554e-01 -1.6475431084e+00 -7.8560200239e-02 -2.2188636846e-01 -7.8560200239e-02 -5.0092883047e+00" polarizability="7.5561899089e+00 -1.7528173454e-01 -1.5930943098e-01 -1.7528173454e-01 7.5137513799e+00 -4.3481224068e-02 -1.5930943098e-01 -4.3481224068e-02 5.7174563334e+00" charge=1 multiplicity=1 method=wB97M-V basis=def2-svpd config_type=h3o+ sample_index=370 temperature=300.0 units=atomic
O        -0.0188186531      -0.0061068437       0.0313599569   1.738243448096e-01   7.712051770650e-02  -6.572338456964e-03
H         0.1256318216       1.0183342497      -0.0582143801  -2.757238361556e-02  -4.262213059330e-02   4.127268049207e-03
H         0.9628812239      -0.4347983540      -0.0772304188  -6.652201219373e-02   1.005361387432e-02   6.937545283203e-03
H        -0.7873731363      -0.4787136626       0.0167384731  -7.973102119951e-02  -4.454925096885e-02  -4.493080787327e-03
4
Properties=species:S:1:pos:R:3:forces:R:3 energy=-7.660917812022e+01 dipole="2.3867707376e-02 -7.2095991303e-02 -1.3606654778e-01" quadrupole="-1.7325781219e+00 6.7689194934e-02 -2.2860265752e-02 6.7689194934e-02 -1.2351800376e+00 7.6311034101e-02 -2.2860265752e-02 7.6311034101e-02 -5.0498371709e+00" polarizability="7.5787445019e+00 2.2414629111e-02 -1.6270436499e-02 2.2414629111e-02 7.8030057612e+00 5.2167783665e-02 -1.6270436499e-02 5.2167783665e-02 5.7668149204e+00" charge=1 multiplicity=1 method=wB97M-V basis=def2-svpd config_type=h3o+ sample_index=371 temperature=300.0 units=atomic
O        -0.0020340709       0.0066434424       0.0318454677   8.762540920677e-03  -2.795417583338e-02  -3.467464474680e-03
H         0.0203952747       1.0137165646      -0.0240602662  -3.660959257645e-03  -2.676355228678e-02  -6.965770212368e-04
H         0.8536624542      -0.5482124393      -0.0562184137  -2.628277434637e-02   2.674129599540e-02   2.582666482895e-03
H        -0.8414989898      -0.5647722487      -0.0460554300   2.117865093203e-02   2.797840010606e-02   1.577831949900e-03
4
Properties=species:S:1:pos:R:3:forces:R:3 energy=-7.659614705544e+01 dipole="-6.4139823994e-02 9.7942566221e-02 -5.4289065708e-01" quadrupole="-1.1365930075e+00 -4.0451599583e-01 1.2564043593e-01 -4.0451599583e-01 -2.7245100104e+00 -1.7507354853e-01 1.2564043593e-01 -1.7507354853e-01 -4.6463139290e+00" polarizability="7.3325597765e+00 -2.0908239922e-01 1.0265468758e-01 -2.0908239922e-01 6.2059471863e+00 -6.1220225132e-02 1.0265468758e-01 -6.1220225132e-02 5.5361580876e+00" charge=1 multiplicity=1 method=wB97M-V basis=def2-svpd config_type=h3o+ sample_index=372 temperature=300.0 units=atomic
O         0.0071186364      -0.0109855557       0.0599965512  -1.428901219831e-02  -3.624651976962e-02   2.256838120061e-02
H        -0.1003140959       0.8478640086      -0.2253863124   1.714098042694e-02   8.881438894723e-02  -1.700517491039e-02
H         0.8938378785      -0.3861282512      -0.1583569852  -1.236734170261e-02  -1.205269558058e-02  -6.397443402263e-03
H        -0.9074409493      -0.2780188739      -0.1939344022   9.509716772314e-03  -4.051352298540e-02   8.310374208682e-04
4
Properties=species:S:1:pos:R:3:forces:R:3 energy=-7.658171289664e+01 dipole="-7.9709080304e-02 -2.7832418788e-01 -3.9220243068e-01" quadrupole="-1.6424891444e+00 4.7409475268e-01 2.5614063830e-02 4.7409475268e-01 -1.8050908731e+00 2.2746957982e-01 2.5614063830e-02 2.2746957982e-01 -4.8032775310e+00" polarizability="7.3651215018e+00 4.4915698304e-01 8.2729308746e-02 4.4915698304e-01 6.6274979174e+00 2.3849312316e-01 8.2729308746e-02 2.3849312316e-01 5.5578457120e+00" charge=1 multiplicity=1 method=wB97M-V basis=def2-svpd config_type=h3o+ sample_index=373 temperature=300.0 units=atomic
O         0.0007993328       0.0165085640       0.0489079835  -6.225218120605e-02  -2.500905461932e-01   2.344657614446e-02
H         0.0640237732       0.8497287997      -0.0868701592   2.066447814465e-03   1.958242343656e-01  -3.598970728960e-02
H         0.8016589022      -0.4940201834      -0.1544473364   9.482377622284e-03   1.952112670718e-04   3.501059232239e-04
H        -0.8784610049      -0.6123699813      -0.1583944293   5.070432798720e-02   5.406997926674e-02   1.219990427940e-02
4
Properties=species:S:1:pos:R:3:forces:R:3 energy=-7.661024949623e+01 dipole="-9.2447006765e-02 -3.2598398622e-02 -8.1597092398e-01" quadrupole="-2.3113659172e+00 -1.0908249414e-01 1.3212684316e-01 -1.0908249414e-01 -1.8944303058e+00 6.9622624494e-02 1.3212684316e-01 6.9622624494e-02 -4.3366804431e+00" polarizability="7.0296054159e+00 4.5242975624e-02 1.6970024811e-01 4.5242975624e-02 7.2912899618e+00 5.6657093060e-02 1.6970024811e-01 5.6657093060e-02 5.9489180862e+00" charge=1 multiplicity=1 method=wB97M-V basis=def2-svpd config_type=h3o+ sample_index=374 temperature=300.0 units=atomic
O         0.0069706021       0.0041456721       0.0806400444  -4.728655709666e-02  -2.237005653843e-03  -2.354593180318e-02
H        -0.0546761055       0.9287874996      -0.2921097734   1.004767818711e-02  -8.441918599020e-03   7.141436846484e-03
H         0.7339928289      -0.5086282851      -0.2905779436   2.624413905243e-02  -9.630753132563e-04  -2.897679395694e-03
H        -0.7908657659      -0.4782518984      -0.3253909547   1.099545729371e-02   1.164787205301e-02   1.930840299297e-02
4
Properties=species:S:1:pos:R:3:forces:R:3 energy=-7.657516438303e+01 dipole="-9.4767955585e-02 1.0473924422e-01 -9.1837881308e-01" quadrupole="-2.6432504258e+00 5.0617580120e-01 7.6712461773e-02 5.0617580120e-01 -1.7137871475e+00 -8.8637800699e-02 7.6712461773e-02 -8.8637800699e-02 -4.1292490240e+00" polarizability="6.5904440057e+00 6.8420175106e-01 2.8146008325e-01 6.8420175106e-01 7.7935854704e+00 -2.6990873998e-01 2.8146008325e-01 -2.6990873998e-01 6.0540164341e+00" charge=1 multiplicity=1 method=wB97M-V basis=def2-svpd config_type=h3o+ sample_index=375 temperature=300.0 units=atomic
O         0.0045148849      -0.0037661156       0.0883645917  -1.672126345480e-01   1.198282723850e-01   2.606058516204e-02
H         0.0634350654       0.9914200264      -0.3561983370  -1.416225852434e-02  -5.229505379452e-02   3.223864751165e-02
H         0.6356256843      -0.3855412324      -0.3265737334   1.699136032866e-01  -9.551877761610e-02  -8.269884070738e-02
H        -0.7713035579      -0.5371922998      -0.3490616299   1.146118612616e-02   2.798542727384e-02   2.439878782449e-02
4
Properties=species:S:1:pos:R:3:forces:R:3 energy=-7.658065831123e+01 dipole="9.5654150925e-04 -1.4806933649e-01 -3.1855342347e-01" quadrupole="-2.0225520236e+00 -4.7608980093e-01 4.8311945051e-02 -4.7608980093e-01 -1.9621536907e+00 1.1590708203e-01 4.8311945051e-02 1.1590708203e-01 -4.6858924899e+00" polarizability="6.0621439817e+00 -3.1719731752e-01 -1.4045627908e-02 -3.1719731752e-01 5.8443371660e+00 9.4281255565e-02 -1.4045627908e-02 9.4281255565e-02 5.1159619396e+00" charge=1 multiplicity=1 method=wB97M-V basis=def2-svpd config_type=h3o+ sample_index=376 temperature=300.0 units=atomic
O         0.0041096641       0.0097500056       0.0441156179   9.033721715331e-02  -1.506749797241e-01   5.153211896025e-02
H        -0.1004461303       0.8411989426      -0.0807543134  -4.427506454119e-04   1.967808357419e-01  -3.068898157785e-02
H         0.7834783202      -0.5629502868      -0.1108455616   1.071850044712e-02   1.519134816037e-02  -1.854686361619e-03
H        -0.7487992183      -0.4268176368      -0.1314113549  -1.006139680112e-01  -6.129424782085e-02  -1.898284243444e-02
4
Properties=species:S:1:pos:R:3:forces:R:3 energy=-7.660151276292e+01 dipole="-1.0129260766e-01 -1.0038634942e-02 -5.6996732946e-01" quadrupole="-1.9965513469e+00 -7.8643928063e-03 1.1029400253e-01 -7.8643928063e-03 -1.1501356002e+00 6.5584040628e-02 1.1029400253e-01 6.5584040628e-02 -4.8315384602e+00" polarizability="7.8576591005e+00 1.6444665523e-01 1.4542760232e-01 1.6444665523e-01 8.5697462678e+00 3.3266170648e-02 1.4542760232e-01 3.3266170648e-02 6.1213769776e+00" charge=1 multiplicity=1 method=wB97M-V basis=def2-svpd config_type=h3o+ sample_index=377 temperature=300.0 units=atomic
O         0.0066024607       0.0043314995       0.0618801905  -4.884816893035e-02   6.057551669150e-03  -2.816089825662e-02
H        -0.0362071362       1.0500557529      -0.1912555454   7.808468383814e-03  -6.270969975933e-02   9.987446843055e-03
H         0.7889750651      -0.5567117197      -0.1916160281  -1.852370292618e-03   1.914024808546e-02   1.428643403557e-03
H        -0.8584172503      -0.5549449687      -0.2245790586   4.288931135344e-02   3.750521649266e-02   1.674288945476e-02
4
Properties=species:S:1:pos:R:3:forces:R:3 energy=-7.659817279170e+01 dipole="1.5170360544e-01 -6.9149913978e-03 -3.1870617570e-01" quadrupole="-2.2730680415e+00 1.6559786143e-01 -1.4018381162e-01 1.6559786143e-01 -1.5246035157e+00 5.1836108282e-02 -1.4018381162e-01 5.1836108282e-02 -4.7615307467e+00" polarizability="6.1272136912e+00 -6.6684202495e-02 -1.1162945583e-01 -6.6684202495e-02 6.5907437929e+00 1.5254306030e-02 -1.1162945583e-01 1.5254306030e-02 5.2954777275e+00" charge=1 multiplicity=1 method=wB97M-V basis=def2-svpd config_type=h3o+ sample_index=378 temperature=300.0 units=atomic
O        -0.0113087677       0.0043241881       0.0441950945   1.113054046234e-01   5.831515514264e-02   2.786669393588e-02
H         0.0862463840       0.9564213391      -0.0967917749  -1.501800677314e-02   1.157550512354e-02  -4.731552709917e-03
H         0.7884794540      -0.4866024770      -0.1419536414   2.500424773693e-02  -7.009708304170e-03  -1.438423322111e-03
H        -0.6937605191      -0.5316246422      -0.0854787920  -1.212888577503e-01  -6.287769801632e-02  -2.169135154271e-02
4
Properties=species:S:1:pos:R:3:forces:R:3 energy=-7.660702281048e+01 dipole="5.4731430061e-02 5.9598186404e-02 -9.3051244768e-01" quadrupole="-2.3745624766e+00 7.6057590300e-02 -8.4317832599e-02 7.6057590300e-02 -2.1654135993e+00 -7.0764712225e-02 -8.4317832599e-02 -7.0764712225e-02 -4.1048098274e+00" polarizability="6.9037906907e+00 -8.0473449602e-03 -1.1165648230e-01 -8.0473449602e-03 7.2782154046e+00 -1.4065652735e-01 -1.1165648230e-01 -1.4065652735e-01 6.0871126512e+00" charge=1 multiplicity=1 method=wB97M-V basis=def2-svpd config_type=h3o+ sample_index=379 temperature=300.0 units=atomic
O        -0.0041188788      -0.0027958368       0.0899723405   3.056889376085e-02   4.140457454088e-02  -3.499285604902e-02
H         0.0337945974       0.9240800328      -0.3620046660  -6.916129703630e-03  -2.179955843962e-02   2.452481534252e-02
H         0.7700802322      -0.4251541470      -0.3581105491   6.446715929841e-03  -6.208565565249e-03   1.317054564045e-02
H        -0.7379744194      -0.4456810723      -0.3375424695  -3.010088873684e-02  -1.339778312026e-02  -2.697001799099e-03
4
Properties=species:S:1:pos:R:3:forces:R:3 energy=-7.659759438706e+01 dipole="7.6884341650e-02 5.3362258316e-02 -8.4290810169e-01" quadrupole="-2.2200320635e+00 -2.8564654264e-01 -7.1212386423e-02 -2.8564654264e-01 -1.4997656730e+00 -2.5598430868e-02 -7.1212386423e-02 -2.5598430868e-02 -4.4301276405e+00" polarizability="7.7226974501e+00 -4.4428249637e-01 -1.8028194880e-01 -4.4428249637e-01 8.6120115959e+00 -1.1616593950e-01 -1.8028194880e-01 -1.1616593950e-01 6.3989769081e+00" charge=1 multiplicity=1 method=wB97M-V basis=def2-svpd config_type=h3o+ sample_index=380 temperature=300.0 units=atomic
O        -0.0035476325      -0.0005415792       0.0824101140   5.650888028916e-02   3.621048513042e-02  -5.055614402513e-02
H        -0.0248287595       1.0310966125      -0.3150474466   4.759690188442e-03  -6.606935152422e-02   2.652562904195e-02
H         0.8350518643      -0.5450027144      -0.3195132708  -3.979271532832e-02   3.627587341092e-02   2.577531681230e-02
H        -0.7534674681      -0.4691997516      -0.3018312799  -2.147767165302e-02  -6.417957962767e-03  -1.737774989927e-03
4
Properties=species:S:1:pos:R:3:forces:R:3 energy=-7.660058652970e+01 dipole="6.3288229611e-02 4.3145899273e-02 -5.9220872821e-02" quadrupole="-1.6552416845e+00 -6.0631921508e-01 1.0814006467e-02 -6.0631921508e-01 -1.5613769621e+00 -3.1524327975e-02 1.0814006467e-02 -3.1524327975e-02 -4.9661071234e+00" polarizability="6.9309841352e+00 -5.6312253430e-01 -8.0935423463e-03 -5.6312253430e-01 7.2064929994e+00 -2.4500567411e-02 -8.0935423463e-03 -2.4500567411e-02 5.5300667824e+00" charge=1 multiplicity=1 method=wB97M-V basis=def2-svpd config_type=h3o+ sample_index=381 temperature=300.0 units=atomic
O         0.0005215136      -0.0026242172       0.0266535554   1.120445376457e-01   5.437082089991e-02   3.560725373047e-03
H        -0.0912890805       0.9996697513      -0.0230312898   1.727447260666e-02  -2.307479432522e-02   7.584369835665e-04
H         0.8800156626      -0.5520468303      -0.0087978070  -3.675347652757e-02   2.807558481348e-02   3.569171748881e-04
H        -0.7970725874      -0.3986407422      -0.0114543778  -9.256216941119e-02  -5.936782374757e-02  -4.671955131468e-03
4
Properties=species:S:1:pos:R:3:forces:R:3 energy=-7.660507631783e+01 dipole="-1.1209577308e-01 -8.3036360219e-02 -5.3023616980e-01" quadrupole="-1.5468967520e+00 1.7793735016e-01 9.9415837469e-02 1.7793735016e-01 -1.6744888841e+00 8.0011788842e-02 9.9415837469e-02 8.0011788842e-02 -4.8333365486e+00" polarizability="8.0966260786e+00 3.3403603479e-01 1.5323819249e-01 3.3403603479e-01 7.7337094954e+00 1.1129809635e-01 1.5323819249e-01 1.1129809635e-01 5.9793004869e+00" charge=1 multiplicity=1 method=wB97M-V basis=def2-svpd config_type=h3o+ sample_index=382 temperature=300.0 units=atomic
O         0.0057116534       0.0050995068       0.0589479806  -5.260595285995e-02  -3.966251895551e-02  -1.792298389282e-02
H        -0.0061622561       0.9670128667      -0.1733833173   1.570890313247e-03  -9.027410836245e-03  -5.769216894819e-04
H         0.8314344114      -0.4994147402      -0.1793419275  -1.063121355865e-02   1.028160712052e-02   1.585759925572e-03
H        -0.9166631147      -0.5414934421      -0.2078412378   6.166981443749e-02   3.841234628894e-02   1.691368697561e-02
4
Properties=species:S:1:pos:R:3:forces:R:3 energy=-7.660174916163e+01 dipole="-8.5178754964e-02 1.0641824268e-01 -5.3367367319e-01" quadrupole="-1.7728107565e+00 -2.6679592747e-01 1.1790373184e-01 -2.6679592747e-01 -2.3366695866e+00 -1.4007437581e-01 1.1790373184e-01 -1.4007437581e-01 -4.5791189288e+00" polarizability="6.3689316353e+00 -1.0504742899e-01 9.6321928337e-02 -1.0504742899e-01 6.2126829005e+00 -1.1545453680e-01 9.6321928337e-02 -1.1545453680e-01 5.3281452163e+00" charge=1 multiplicity=1 method=wB97M-V basis=def2-svpd config_type=h3o+ sample_index=383 temperature=300.0 units=atomic
O         0.0072070398      -0.0086527975       0.0593177813  -4.421128126178e-02   4.780060133531e-02   3.931667085595e-02
H        -0.0803590074       0.8948078251      -0.2150365462   1.586734572109e-02   3.960555903380e-02  -4.031418867873e-03
H         0.7951876201      -0.4105952992      -0.1578326106   6.582813915464e-02  -4.276248160241e-02  -2.403048038377e-02
H        -0.8301579044      -0.3378888209      -0.1938391520  -3.748270644984e-02  -4.464403332353e-02  -1.125407687621e-02
4
Properties=species:S:1:pos:R:3:forces:R:3 energy=-7.660798272462e+01 dipole="-1.0669863798e-01 -9.4222649351e-02 -4.6985311696e-01" quadrupole="-1.7567220255e+00 -1.7421307492e-01 1.2691608286e-01 -1.7421307492e-01 -1.5047853226e+00 1.0718942848e-01 1.2691608286e-01 1.0718942848e-01 -4.8661649467e+00" polarizability="7.7520104442e+00 2.1053778409e-02 1.3337493010e-01 2.1053778409e-02 7.6912579719e+00 1.1360583347e-01 1.3337493010e-01 1.1360583347e-01 5.8822197191e+00" charge=1 multiplicity=1 method=wB97M-V basis=def2-svpd config_type=h3o+ sample_index=384 temperature=300.0 units=atomic
O         0.0082322440       0.0072739264       0.0547244851  -4.373684322053e-02  -4.402357636154e-02  -1.383320468634e-02
H        -0.0697839270       0.9749650750      -0.1445435767   1.219136121289e-02  -9.953226380217e-03  -2.055799670842e-03
H         0.8135827059      -0.5643390608      -0.1536054372  -1.249333531211e-02   2.525787102078e-02   1.819954369569e-03
H        -0.8755284192      -0.5194311961      -0.1947200255   4.403824522707e-02   2.871478935426e-02   1.407259097693e-02
4
Properties=species:S:1:pos:R:3:forces:R:3 energy=-7.660860995701e+01 dipole="9.9696005412e-02 4.5715787301e-02 -6.6075650044e-01" quadrupole="-2.0464908633e+00 1.6560573627e-01 -1.3112539158e-01 1.6560573627e-01 -2.1369120919e+00 -5.5891243460e-02 -1.3112539158e-01 -5.5891243460e-02 -4.4746841779e+00" polarizability="6.5262491520e+00 5.0560436357e-03 -1.4024855136e-01 5.0560436357e-03 6.5638457554e+00 -6.4943654389e-02 -1.4024855136e-01 -6.4943654389e-02 5.5120209583e+00" charge=1 multiplicity=1 method=wB97M-V basis=def2-svpd config_type=h3o+ sample_index=385 temperature=300.0 units=atomic
O        -0.0076064682      -0.0027229210       0.0687121034   6.367673134250e-02   3.414189001095e-02   2.278330335082e-02
H         0.0664176766       0.9084364172      -0.2481568554  -1.253387482758e-02   1.840053914991e-02  -3.327443453670e-04
H         0.8108126700      -0.4059897486      -0.2534705011   1.121584997798e-02  -1.829445272185e-02   8.370239763527e-04
H        -0.7555148863      -0.4508436123      -0.2154804051  -6.236029968018e-02  -3.424409010579e-02  -2.329141694115e-02
4
Properties=species:S:1:pos:R:3:forces:R:3 energy=-7.659594452663e+01 dipole="6.5850424156e-02 -1.5942441490e-02 -5.1979693746e-01" quadrupole="-1.1279239046e+00 -7.6109038436e-01 3.1671221307e-02 -7.6109038436e-01 -1.9470051651e+00 -3.7941365641e-02 3.1671221307e-02 -3.7941365641e-02 -4.8647568129e+00" polarizability="8.4520153518e+00 -7.2895078028e-01 -4.6683839926e-02 -7.2895078028e-01 7.7491507247e+00 -2.5882828740e-03 -4.6683839926e-02 -2.5882828740e-03 6.0305574838e+00" charge=1 multiplicity=1 method=wB97M-V basis=def2-svpd config_type=h3o+ sample_index=386 temperature=300.0 units=atomic
O         0.0021768140      -0.0021194370       0.0582247875   3.909437896150e-02  -7.222455534335e-03  -1.664659069844e-02
H        -0.1180641004       0.9623087759      -0.1903208251   2.317895738682e-02  -1.378381821827e-02   5.111207055363e-03
H         0.9616927742      -0.5525900778      -0.1739134103  -7.212026444470e-02   4.091618402099e-02   1.052119483381e-02
H        -0.8784732917      -0.3680679963      -0.1848469352   9.850223708186e-03  -1.990978377540e-02   1.013672077485e-03
4
Properties=species:S:1:pos:R:3:forces:R:3 energy=-7.659202295811e+01 dipole="1.1311611152e-01 5.9378784037e-02 -4.8331912326e-01" quadrupole="-1.9438300354e+00 -3.9716883182e-01 -6.0805042220e-02 -3.9716883182e-01 -1.9363915773e+00 -5.9344802277e-02 -6.0805042220e-02 -5.9344802277e-02 -4.6546772822e+00" polarizability="6.3582350856e+00 -4.5216483707e-01 -1.3276738638e-01 -4.5216483707e-01 6.5702982328e+00 -7.3391018216e-02 -1.3276738638e-01 -7.3391018216e-02 5.3673620684e+00" charge=1 multiplicity=1 method=wB97M-V basis=def2-svpd config_type=h3o+ sample_index=387 temperature=300.0 units=atomic
O        -0.0044766161      -0.0038870733       0.0555625173   1.827048878402e-01   8.018450938133e-02   4.509028677096e-02
H        -0.0411705190       0.9387452869      -0.1812179160   8.129712842252e-03   9.279182889360e-03  -3.019200926663e-04
H         0.8458226135      -0.4907704602      -0.1737684398  -1.882080366395e-02   1.035934742837e-02   3.394072318304e-03
H        -0.7330267006      -0.3780623509      -0.1514599227  -1.720139471486e-01  -9.981777777853e-02  -4.818544054098e-02
4
Properties=species:S:1:pos:R:3:forces:R:3 energy=-7.661135655649e+01 dipole="3.7283302234e-02 -6.6843521344e-02 -6.1503458943e-01" quadrupole="-2.0941343410e+00 -1.7082111556e-01 -2.4436459972e-02 -1.7082111556e-01 -1.5372815860e+00 1.0745107864e-01 -2.4436459972e-02 1.0745107864e-01 -4.6751641138e+00" polarizability="7.2839294207e+00 -2.1964357964e-01 -6.5786214384e-02 -2.1964357964e-01 7.5853530244e+00 9.6227700237e-02 -6.5786214384e-02 9.6227700237e-02 5.8586456398e+00" charge=1 multiplicity=1 method=wB97M-V basis=def2-svpd config_type=h3o+ sample_index=388 temperature=300.0 units=atomic
O        -0.0013324229       0.0065482990       0.0652473919   3.147540366685e-02  -2.084924170717e-02  -1.489198324715e-02
H        -0.0183451108       0.9707736284      -0.2028907610   2.943067489812e-03  -1.690172214136e-02   1.078176257223e-03
H         0.8170280606      -0.5559100002      -0.2325915854  -2.428605631771e-02   3.183583822557e-02   1.262295176405e-02
H        -0.7773667590      -0.5118064498      -0.2259562223  -1.013200618271e-02   5.916701507741e-03   1.181629708672e-03
4
Properties=species:S:1:pos:R:3:forces:R:3 energy=-7.658890405207e+01 dipole="1.2167484257e-01 -1.8363082220e-01 -7.4826166963e-01" quadrupole="-1.3461633983e+00 -1.2088220389e-01 -1.4369118892e-01 -1.2088220389e-01 -1.8914231234e+00 1.9346307954e-01 -1.4369118892e-01 1.9346307954e-01 -4.6406390499e+00" polarizability="9.2279682983e+00 -3.3698761110e-01 -2.4157924344e-01 -3.3698761110e-01 8.0425608720e+00 3.3856006195e-01 -2.4157924344e-01 3.3856006195e-01 6.4453597044e+00" charge=1 multiplicity=1 method=wB97M-V basis=def2-svpd config_type=h3o+ sample_index=389 temperature=300.0 units=atomic
O        -0.0068049255       0.0102795036       0.0747607393   3.175599426026e-02  -9.303844999137e-02  -4.138219692284e-02
H         0.0216873315       0.9193072001      -0.2429773091  -3.043424781227e-03   1.709783217005e-02  -6.959934367081e-03
H         0.9544001782      -0.5504967216      -0.3024284939  -7.444648941136e-02   4.355690693470e-02   3.027011404777e-02
H        -0.8672036413      -0.5252276148      -0.2684653554   4.573249771421e-02   3.238451220837e-02   1.806892191487e-02
4
Properties=species:S:1:pos:R:3:forces:R:3 energy=-7.658604491041e+01 dipole="-2.2889802463e-01 -1.4282639703e-01 -2.2367696706e-01" quadrupole="-1.0653469947e+00 -1.6044414003e-01 2.1024517620e-01 -1.6044414003e-01 -1.3885029370e+00 1.0204877621e-01 2.1024517620e-01 1.0204877621e-01 -5.1404302916e+00" polarizability="9.1698702553e+00 2.4854804126e-01 2.2303461149e-01 2.4854804126e-01 8.3667134317e+00 1.2010639503e-01 2.2303461149e-01 1.2010639503e-01 6.1424982568e+00" charge=1 multiplicity=1 method=wB97M-V basis=def2-svpd config_type=h3o+ sample_index=390 temperature=300.0 units=atomic
O         0.0155125930       0.0083668407       0.0376118336  -7.143525817808e-02  -5.691579793990e-02  -1.241958796707e-02
H        -0.1068190735       0.9998070400      -0.0499009257   1.902565316330e-02  -2.022758463607e-02  -6.308954813289e-04
H         0.8654399330      -0.5841862959      -0.0456817603  -3.272347248869e-02   3.619353207553e-02   3.408058145150e-04
H        -1.0068410226      -0.5423380141      -0.1231399049   8.513086587443e-02   4.094894538945e-02   1.270862623630e-02
4
Properties=species:S:1:pos:R:3:forces:R:3 energy=-7.661354216168e+01 dipole="-7.1426813402e-02 1.8383843488e-03 -4.4104034302e-01" quadrupole="-1.9259648825e+00 -2.3202320815e-01 9.2139596867e-02 -2.3202320815e-01 -1.6411726641e+00 1.4243944834e-02 9.2139596867e-02 1.4243944834e-02 -4.7962350040e+00" polarizability="6.9375031180e+00 -9.7318651635e-02 7.2008403794e-02 -9.7318651635e-02 7.1642059339e+00 -2.2640377428e-03 7.2008403794e-02 -2.2640377428e-03 5.6080427921e+00" charge=1 multiplicity=1 method=wB97M-V basis=def2-svpd config_type=h3o+ sample_index=391 temperature=300.0 units=atomic
O         0.0062158159       0.0014997135       0.0527414740  -2.779132973278e-02   1.304016220587e-02   3.291316101107e-03
H        -0.0677715982       0.9730289796      -0.1505969337   1.282186423427e-02  -1.262947316112e-02   6.045961596999e-04
H         0.7940035644      -0.5247442722      -0.1397565903   1.523858550531e-02   2.028866275391e-03  -5.353544780502e-03
H        -0.8256966162      -0.4646981944      -0.1708097756  -2.715355545035e-04  -2.438725874328e-03   1.462178867583e-03
4
Properties=species:S:1:pos:R:3:forces:R:3 energy=-7.661298454137e+01 dipole="2.1357490039e-02 -4.7174102350e-02 -6.5179602148e-01" quadrupole="-2.1166101123e+00 -1.9331761667e-01 -2.5198362689e-03 -1.9331761667e-01 -1.8596728999e+00 6.7976790754e-02 -2.5198362689e-03 6.7976790754e-02 -4.5467532925e+00" polarizability="6.8500850934e+00 -1.9989127439e-01 -4.4514731872e-02 -1.9989127439e-01 6.9445354568e+00 6.5490401517e-02 -4.4514731872e-02 6.5490401517e-02 5.6599363354e+00" charge=1 multiplicity=1 method=wB97M-V basis=def2-svpd config_type=h3o+ sample_index=392 temperature=300.0 units=atomic
O        -0.0000813902       0.0043254348       0.0680401818   3.243130164034e-02  -1.902598234491e-02   3.323053739153e-03
H        -0.0300856960       0.9236230445      -0.2242425280   5.108972572599e-03   1.640095180158e-02  -4.894824453842e-03
H         0.7986363580      -0.5188873039      -0.2411953738  -7.562325892846e-03   1.613138271677e-02   7.124113801959e-03
H        -0.7672548262      -0.4659908938      -0.2408090824  -2.997465590726e-02  -1.350068978817e-02  -5.560562062329e-03
4
Properties=species:S:1:pos:R:3:forces:R:3 energy=-7.659328548357e+01 dipole="1.5660010718e-01 -3.9809374683e-02 -4.6261091127e-01" quadrupole="-8.2109928320e-01 -2.9335334201e-01 -1.1294377361e-01 -2.9335334201e-01 -2.3822628190e+00 -3.2163793756e-02 -1.1294377361e-01 -3.2163793756e-02 -4.8465064651e+00" polarizability="8.4183735983e+00 -4.0315424570e-01 -1.6210431699e-01 -4.0315424570e-01 6.8288925892e+00 7.4904847398e-02 -1.6210431699e-01 7.4904847398e-02 5.8121273293e+00" charge=1 multiplicity=1 method=wB97M-V basis=def2-svpd config_type=h3o+ sample_index=393 temperature=300.0 units=atomic
O        -0.0064315116      -0.0019453948       0.0540258999   6.526327680700e-02  -8.483950113110e-02   4.851249042367e-03
H        -0.0069985638       0.8844485622      -0.1673929551   2.448623049348e-03   7.581857479317e-02  -1.587694359846e-02
H         1.0039093185      -0.4585774964      -0.1732966999  -8.009443940144e-02   2.214570479808e-02   1.318188975078e-02
H        -0.8939995208      -0.3870387685      -0.1412124955   1.238263745640e-02  -1.311902582770e-02  -2.162882406123e-03
4
Properties=species:S:1:pos:R:3:forces:R:3 energy=-7.660725840735e+01 dipole="-4.9911173980e-02 -8.7465299382e-02 -6.3357679717e-01" quadrupole="-1.7108717020e+00 3.6291273872e-01 1.4245893361e-02 3.6291273872e-01 -1.7983358381e+00 8.9637813562e-02 1.4245893361e-02 8.9637813562e-02 -4.6873473924e+00" polarizability="7.8519263767e+00 3.9910555471e-01 8.1786704285e-02 3.9910555471e-01 7.5439492964e+00 1.2548869052e-01 8.1786704285e-02 1.2548869052e-01 5.9719221075e+00" charge=1 multiplicity=1 method=wB97M-V basis=def2-svpd config_type=h3o+ sample_index=394 temperature=300.0 units=atomic
O         0.0004407971       0.0054088254       0.0665322972  -3.456678027869e-02  -4.484339849751e-02  -2.031363455116e-02
H         0.0505268618       0.9425895098      -0.2130414555  -8.492049016427e-03   2.588499091541e-03  -1.700761084440e-03
H         0.8220888802      -0.4647980578      -0.2334336828  -7.852101197675e-03   2.464130383672e-03   5.172665605992e-03
H        -0.8796638060      -0.5564433222      -0.2356014697   5.090864107310e-02   3.979390958932e-02   1.683543341621e-02
4
Properties=species:S:1:pos:R:3:forces:R:3 energy=-7.658398349546e+01 dipole="-3.9469195298e-02 1.4931522336e-01 -7.1244468928e-01" quadrupole="-2.7723226081e+00 -2.5521900923e-02 4.6950738375e-02 -2.5521900923e-02 -5.7547275661e-01 -2.4128521372e-02 4.6950738375e-02 -2.4128521372e-02 -4.6227160067e+00" polarizability="6.9753987337e+00 3.6799837362e-02 6.0568063214e-02 3.6799837362e-02 9.2583079325e+00 -2.0274278798e-01 6.0568063214e-02 -2.0274278798e-01 6.1776262021e+00" charge=1 multiplicity=1 method=wB97M-V basis=def2-svpd config_type=h3o+ sample_index=395 temperature=300.0 units=atomic
O         0.0027660031       0.0004888195       0.0721336518  -2.381911374844e-02   7.160968463961e-02  -1.803362868794e-02
H        -0.0176115981       1.1376585020      -0.2571342348   3.645021182345e-03  -9.162177961624e-02   1.976598262297e-02
H         0.6963092252      -0.5712766658      -0.2503420801   4.423841372050e-02   3.629560886611e-03  -5.795320637629e-03
H        -0.7229615253      -0.5663021918      -0.2641545500  -2.406533116888e-02   1.638752375480e-02   4.065772950162e-03
4
Properties=species:S:1:pos:R:3:forces:R:3 energy=-7.660816049025e+01 dipole="-3.9486902712e-02 3.9446513845e-03 -5.3849057659e-01" quadrupole="-1.5454040872e+00 4.8550112670e-01 -2.1196349479e-02 4.8550112670e-01 -2.0398153550e+00 -3.6287595393e-02 -2.1196349479e-02 -3.6287595393e-02 -4.7293573549e+00" polarizability="7.4129020098e+00 4.4219314950e-01 4.2893969847e-02 4.4219314950e-01 7.0471237421e+00 -1.0826256980e-02 4.2893969847e-02 -1.0826256980e-02 5.7175225250e+00" charge=1 multiplicity=1 method=wB97M-V basis=def2-svpd config_type=h3o+ sample_index=396 temperature=300.0 units=atomic
O        -0.0013302434      -0.0019089468       0.0596410581  -5.171129555358e-02  -6.568036462214e-03   1.928195330754e-04
H         0.0798984263       0.9326120868      -0.1973038588  -1.519358716138e-02   1.099716135238e-02  -5.234743578687e-04
H         0.8310469962      -0.3840389177      -0.1905825868   2.254368963723e-02  -2.916657466416e-02  -7.092390211391e-03
H        -0.8896496383      -0.5102317665      -0.1838953562   4.435626006281e-02   2.474007924729e-02   7.423340872419e-03
4
Properties=species:S:1:pos:R:3:forces:R:3 energy=-7.654706277729e+01 dipole="2.1636284266e-01 1.3212940568e-01 -5.2412562597e-01" quadrupole="-2.1267997234e+00 3.9777484790e-02 -2.0547767615e-01 3.9777484790e-02 -2.1910925604e+00 -1.2726944242e-01 -2.0547767615e-01 -1.2726944242e-01 -4.4738123094e+00" polarizability="5.6422728306e+00 -1.9969733956e-01 -2.3115070596e-01 -1.9969733956e-01 5.8820356658e+00 -1.4146837396e-01 -2.3115070596e-01 -1.4146837396e-01 5.0676925336e+00" charge=1 multiplicity=1 method=wB97M-V basis=def2-svpd config_type=h3o+ sample_index=397 temperature=300.0 units=atomic
O        -0.0142880975      -0.0084001418       0.0582522625   3.366211935553e-01   1.958202452482e-01   1.142884789501e-01
H         0.0764169787       0.8990125359      -0.2086252522  -1.461363413752e-02   3.571205425117e-02  -3.779252121287e-03
H         0.8170833556      -0.3781460192      -0.2061606826   2.565431627976e-02  -3.232853700484e-02  -4.931993371808e-03
H        -0.6648692809      -0.3786116060      -0.1348286320  -3.476657315142e-01  -1.992076713206e-01  -1.055777458697e-01
4
Properties=species:S:1:pos:R:3:forces:R:3 energy=-7.660738903415e+01 dipole="-6.2674196371e-02 3.8388121205e-02 -8.6436648334e-01" quadrupole="-2.4350983591e+00 -9.0700342063e-02 9.2544278490e-02 -9.0700342063e-02 -2.0875530999e+00 -2.8319333428e-02 9.2544278490e-02 -2.8319333428e-02 -4.1835616842e+00" polarizability="6.5679504586e+00 7.5810458631e-03 1.1513226745e-01 7.5810458631e-03 6.9760390467e+00 -8.9264140771e-02 1.1513226745e-01 -8.9264140771e-02 5.8279555221e+00" charge=1 multiplicity=1 method=wB97M-V basis=def2-svpd config_type=h3o+ sample_index=398 temperature=300.0 units=atomic
O         0.0047923964      -0.0008362773       0.0846476059  -3.771709248914e-02   4.259999418436e-02  -6.536301904431e-03
H        -0.0400559033       0.9165900573      -0.3279004759   7.949154345981e-03  -9.151003156298e-03   1.461625139669e-02
H         0.7175454985      -0.4599926381      -0.3102514233   5.156219084197e-02  -2.223642107019e-02  -1.357950376817e-02
H        -0.7541852010      -0.4348358187      -0.3341883909  -2.179063089095e-02  -1.121473639964e-02   5.507558905757e-03
4
Properties=species:S:1:pos:R:3:forces:R:3 energy=-7.660443560177e+01 dipole="-1.1788473567e-01 8.1806583747e-02 -3.8142741304e-01" quadrupole="-1.9029106766e+00 -1.4876648364e-01 1.1825545346e-01 -1.4876648364e-01 -1.9115084306e+00 -7.2480212876e-02 1.1825545346e-01 -7.2480212876e-02 -4.7388203489e+00" polarizability="6.3502104762e+00 2.0206376093e-02 1.0063815680e-01 2.0206376093e-02 6.5319572507e+00 -7.3618358520e-02 1.0063815680e-01 -7.3618358520e-02 5.3421888388e+00" charge=1 multiplicity=1 method=wB97M-V basis=def2-svpd config_type=h3o+ sample_index=399 temperature=300.0 units=atomic
O         0.0084685802      -0.0047067656       0.0484882101  -9.200345565735e-02   7.165085014925e-02   2.659931725824e-02
H        -0.0668099065       0.9489717116      -0.1457639614   1.348380903135e-02   4.873117483697e-03  -1.442154642537e-04
H         0.7633735912      -0.4518392913      -0.1025338042   9.561869420742e-02  -5.443355451487e-02  -2.256426635107e-02
H        -0.8320734373      -0.4142690313      -0.1448251725  -1.709780466946e-02  -2.208788740286e-02  -3.890195965764e-03
4
Properties=species:S:1:pos:R:3:forces:R:3 energy=-7.660045718439e+01 dipole="1.8355731330e-01 -8.2939037160e-02 -8.7737008358e-01" quadrupole="-2.0282472984e+00 2.7892136077e-02 -2.5802011724e-01 2.7892136077e-02 -1.9886292653e+00 1.2004409342e-01 -2.5802011724e-01 1.2004409342e-01 -4.3158468562e+00" polarizability="7.9397582987e+00 -2.9289247116e-01 -3.9946048941e-01 -2.9289247116e-01 7.6707206112e+00 1.8659977867e-01 -3.9946048941e-01 1.8659977867e-01 6.3205212790e+00" charge=1 multiplicity=1 method=wB97M-V basis=def2-svpd config_type=h3o+ sample_index=400 temperature=300.0 units=atomic
O        -0.0124753352       0.0062819844       0.0851433838   7.783812667093e-02  -2.980157492755e-02  -4.620797212187e-02
H         0.0722428140       0.9165321144      -0.3100159936  -1.219643293956e-02  -5.368154179039e-03   7.027579637590e-03
H         0.8760157594      -0.4993681358      -0.3662427986  -5.395235119612e-02   2.988828451772e-02   3.814559842666e-02
H        -0.7486408059      -0.5093440828      -0.3039591938  -1.169372712022e-02   5.286674026865e-03   1.039291774820e-03
4
Properties=species:S:1:pos:R:3:forces:R:3 energy=-7.660013818456e+01 dipole="1.0841113423e-01 1.8132523303e-01 -3.0232698016e-01" quadrupole="-1.7623486638e+00 1.1619870204e-01 -9.6821043068e-02 1.1619870204e-01 -1.8661762043e+00 -1.5922066230e-01 -9.6821043068e-02 -1.5922066230e-01 -4.8159702247e+00" polarizability="6.4406242328e+00 -1.6793874815e-02 -7.4624925690e-02 -1.6793874815e-02 6.8454051624e+00 -1.4973102001e-01 -7.4624925690e-02 -1.4973102001e-01 5.4094278568e+00" charge=1 multiplicity=1 method=wB97M-V basis=def2-svpd config_type=h3o+ sample_index=401 temperature=300.0 units=atomic
O        -0.0072652278      -0.0117634239       0.0429669225   9.436556761751e-02   1.236488402229e-01   1.697553947741e-02
H         0.0536880541       0.9943732954      -0.1365776496  -1.256477116194e-02  -3.280237876664e-02   7.246830602541e-03
H         0.8514991845      -0.3863848841      -0.1022108407   2.045483100784e-02  -2.947898877084e-02  -5.458993085756e-03
H        -0.7889253068      -0.4123273438      -0.0659289178  -1.022535780555e-01  -6.136811633576e-02  -1.876385917223e-02
4
Properties=species:S:1:pos:R:3:forces:R:3 energy=-7.660738946841e+01 dipole="1.2089351160e-01 -6.7272508102e-03 -5.3688857233e-01" quadrupole="-2.1507272482e+00 4.5323470439e-01 -1.6696920490e-01 4.5323470439e-01 -1.3610791190e+00 5.2508892068e-02 -1.6696920490e-01 5.2508892068e-02 -4.7584788156e+00" polarizability="7.1092319424e+00 2.4491753629e-01 -1.3060254118e-01 2.4491753629e-01 7.7381089914e+00 8.1113550697e-03 -1.3060254118e-01 8.1113550697e-03 5.8052416959e+00" charge=1 multiplicity=1 method=wB97M-V basis=def2-svpd config_type=h3o+ sample_index=402 temperature=300.0 units=atomic
O        -0.0107175378       0.0040767971       0.0595812607   3.679696959869e-02   1.837116709339e-02  -8.926830160657e-03
H         0.1245292430       1.0048455861      -0.1797224801  -2.392589494185e-02  -3.903469004458e-02   5.643763129452e-03
H         0.8073140107      -0.4727731278      -0.2222441563  -1.253564911669e-03   2.756049206811e-03   6.650281430584e-03
H        -0.7603371310      -0.5896088588      -0.1686957952  -1.161470795191e-02   1.790463680897e-02  -3.368900606936e-03
4
Properties=species:S:1:pos:R:3:forces:R:3 energy=-7.659797378400e+01 dipole="-1.7279971739e-01 2.6971344633e-02 -4.8815621750e-01" quadrupole="-1.7934355163e+00 -2.4899575098e-01 1.9785163896e-01 -2.4899575098e-01 -2.2394845549e+00 -4.6837118908e-02 1.9785163896e-01 -4.6837118908e-02 -4.6225710610e+00" polarizability="6.4629098736e+00 2.4979102387e-02 1.8872974434e-01 2.4979102387e-02 6.1360539429e+00 -1.3968315386e-02 1.8872974434e-01 -1.3968315386e-02 5.3144484238e+00" charge=1 multiplicity=1 method=wB97M-V basis=def2-svpd config_type=h3o+ sample_index=403 temperature=300.0 units=atomic
O         0.0129146194      -0.0024156196       0.0559752716  -1.180812511010e-01   4.050778282759e-03   4.046515475308e-02
H        -0.1079113036       0.8791675301      -0.1791961680   1.598974342875e-02   7.116720195597e-02  -1.462215860753e-02
H         0.7576554972      -0.4502452265      -0.1347053821   9.599652104439e-02  -5.452141348905e-02  -2.964777350835e-02
H        -0.8564021348      -0.3825064672      -0.1992046265   6.100033625223e-03  -2.069591966933e-02   3.804637690382e-03
4
Properties=species:S:1:pos:R:3:forces:R:3 energy=-7.660707870222e+01 dipole="1.7425218202e-01 -3.4707020998e-02 -2.9636702207e-01" quadrupole="-1.5198184368e+00 2.4945552407e-01 -1.7502140527e-01 2.4945552407e-01 -1.6745469092e+00 2.3729261350e-02 -1.7502140527e-01 2.3729261350e-02 -4.9522633450e+00" polarizability="7.6186122351e+00 -4.2252346006e-02 -1.5785325945e-01 -4.2252346006e-02 7.3411394382e+00 3.4968611057e-02 -1.5785325945e-01 3.4968611057e-02 5.7282155115e+00" charge=1 multiplicity=1 method=wB97M-V basis=def2-svpd config_type=h3o+ sample_index=404 temperature=300.0 units=atomic
O        -0.0128204545       0.0024945147       0.0426508288   8.057616227205e-02  -1.766434551761e-02  -3.658708416503e-03
H         0.1044425322       0.9703311764      -0.0937845825  -1.896625693779e-02  -3.630921831371e-03  -1.091517102985e-03
H         0.9163461245      -0.4701523199      -0.1348841627  -5.211827029393e-02   1.667440680000e-02   9.733023015330e-03
H        -0.8156312381      -0.5327484614      -0.0708550191  -9.488056100274e-03   4.621472933260e-03  -4.984418088204e-03
4
Properties=species:S:1:pos:R:3:forces:R:3 energy=-7.659586254825e+01 dipole="6.9841232687e-02 -1.6532480418e-01 -8.1540249353e-01" quadrupole="-1.6349251026e+00 -1.0199093409e-01 -8.0664942867e-02 -1.0199093409e-01 -2.2947055818e+00 1.7093828469e-01 -8.0664942867e-02 1.7093828469e-01 -4.3909007796e+00" polarizability="8.1595914658e+00 -2.0436319350e-01 -1.4513766906e-01 -2.0436319350e-01 6.9940262706e+00 3.3732038297e-01 -1.4513766906e-01 3.3732038297e-01 6.1053918309e+00" charge=1 multiplicity=1 method=wB97M-V basis=def2-svpd config_type=h3o+ sample_index=405 temperature=300.0 units=atomic
O        -0.0037244122       0.0093756322       0.0801578730   2.591408593261e-02  -1.393488766971e-01  -1.513705666341e-02
H         0.0054717466       0.8392785556      -0.2744632321   4.338358436591e-04   9.327420324680e-02  -3.279854341411e-02
H         0.8881260417      -0.5029762485      -0.3222643511  -5.569636305688e-02   3.018955551714e-02   2.967121277309e-02
H        -0.8340092978      -0.4780573741      -0.3036809229   2.934708722501e-02   1.588853833715e-02   1.826549991756e-02
4
Properties=species:S:1:pos:R:3:forces:R:3 energy=-7.660640755355e+01 dipole="-9.4090172436e-02 -1.2825491325e-01 -2.8049576870e-01" quadrupole="-1.6027729733e+00 2.4255164853e-01 5.6621229433e-02 2.4255164853e-01 -1.6673313830e+00 1.0107483778e-01 5.6621229433e-02 1.0107483778e-01 -4.9254345053e+00" polarizability="7.4188740977e+00 3.2328333168e-01 7.8744852476e-02 3.2328333168e-01 7.0554414824e+00 9.8359235386e-02 7.8744852476e-02 9.8359235386e-02 5.6257000727e+00" charge=1 multiplicity=1 method=wB97M-V basis=def2-svpd config_type=h3o+ sample_index=406 temperature=300.0 units=atomic
O         0.0040191910       0.0079380750       0.0414961831  -6.025385555500e-02  -8.273965748762e-02   3.379179567095e-03
H         0.0122813131       0.9349718627      -0.0719332078  -1.097191537503e-03   4.671325275191e-02  -8.518486908573e-03
H         0.8150239092      -0.4981333548      -0.0945105392   1.245730002415e-02  -1.780909643384e-03  -2.649316733539e-03
H        -0.8916080685      -0.5565448542      -0.1145533980   4.889116253000e-02   3.780638067588e-02   7.794422240488e-03
4
Properties=species:S:1:pos:R:3:forces:R:3 energy=-7.659459879993e+01 dipole="-2.3107430830e-01 1.5146463026e-02 -5.1538919158e-01" quadrupole="-2.1497392633e+00 -4.2620959590e-02 2.3529448123e-01 -4.2620959590e-02 -1.5625410717e+00 3.1571734162e-02 2.3529448123e-01 3.1571734162e-02 -4.6948747069e+00" polarizability="6.7235665180e+00 2.9810008898e-01 2.7652458830e-01 2.9810008898e-01 7.1314368463e+00 5.8240468828e-03 2.7652458830e-01 5.8240468828e-03 5.5907870664e+00" charge=1 multiplicity=1 method=wB97M-V basis=def2-svpd config_type=h3o+ sample_index=407 temperature=300.0 units=atomic
O         0.0155574577       0.0024048413       0.0577802911  -1.805654665731e-01   7.318613356590e-02   2.127943198994e-02
H        -0.0881728812       0.9754803276      -0.1749272939   1.787280281668e-02  -2.009923554360e-02   1.908039229898e-03
H         0.6886810355      -0.5076918259      -0.1446292062   1.311450794128e-01  -7.367431140310e-02  -3.861612526025e-02
H        -0.8494513660      -0.4985760556      -0.2223018744   3.154498341339e-02   2.058333154102e-02   1.542997866560e-02
4
Properties=species:S:1:pos:R:3:forces:R:3 energy=-7.660475435580e+01 dipole="-7.8327590618e-02 5.4635888439e-02 -5.9214153121e-01" quadrupole="-2.2920350022e+00 -4.9108555669e-01 1.2930616247e-01 -4.9108555669e-01 -1.4396644771e+00 -1.0400077708e-02 1.2930616247e-01 -1.0400077708e-02 -4.6504464341e+00" polarizability="6.6923638969e+00 -3.5901164356e-01 6.5995673681e-02 -3.5901164356e-01 7.5500075899e+00 -8.8822577508e-02 6.5995673681e-02 -8.8822577508e-02 5.7058534637e+00" charge=1 multiplicity=1 method=wB97M-V basis=def2-svpd config_type=h3o+ sample_index=408 temperature=300.0 units=atomic
O         0.0078553396       0.0002973890       0.0635499603   3.823794007242e-03   6.214122237510e-02   4.781341369888e-03
H        -0.1170190229       1.0071190170      -0.2118346951   2.356875584915e-02  -4.480372698297e-02   1.040755509697e-02
H         0.7528273013      -0.5671608932      -0.1915867981   2.045666322778e-02   9.311838560949e-03  -5.289309123280e-03
H        -0.7615165166      -0.4369034984      -0.2308517077  -4.784853410654e-02  -2.665149986548e-02  -9.901498059390e-03
4
Properties=species:S:1:pos:R:3:forces:R:3 energy=-7.660876810439e+01 dipole="7.8367227316e-02 1.0586797703e-01 -6.3410525326e-01" quadrupole="-1.4263033142e+00 2.2097638059e-01 -1.1540439431e-01 2.2097638059e-01 -2.3956923983e+00 -1.6952727758e-01 -1.1540439431e-01 -1.6952727758e-01 -4.6089733105e+00" polarizability="7.4439968833e+00 8.3805159305e-02 -1.1739657099e-01 8.3805159305e-02 6.8848642595e+00 -1.2902075818e-01 -1.1739657099e-01 -1.2902075818e-01 5.7696066795e+00" charge=1 multiplicity=1 method=wB97M-V basis=def2-svpd config_type=h3o+ sample_index=409 temperature=300.0 units=atomic
O        -0.0063006733      -0.0097034231       0.0666680556   3.659688049208e-02   2.592948411375e-02  -6.805194701793e-03
H         0.0662095967       0.9166943206      -0.2573343080  -1.389238278165e-02   5.088562327033e-03   7.177189933656e-03
H         0.8940320755      -0.3484253736      -0.2293005296  -2.492745463175e-02  -1.832827412929e-02   5.962481594681e-03
H        -0.8594188112      -0.4049803078      -0.1978243245   2.228343164834e-03  -1.268850038403e-02  -6.330891574324e-03
4
Properties=species:S:1:pos:R:3:forces:R:3 energy=-7.661240420937e+01 dipole="6.0386568083e-02 -4.4716347318e-02 -5.8551080878e-01" quadrupole="-1.6810819552e+00 -2.6517891423e-02 -6.3219436247e-02 -2.6517891423e-02 -1.8947388646e+00 3.6630748522e-02 -6.3219436247e-02 3.6630748522e-02 -4.7101171658e+00" polarizability="7.5956261126e+00 -1.1323689584e-01 -8.7289619820e-02 -1.1323689584e-01 7.2679180722e+00 6.6605908418e-02 -8.7289619820e-02 6.6605908418e-02 5.8340442570e+00" charge=1 multiplicity=1 method=wB97M-V basis=def2-svpd config_type=h3o+ sample_index=410 temperature=300.0 units=atomic
O        -0.0036392038       0.0025891376       0.0630615395   3.236245294471e-02  -3.277614582591e-02  -1.274507254344e-02
H         0.0156592472       0.9398750143      -0.2026192766  -2.783573866744e-03   6.148255725458e-03  -1.968892632135e-03
H         0.8725054912      -0.4899707087      -0.2210300345  -3.924802633953e-02   1.992030203318e-02   1.263573776191e-02
H        -0.8299328989      -0.4834956869      -0.2028640240   9.666174004325e-03   6.713826094195e-03   2.073855639446e-03
4
Properties=species:S:1:pos:R:3:forces:R:3 energy=-7.661250262923e+01 dipole="8.7494600665e-02 -1.0527981164e-02 -6.8132928360e-02" quadrupole="-1.5854565223e+00 1.7987560034e-01 -7.3681279089e-02 1.7987560034e-01 -1.6450241436e+00 4.4723873569e-03 -7.3681279089e-02 4.4723873569e-03 -4.9834782080e+00" polarizability="7.1902537507e+00 3.0390779963e-02 -4.5090517354e-02 3.0390779963e-02 7.1028439880e+00 4.8991578923e-03 -4.5090517354e-02 4.8991578923e-03 5.5691274169e+00" charge=1 multiplicity=1 method=wB97M-V basis=def2-svpd config_type=h3o+ sample_index=411 temperature=300.0 units=atomic
O        -0.0068625616       0.0009680892       0.0272807263   4.033314874859e-02  -7.289219340071e-03   4.507985635286e-04
H         0.0624639042       0.9761331491      -0.0160316717  -1.129044590539e-02  -6.329837760011e-04  -4.553058041723e-04
H         0.8781242484      -0.4698756966      -0.0357820319  -2.280893189436e-02   5.571395637818e-03   1.255376873211e-03
H        -0.8307629816      -0.5147477397      -0.0015024667  -6.239510857866e-03   2.353164344451e-03  -1.248875296621e-03
4
Properties=species:S:1:pos:R:3:forces:R:3 energy=-7.659448803975e+01 dipole="2.0722975411e-01 -5.9721836756e-02 -4.7215055977e-01" quadrupole="-1.2593535182e+00 3.8329521742e-01 -2.5960679307e-01 3.8329521742e-01 -2.3298601748e+00 6.6223666637e-03 -2.5960679307e-01 6.6223666637e-03 -4.7556807982e+00" polarizability="7.6584973890e+00 -6.4365964708e-03 -2.6606047136e-01 -6.4365964708e-03 6.4834315008e+00 8.9626572202e-02 -2.6606047136e-01 8.9626572202e-02 5.6285610853e+00" charge=1 multiplicity=1 method=wB97M-V basis=def2-svpd config_type=h3o+ sample_index=412 temperature=300.0 units=atomic
O        -0.0162178263       0.0016342251       0.0547261763   8.208361646604e-02  -9.682719363138e-02   1.558010064870e-02
H         0.1455574745       0.8594959161      -0.1608357011  -1.455298411759e-02   1.020618016881e-01  -2.232270599484e-02
H         0.9440633242      -0.3877255517      -0.2066284335  -5.819567448718e-02  -3.384263688265e-03   1.641872267342e-02
H        -0.8301013315      -0.4902006619      -0.1256244419  -9.338662076568e-03  -1.850439408742e-03  -9.675333505064e-03
4
Properties=species:S:1:pos:R:3:forces:R:3 energy=-7.660632661270e+01 dipole="-3.3615170007e-02 1.2079024355e-01 -6.7846567809e-01" quadrupole="-1.8254286903e+00 3.0149938380e-01 -3.2091466275e-03 3.0149938380e-01 -2.2472221005e+00 -1.6757176993e-01 -3.2091466275e-03 -1.6757176993e-01 -4.4930965381e+00" polarizability="6.7972785072e+00 2.8978249533e-01 5.3263102490e-02 2.8978249533e-01 6.8288327077e+00 -1.8648287246e-01 5.3263102490e-02 -1.8648287246e-01 5.6451441378e+00" charge=1 multiplicity=1 method=wB97M-V basis=def2-svpd config_type=h3o+ sample_index=413 temperature=300.0 units=atomic
O         0.0000542977      -0.0093552886       0.0699724888  -6.267903532748e-02   6.358319217343e-02   1.163282666370e-02
H         0.0488358038       0.9296821266      -0.2740001882  -1.156497887316e-02  -7.204432070631e-03   1.225238114768e-02
H         0.7939039376      -0.3433772763      -0.2315607432   6.489291614958e-02  -5.109791189489e-02  -2.391488222855e-02
H        -0.8436053745      -0.4285215301      -0.2318014173   9.354653662420e-03  -5.284715912522e-03   3.009962681932e-05
4
Properties=species:S:1:pos:R:3:forces:R:3 energy=-7.658922233914e+01 dipole="-4.6335252146e-02 8.5301643182e-02 -4.8792303004e-01" quadrupole="-1.7513155627e+00 4.7548249896e-01 7.2527474967e-04 4.7548249896e-01 -9.3565344853e-01 -4.3420188164e-02 7.2527474967e-04 -4.3420188164e-02 -4.9790490350e+00" polarizability="8.2527866917e+00 5.8164613604e-01 6.1523405865e-02 5.8164613604e-01 9.3220399585e+00 -1.0330478596e-01 6.1523405865e-02 -1.0330478596e-01 6.2469718833e+00" charge=1 multiplicity=1 method=wB97M-V basis=def2-svpd config_type=h3o+ sample_index=414 temperature=300.0 units=atomic
O         0.0000711021      -0.0018726805       0.0559092802  -3.999074737316e-02   3.697441994777e-02  -2.483917498360e-02
H         0.0638526312       1.1153124146      -0.1771999725  -1.180053144380e-02  -8.575111126954e-02   1.392778074209e-02
H         0.8286584169      -0.4832316717      -0.1671511308  -3.345286552948e-03   2.792100688963e-03   2.563343853434e-05
H        -0.8936378848      -0.5945581276      -0.1674651800   5.513886548708e-02   4.598437057742e-02   1.088803099159e-02
4
Properties=species:S:1:pos:R:3:forces:R:3 energy=-7.659967342991e+01 dipole="9.7085029343e-02 1.6313913815e-01 -6.9883109108e-01" quadrupole="-1.9916217632e+00 4.0631660347e-01 -1.5350219837e-01 4.0631660347e-01 -1.4976762790e+00 -1.6977658157e-01 -1.5350219837e-01 -1.6977658157e-01 -4.6329643090e+00" polarizability="7.4850566383e+00 2.7918574526e-01 -1.3536268556e-01 2.7918574526e-01 8.4657352580e+00 -2.9082594259e-01 -1.3536268556e-01 -2.9082594259e-01 6.1442825428e+00" charge=1 multiplicity=1 method=wB97M-V basis=def2-svpd config_type=h3o+ sample_index=415 temperature=300.0 units=atomic
O        -0.0082014076      -0.0079539302       0.0712424681   3.062845192399e-02   7.345654181005e-02  -2.841420343106e-02
H         0.1013238878       1.0606307960      -0.2767108828  -2.186002913115e-02  -7.360305561750e-02   2.515058817486e-02
H         0.8329475127      -0.4127514645      -0.2609132398  -8.854992815465e-03  -7.116874755501e-03   6.332559956747e-03
H        -0.8030316165      -0.5126094661      -0.2199329275   8.599189786196e-05   7.261924186845e-03  -3.072182021333e-03
4
Properties=species:S:1:pos:R:3:forces:R:3 energy=-7.659058538613e+01 dipole="2.8215455893e-02 2.2399925452e-01 -4.2371218750e-01" quadrupole="-2.0630851358e+00 -3.3174660932e-01 9.5170752113e-03 -3.3174660932e-01 -1.4153265459e+00 -1.8286130544e-01 9.5170752113e-03 -1.8286130544e-01 -4.7883990726e+00" polarizability="6.4531567408e+00 -3.3969124415e-01 -3.2856521362e-02 -3.3969124415e-01 7.6089402388e+00 -2.5217310453e-01 -3.2856521362e-02 -2.5217310453e-01 5.5763565911e+00" charge=1 multiplicity=1 method=wB97M-V basis=def2-svpd config_type=h3o+ sample_index=416 temperature=300.0 units=atomic
O        -0.0000040629      -0.0114817920       0.0511845192   9.680209870458e-02   1.559416627518e-01   2.360206555908e-02
H        -0.0512542724       1.0640689933      -0.1796753255   1.097557158598e-02  -7.084363023712e-02   1.509574067348e-02
H         0.8121656606      -0.4808284587      -0.1282940838   1.966941430960e-02  -1.100321088291e-02  -7.537136981677e-03
H        -0.7608500810      -0.3919565334      -0.1283053087  -1.274464143603e-01  -7.408768306271e-02  -3.115904647938e-02
4
Properties=species:S:1:pos:R:3:forces:R:3 energy=-7.660851093946e+01 dipole="2.5667929812e-03 1.4418192847e-01 -3.4319573541e-01" quadrupole="-1.4636571552e+00 2.0582228747e-01 -2.7860032225e-02 2.0582228747e-01 -2.1273048509e+00 -1.5981733326e-01 -2.7860032225e-02 -1.5981733326e-01 -4.8265245497e+00" polarizability="6.8765079939e+00 1.5207178902e-01 -9.2687523792e-03 1.5207178902e-01 6.7634882602e+00 -1.2705835401e-01 -9.2687523792e-03 -1.2705835401e-01 5.4907896862e+00" charge=1 multiplicity=1 method=wB97M-V basis=def2-svpd config_type=h3o+ sample_index=417 temperature=300.0 units=atomic
O        -0.0016930708      -0.0116278125       0.0459085355  -1.851472611747e-02   6.350547850171e-02   1.066387305208e-02
H         0.0400701811       0.9589120566      -0.1519117981  -8.995631415585e-03  -7.785629240527e-03   4.384179524665e-03
H         0.8571366467      -0.3557582659      -0.1042232725   3.226234220801e-02  -3.821235087485e-02  -9.058119991679e-03
H        -0.8701065938      -0.4095688490      -0.0957496452  -4.751848613995e-03  -1.750402848172e-02  -5.993678023906e-03
4
Properties=species:S:1:pos:R:3:forces:R:3 energy=-7.659281805368e+01 dipole="-2.2068122446e-01 7.8255372665e-02 -4.0529620421e-01" quadrupole="-1.9175344697e+00 1.1776215351e-01 1.8738721741e-01 1.1776215351e-01 -1.3854291711e+00 -3.3804457484e-02 1.8738721741e-01 -3.3804457484e-02 -4.8560627593e+00" polarizability="7.0713673406e+00 4.1308386286e-01 2.1841672293e-01 4.1308386286e-01 7.6539841257e+00 -5.6728799733e-02 2.1841672293e-01 -5.6728799733e-02 5.7064712210e+00" charge=1 multiplicity=1 method=wB97M-V basis=def2-svpd config_type=h3o+ sample_index=418 temperature=300.0 units=atomic
O         0.0132011346      -0.0020035705       0.0499397898  -1.819065003865e-01   9.458568735788e-02   8.585306301107e-03
H        -0.0504525806       1.0314776904      -0.1457039829   1.230267443595e-02  -5.267777294137e-02   7.454615226612e-03
H         0.7296424399      -0.4787140095      -0.1023339677   1.214044123329e-01  -6.852903207001e-02  -2.803723582486e-02
H        -0.8904221599      -0.5132095352      -0.1682261899   4.819495918665e-02   2.662052473826e-02   1.200317391751e-02
4
Properties=species:S:1:pos:R:3:forces:R:3 energy=-7.659600969627e+01 dipole="-9.8006950738e-02 1.0159197998e-01 -5.2650989163e-01" quadrupole="-2.0092392720e+00 2.9655673217e-01 7.0590158263e-02 2.9655673217e-01 -1.0842054402e+00 -4.9686785311e-02 7.0590158263e-02 -4.9686785311e-02 -4.8525637905e+00" polarizability="7.5168472241e+00 4.5811339235e-01 1.3393725723e-01 4.5811339235e-01 8.6334143641e+00 -1.2108167393e-01 1.3393725723e-01 -1.2108167393e-01 6.0222972431e+00" charge=1 multiplicity=1 method=wB97M-V basis=def2-svpd config_type=h3o+ sample_index=419 temperature=300.0 units=atomic
O         0.0045519685      -0.0022994423       0.0585953355  -8.401939031632e-02   6.356162145801e-02  -1.306185484133e-02
H         0.0191009345       1.0876158792      -0.1928036578  -2.646094610671e-03  -7.851104516010e-02   1.444039100333e-02
H         0.7705279650      -0.4840109617      -0.1696827005   4.499484460011e-02  -2.061321060632e-02  -1.314839653068e-02
H        -0.8624604773      -0.5591638406      -0.1923806324   4.167321823626e-02   3.556248195337e-02   1.176953684993e-02
4
Properties=species:S:1:pos:R:3:forces:R:3 energy=-7.661135082629e+01 dipole="6.6188717566e-03 -5.4238874370e-02 -3.5731605518e-01" quadrupole="-2.1078654545e+00 -1.2345994126e-01 4.4992631619e-03 -1.2345994126e-01 -1.2584660358e+00 9.7207414680e-02 4.4992631619e-03 9.7207414680e-02 -4.8870880644e+00" polarizability="6.9768158259e+00 -1.2088688785e-01 -1.0650409955e-02 -1.2088688785e-01 7.5120602915e+00 6.1017066736e-02 -1.0650409955e-02 6.1017066736e-02 5.6530674716e+00" charge=1 multiplicity=1 method=wB97M-V basis=def2-svpd config_type=h3o+ sample_index=420 temperature=300.0 units=atomic
O         0.0003870191       0.0070125356       0.0469070962   1.505492317131e-02  -7.294769563932e-03   2.550873572853e-04
H        -0.0201682821       1.0006160944      -0.1035157476   3.247366749794e-03  -2.293703473177e-02  -1.303939011990e-03
H         0.7970892711      -0.5684077351      -0.1310728599  -2.998844524229e-03   2.309118936639e-02   2.279997791193e-03
H        -0.7831119744      -0.5370266644      -0.1330157856  -1.530331006281e-02   7.136057651646e-03  -1.219540323002e-03
4
Properties=species:S:1:pos:R:3:forces:R:3 energy=-7.659265578457e+01 dipole="-6.3102923440e-03 1.0530476048e-02 -4.9085256007e-01" quadrupole="-2.2212862496e+00 5.6689896684e-01 -5.2432073814e-02 5.6689896684e-01 -1.7406572570e+00 1.0637366034e-02 -5.2432073814e-02 1.0637366034e-02 -4.6296860958e+00" polarizability="6.1230330344e+00 4.7976612113e-01 4.5237558077e-02 4.7976612113e-01 6.5818133295e+00 -3.7237355759e-02 4.5237558077e-02 -3.7237355759e-02 5.3195359206e+00" charge=1 multiplicity=1 method=wB97M-V basis=def2-svpd config_type=h3o+ sample_index=421 temperature=300.0 units=atomic
O        -0.0032013407       0.0010708173       0.0562158535  -1.216743786194e-01   6.574621095846e-02   5.007474492463e-02
H         0.1095560577       0.9376527365      -0.1704261510  -1.945726617783e-02   1.394632555748e-02  -3.255527600964e-03
H         0.7172067591      -0.3933880569      -0.1812297451   1.541857665000e-01  -9.038356022942e-02  -4.361425992120e-02
H        -0.7755238561      -0.5537001579      -0.1651894478  -1.305698368735e-02   1.068858586404e-02  -3.205625017947e-03
4
Properties=species:S:1:pos:R:3:forces:R:3 energy=-7.659071419410e+01 dipole="1.5841430102e-01 -1.3355398954e-01 -8.2018869009e-01" quadrupole="-2.0669136832e+00 8.0048853157e-02 -2.2285266956e-01 8.0048853157e-02 -1.3809976454e+00 2.1917726978e-01 -2.2285266956e-01 2.1917726978e-01 -4.5358193408e+00" polarizability="8.5611292529e+00 -2.2488656831e-01 -3.3275018997e-01 -2.2488656831e-01 8.7960958694e+00 2.7730688247e-01 -3.3275018997e-01 2.7730688247e-01 6.5946320139e+00" charge=1 multiplicity=1 method=wB97M-V basis=def2-svpd config_type=h3o+ sample_index=422 temperature=300.0 units=atomic
O        -0.0111843452       0.0111756579       0.0805080294   5.274092858139e-02  -4.221251926080e-02  -6.194655815883e-02
H         0.0733212666       0.9925130621      -0.2711087637  -1.356546633651e-02  -4.300540686777e-02   1.107335759307e-02
H         0.8759032835      -0.5697156000      -0.3452835381  -5.659502206825e-02   4.698902821059e-02   3.651372062209e-02
H        -0.7702615684      -0.5934856566      -0.2894398299   1.742002714768e-02   3.823016792299e-02   1.436444175208e-02
4
Properties=species:S:1:pos:R:3:forces:R:3 energy=-7.660784939057e+01 dipole="-8.8176806437e-02 7.4187346047e-02 -4.8933239102e-01" quadrupole="-1.5083743807e+00 -5.4983258450e-01 1.5295556938e-01 -5.4983258450e-01 -1.9527324662e+00 -1.0399363949e-01 1.5295556938e-01 -1.0399363949e-01 -4.8025892426e+00" polarizability="7.4708418291e+00 -3.4771226568e-01 1.1148803531e-01 -3.4771226568e-01 7.3269526287e+00 -9.9469883966e-02 1.1148803531e-01 -9.9469883966e-02 5.7707923191e+00" charge=1 multiplicity=1 method=wB97M-V basis=def2-svpd config_type=h3o+ sample_index=423 temperature=300.0 units=atomic
O         0.0092884427      -0.0058946248       0.0561413044  -2.153777507973e-02   3.218777955839e-02  -6.797827110778e-03
H        -0.1294569888       0.9700085509      -0.1900752656   2.729481378099e-02  -2.180194369758e-02   7.759132150604e-03
H         0.8569215284      -0.5032766660      -0.1396160781  -1.693600765550e-02   1.086347699271e-02  -3.396424219379e-03
H        -0.8761025182      -0.3646993080      -0.1860372148   1.118555650515e-02  -2.125052464998e-02   2.436134844540e-03
4
Properties=species:S:1:pos:R:3:forces:R:3 energy=-7.660534536331e+01 dipole="-9.1210970724e-02 2.7135483598e-02 -7.7257670871e-01" quadrupole="-1.9704297052e+00 3.2351309829e-01 7.5044941021e-02 3.2351309829e-01 -1.8551584081e+00 -2.7940636306e-02 7.5044941021e-02 -2.7940636306e-02 -4.4786972846e+00" polarizability="7.5297716705e+00 4.5353005465e-01 1.8165827965e-01 4.5353005465e-01 7.7487881926e+00 -5.5643396775e-02 1.8165827965e-01 -5.5643396775e-02 6.0880734196e+00" charge=1 multiplicity=1 method=wB97M-V basis=def2-svpd config_type=h3o+ sample_index=424 temperature=300.0 units=atomic
O         0.0038302682      -0.0011402641       0.0770370555  -7.178027161438e-02   2.797826553217e-02  -2.872838556574e-02
H         0.0297062189       0.9711422351      -0.2880671838  -6.202318762518e-03  -3.580278186753e-02   1.709819761374e-02
H         0.7713198805      -0.4289351349      -0.2716170513   3.296400169898e-02  -2.178807338545e-02  -9.885204157469e-03
H        -0.8623146172      -0.5158030380      -0.2907090262   4.501633713101e-02   2.961420542601e-02   2.151872765054e-02
4
Properties=species:S:1:pos:R:3:forces:R:3 energy=-7.660672965178e+01 dipole="1.0934718316e-01 1.0197957684e-01 -4.2574337354e-01" quadrupole="-1.4156461516e+00 4.7144907496e-01 -1.5666213888e-01 4.7144907496e-01 -1.8743438457e+00 -1.2465111706e-01 -1.5666213888e-01 -1.2465111706e-01 -4.8813894742e+00" polarizability="7.6188037900e+00 2.6339216518e-01 -1.2497692460e-01 2.6339216518e-01 7.5257870071e+00 -1.1881248008e-01 -1.2497692460e-01 -1.1881248008e-01 5.8087369970e+00" charge=1 multiplicity=1 method=wB97M-V basis=def2-svpd config_type=h3o+ sample_index=425 temperature=300.0 units=atomic
O        -0.0098399378      -0.0075811598       0.0516298450   4.034141811872e-02   4.460797398374e-02  -8.892045882831e-03
H         0.1188035047       0.9949475485      -0.1708132694  -2.581019026961e-02  -3.635304276330e-02   9.354099803736e-03
H         0.9004153373      -0.3755117481      -0.1609053585  -2.655148953254e-02  -1.377062573790e-02   4.438444555182e-03
H        -0.8617529694      -0.4905299399      -0.1117374890   1.201531412497e-02   5.514420279950e-03  -4.902323215300e-03
4
Properties=species:S:1:pos:R:3:forces:R:3 energy=-7.658584370127e+01 dipole="-9.9206916421e-02 -2.1327287332e-01 -5.4076505054e-01" quadrupole="-1.5635330443e+00 1.0238241857e+00 -4.7775481876e-03 1.0238241857e+00 -1.5284206826e+00 1.9590460901e-01 -4.7775481876e-03 1.9590460901e-01 -4.8172893707e+00" polarizability="8.1584323879e+00 1.0431938173e+00 1.3746455019e-01 1.0431938173e+00 7.8468462708e+00 2.1920830649e-01 1.3746455019e-01 2.1920830649e-01 5.9947341066e+00" charge=1 multiplicity=1 method=wB97M-V basis=def2-svpd config_type=h3o+ sample_index=426 temperature=300.0 units=atomic
O        -0.0019150077       0.0117921206       0.0594949255  -6.572075036122e-02  -7.163982539021e-02  -4.484496122033e-03
H         0.1541012676       0.9338715662      -0.1570261135  -2.101641480159e-02   2.458500002497e-02  -8.380075423810e-03
H         0.7973037530      -0.4327305906      -0.2109525330   2.178339157725e-02  -2.021283142389e-02  -3.001075987957e-03
H        -0.9207425927      -0.6821307508      -0.2013016119   6.494902888627e-02   6.726924674452e-02   1.586411922440e-02
4
Properties=species:S:1:pos:R:3:forces:R:3 energy=-7.658860149801e+01 dipole="-3.3666910435e-02 4.7303604765e-02 -6.7343275458e-01" quadrupole="-1.1983430101e+00 -1.0030618297e+00 1.7364314752e-01 -1.0030618297e+00 -2.0981523890e+00 -1.2455180473e-01 1.7364314752e-01 -1.2455180473e-01 -4.7083235036e+00" polarizability="8.5682273347e+00 -8.5654379777e-01 9.6274551188e-02 -8.5654379777e-01 7.9890159355e+00 -1.1946519895e-01 9.6274551188e-02 -1.1946519895e-01 6.2395801322e+00" charge=1 multiplicity=1 method=wB97M-V basis=def2-svpd config_type=h3o+ sample_index=427 temperature=300.0 units=atomic
O         0.0093395913      -0.0062977472       0.0694856789   2.787491617521e-03   1.980677375811e-02  -3.366999743011e-02
H        -0.1935406488       0.9608791949      -0.2625575475   4.154692537267e-02  -2.740332114015e-02   1.634176665749e-02
H         0.9340163052      -0.5506289464      -0.2101224769  -6.421772326612e-02   3.867719418267e-02   9.084618750062e-03
H        -0.8899440093      -0.3014540047      -0.2568396948   1.988105778392e-02  -3.108047286111e-02   8.242196723416e-03
4
Properties=species:S:1:pos:R:3:forces:R:3 energy=-7.658770469433e+01 dipole="1.8642765362e-02 -1.5497828443e-01 -4.9359718000e-01" quadrupole="-2.1577278004e+00 -1.1199089412e-01 -6.3703186763e-03 -1.1199089412e-01 -2.0229133469e+00 1.5343884032e-01 -6.3703186763e-03 1.5343884032e-01 -4.5613049353e+00" polarizability="6.1159469247e+00 -1.0508591991e-01 -2.8517532776e-02 -1.0508591991e-01 5.8669323184e+00 1.6252323957e-01 -2.8517532776e-02 1.6252323957e-01 5.1707314013e+00" charge=1 multiplicity=1 method=wB97M-V basis=def2-svpd config_type=h3o+ sample_index=428 temperature=300.0 units=atomic
O        -0.0003511699       0.0109265166       0.0563503781   3.326720660388e-02  -1.726672912528e-01   6.554054344834e-02
H        -0.0165777138       0.8309908181      -0.1427633086   3.544157882444e-05   1.992550441128e-01  -4.997260599208e-02
H         0.7642954716      -0.5150404333      -0.1889868528   2.619172020047e-02  -5.634488859705e-04  -2.855722515855e-03
H        -0.7421006199      -0.4830640211      -0.1872456010  -5.949688896079e-02  -2.602889129393e-02  -1.271788985589e-02
4
Properties=species:S:1:pos:R:3:forces:R:3 energy=-7.658889673626e+01 dipole="-9.1056487140e-02 -2.7806469781e-02 -8.0918407959e-01" quadrupole="-2.0375547144e+00 3.6089744510e-01 6.4796521778e-02 3.6089744510e-01 -2.5545239412e+00 2.2983396740e-03 6.4796521778e-02 2.2983396740e-03 -4.1943146524e+00" polarizability="6.5417787528e+00 3.9955587818e-01 1.8930276841e-01 3.9955587818e-01 6.0517400197e+00 7.4777607528e-02 1.8930276841e-01 7.4777607528e-02 5.5036237775e+00" charge=1 multiplicity=1 method=wB97M-V basis=def2-svpd config_type=h3o+ sample_index=429 temperature=300.0 units=atomic
O         0.0033323789       0.0004633521       0.0801505283  -1.177887603347e-01  -5.295732603565e-02   5.651512768998e-02
H         0.0454675469       0.8086651382      -0.3001402657  -9.276492368102e-03   1.150462173678e-01  -3.345205191569e-02
H         0.7281528377      -0.3490680366      -0.2918331834   1.044111139314e-01  -7.123960452444e-02  -3.977297773056e-02
H        -0.8269423478      -0.4586546250      -0.3084317115   2.265227718514e-02   9.156495354109e-03   1.671254375393e-02
4
Properties=species:S:1:pos:R:3:forces:R:3 energy=-7.661032574837e+01 dipole="-1.7096102325e-02 1.2286581821e-01 -6.2825409267e-01" quadrupole="-1.7330061209e+00 -3.9142886674e-03 1.8515539444e-02 -3.9142886674e-03 -2.2868700224e+00 -1.6868333992e-01 1.8515539444e-02 -1.6868333992e-01 -4.5520493789e+00" polarizability="6.8064727995e+00 1.6503520867e-02 2.3193599947e-02 1.6503520867e-02 6.7061534691e+00 -1.6490164036e-01 2.3193599947e-02 -1.6490164036e-01 5.5876217424e+00" charge=1 multiplicity=1 method=wB97M-V basis=def2-svpd config_type=h3o+ sample_index=430 temperature=300.0 units=atomic
O         0.0010694449      -0.0097644885       0.0662625450  -1.386387424579e-02   5.443930119824e-02   1.120592306142e-02
H        -0.0059485957       0.9249392080      -0.2553490669   1.197045798683e-03   3.234877833949e-04   8.373844869353e-03
H         0.8255889985      -0.3805591772      -0.2086280972   2.705549458848e-02  -2.975635643399e-02  -1.211193036776e-02
H        -0.8367551600      -0.3801277175      -0.2139674441  -1.438897750765e-02  -2.500886740315e-02  -7.466047754624e-03
4
Properties=species:S:1:pos:R:3:forces:R:3 energy=-7.660525623966e+01 dipole="8.2403713612e-02 1.3889576378e-01 -2.6601012567e-01" quadrupole="-1.0099207065e+00 -5.0196618231e-02 -5.8197494559e-02 -5.0196618231e-02 -2.0941338740e+00 -1.5989389390e-01 -5.8197494559e-02 -1.5989389390e-01 -4.9858022683e+00" polarizability="7.8711021302e+00 -1.2193705963e-01 -5.5180948231e-02 -1.2193705963e-01 7.3388338412e+00 -1.1350590388e-01 -5.5180948231e-02 -1.1350590388e-01 5.7663288015e+00" charge=1 multiplicity=1 method=wB97M-V basis=def2-svpd config_type=h3o+ sample_index=431 temperature=300.0 units=atomic
O        -0.0041850244      -0.0124105520       0.0406554302   4.710606722680e-02   4.486818879846e-02  -5.145737462831e-03
H         0.0140093901       0.9878631806      -0.1260693548  -3.037950180969e-03  -2.783113374474e-02   6.067387280643e-03
H         0.9565667389      -0.3981362866      -0.0812756270  -5.121835162091e-02  -4.047173211877e-04   2.738067858990e-03
H        -0.9036036701      -0.3837595450      -0.0603850357   7.149072470638e-03  -1.663094536423e-02  -3.655064802759e-03
4
Properties=species:S:1:pos:R:3:forces:R:3 energy=-7.660631749585e+01 dipole="-8.2169384082e-02 -1.7343069024e-02 -4.9827354017e-01" quadrupole="-1.5604365833e+00 3.5976469017e-01 3.5718043842e-02 3.5976469017e-01 -2.1388625371e+00 -1.5693677830e-02 3.5718043842e-02 -1.5693677830e-02 -4.7135545645e+00" polarizability="7.1271523998e+00 3.7448584866e-01 9.2063393492e-02 3.7448584866e-01 6.6245310560e+00 2.5754656446e-02 9.2063393492e-02 2.5754656446e-02 5.5506869945e+00" charge=1 multiplicity=1 method=wB97M-V basis=def2-svpd config_type=h3o+ sample_index=432 temperature=300.0 units=atomic
O         0.0021737826      -0.0007165175       0.0567177465  -7.997512878501e-02  -3.310766181245e-02   1.637718676179e-02
H         0.0435023585       0.9020758926      -0.1782516120  -7.523472364093e-03   5.079764662847e-02  -1.069898978115e-02
H         0.8127367483      -0.3936928804      -0.1679494574   4.494642038345e-02  -3.705500484189e-02  -1.348960281932e-02
H        -0.8910147411      -0.4891708931      -0.1787667408   4.255083352585e-02   1.937222107585e-02   7.808735497366e-03
4
Properties=species:S:1:pos:R:3:forces:R:3 energy=-7.660144552756e+01 dipole="3.4392018723e-02 -4.2996962884e-03 -6.0478570004e-01" quadrupole="-1.6678309328e+00 8.2203670008e-01 -1.3465003072e-01 8.2203670008e-01 -1.8185222776e+00 -2.0139439787e-02 -1.3465003072e-01 -2.0139439787e-02 -4.7132827972e+00" polarizability="7.6615535109e+00 6.8283876082e-01 -4.4769792135e-02 6.8283876082e-01 7.6335810550e+00 -3.2587053064e-02 -4.4769792135e-02 -3.2587053064e-02 5.9293731791e+00" charge=1 multiplicity=1 method=wB97M-V basis=def2-svpd config_type=h3o+ sample_index=433 temperature=300.0 units=atomic
O        -0.0079610198      -0.0004308718       0.0644734786  -2.277418954057e-02   8.312932897202e-03  -1.449953032743e-02
H         0.1639114263       0.9625444091      -0.2188661930  -3.242836964428e-02  -1.938473525954e-02   7.983275442837e-03
H         0.8291948474      -0.3686112049      -0.2350486102   1.196060807172e-02  -2.822052251997e-02  -8.303738950965e-04
H        -0.8657029612      -0.5791667472      -0.1952277593   4.323601323613e-02   3.928543047317e-02   7.345944556806e-03
4
Properties=species:S:1:pos:R:3:forces:R:3 energy=-7.660474931369e+01 dipole="6.0580938733e-05 -1.9843655414e-01 -4.0054992560e-01" quadrupole="-1.8184124298e+00 2.2371386188e-01 -2.2180758042e-02 2.2371386188e-01 -1.4514751002e+00 1.9724426643e-01 -2.2180758042e-02 1.9724426643e-01 -4.8896501285e+00" polarizability="7.6013158872e+00 1.8155479406e-01 4.4656850548e-04 1.8155479406e-01 7.4255665926e+00 1.9324860984e-01 4.4656850548e-04 1.9324860984e-01 5.7728985599e+00" charge=1 multiplicity=1 method=wB97M-V basis=def2-svpd config_type=h3o+ sample_index=434 temperature=300.0 units=atomic
O        -0.0018607791       0.0135532050       0.0497833364  -8.480901780122e-03  -1.140884181010e-01  -4.743478316287e-03
H         0.0421050586       0.9397282832      -0.1000438443  -4.700438931961e-03   4.083256420742e-02  -1.210775193872e-02
H         0.8267319133      -0.5466733976      -0.1614711598  -2.111674818317e-02   2.754061182169e-02   7.734277141102e-03
H        -0.8390539697      -0.6024617552      -0.1521606367   3.430140517838e-02   4.570920868078e-02   9.123976632829e-03
4
Properties=species:S:1:pos:R:3:forces:R:3 energy=-7.659463492788e+01 dipole="-1.9397449107e-01 1.8325574513e-01 -6.7109382285e-01" quadrupole="-1.8249590305e+00 -3.1048692122e-02 2.1293024689e-01 -3.1048692122e-02 -1.9107577431e+00 -2.1477114703e-01 2.1293024689e-01 -2.1477114703e-01 -4.5824292757e+00" polarizability="7.1429636704e+00 2.1540905846e-01 2.7912657423e-01 2.1540905846e-01 7.6148807993e+00 -2.8702538103e-01 2.7912657423e-01 -2.8702538103e-01 5.8821222474e+00" charge=1 multiplicity=1 method=wB97M-V basis=def2-svpd config_type=h3o+ sample_index=435 temperature=300.0 units=atomic
O         0.0120089351      -0.0116312471       0.0690163022  -1.549267841200e-01   1.130051667130e-01   2.354081856383e-03
H        -0.0633194922       1.0069441744      -0.2754267072   1.455113602413e-02  -5.509225734652e-02   2.350714992057e-02
H         0.7613680886      -0.4058159131      -0.1933074576   9.960167422819e-02  -5.870446040519e-02  -3.986505685406e-02
H        -0.8902122584      -0.4069982243      -0.2532608358   4.076920408212e-02   7.938851338438e-04   1.400492546972e-02
4
Properties=species:S:1:pos:R:3:forces:R:3 energy=-7.657256620080e+01 dipole="1.9503012121e-01 -1.9695647775e-01 -5.4262541527e-01" quadrupole="-2.4880886859e+00 -1.9275156116e-01 -1.9144952518e-01 -1.9275156116e-01 -1.6321954929e+00 2.5457343582e-01 -1.9144952518e-01 2.5457343582e-01 -4.5432134082e+00" polarizability="6.1880344278e+00 -4.7463296996e-01 -2.7671828605e-01 -4.7463296996e-01 6.3459552820e+00 2.3871120889e-01 -2.7671828605e-01 2.3871120889e-01 5.3162835685e+00" charge=1 multiplicity=1 method=wB97M-V basis=def2-svpd config_type=h3o+ sample_index=436 temperature=300.0 units=atomic
O        -0.0128332988       0.0159955795       0.0596119107   1.720474537958e-01  -7.768252231675e-02   6.806155722211e-02
H         0.0410830740       0.8687880096      -0.1455822920  -1.335938996025e-03   1.281295676971e-01  -3.799677289962e-02
H         0.7839917512      -0.5821694634      -0.2448008036  -1.150181539329e-02   3.983000128658e-02   1.841352660892e-02
H        -0.6197267109      -0.5348322610      -0.1807499596  -1.592101551628e-01  -9.028344658499e-02  -4.847319551104e-02
4
Properties=species:S:1:pos:R:3:forces:R:3 energy=-7.659027281572e+01 dipole="3.5859209506e-02 -1.3611661474e-01 -9.5349462899e-01" quadrupole="-1.6967224264e+00 1.4882005701e-02 -5.5666609959e-02 1.4882005701e-02 -2.0988591665e+00 1.7054263221e-01 -5.5666609959e-02 1.7054263221e-01 -4.2772779172e+00" polarizability="9.0983323015e+00 -5.2915473048e-02 -8.9404238824e-02 -5.2915473048e-02 8.1761590668e+00 3.3012436169e-01 -8.9404238824e-02 3.3012436169e-01 6.7965609790e+00" charge=1 multiplicity=1 method=wB97M-V basis=def2-svpd config_type=h3o+ sample_index=437 temperature=300.0 units=atomic
O        -0.0024636678       0.0081425159       0.0911372960   9.707912014191e-03  -6.327763435087e-02  -8.025863803464e-02
H         0.0158814322       0.9070550234      -0.3366810946  -2.553111073820e-03  -4.321642156258e-03   8.880810374062e-03
H         0.8871614498      -0.5120538408      -0.3759287049  -5.906617796000e-02   3.396804439662e-02   3.791595768289e-02
H        -0.8636288104      -0.5168228884      -0.3636293696   5.190759676443e-02   3.362652051575e-02   3.346637440829e-02
4
Properties=species:S:1:pos:R:3:forces:R:3 energy=-7.659601215086e+01 dipole="2.9732416394e-02 -1.2354142756e-01 -4.0708282871e-01" quadrupole="-2.6299314056e+00 3.3132613672e-01 -4.9667605981e-02 3.3132613672e-01 -1.2079529081e+00 1.9565239791e-01 -4.9667605981e-02 1.9565239791e-01 -4.7224042706e+00" polarizability="6.1008182068e+00 2.5142585785e-01 5.6037991502e-03 2.5142585785e-01 6.8687542442e+00 1.1931843854e-01 5.6037991502e-03 1.1931843854e-01 5.3675710687e+00" charge=1 multiplicity=1 method=wB97M-V basis=def2-svpd config_type=h3o+ sample_index=438 temperature=300.0 units=atomic
O        -0.0040736553       0.0134160323       0.0503720346  -3.751376469372e-02  -1.035119267615e-02   2.994079342765e-02
H         0.0755263090       0.9523137925      -0.1036088431  -9.111769293918e-03   2.387346735773e-02  -1.143940120319e-02
H         0.6864154939      -0.5331204878      -0.1699112187   8.999220048084e-02  -2.983326120932e-02  -1.565598932971e-02
H        -0.6967478207      -0.6263942473      -0.1495405070  -4.336770803056e-02   1.630451962284e-02  -2.844477304588e-03
4
Properties=species:S:1:pos:R:3:forces:R:3 energy=-7.658823532850e+01 dipole="1.0839259238e-01 -4.4846590275e-02 -7.1476978496e-01" quadrupole="-2.3469860648e+00 6.1732406590e-03 -1.2869368967e-01 6.1732406590e-03 -2.2661318513e+00 5.9611337275e-02 -1.2869368967e-01 5.9611337275e-02 -4.2774450698e+00" polarizability="5.9486663134e+00 -1.4678184761e-01 -1.7695932654e-01 -1.4678184761e-01 5.8772212762e+00 7.2953639234e-02 -1.7695932654e-01 7.2953639234e-02 5.2377119107e+00" charge=1 multiplicity=1 method=wB97M-V basis=def2-svpd config_type=h3o+ sample_index=439 temperature=300.0 units=atomic
O        -0.0076059370       0.0039219864       0.0728860562   1.032129544720e-01  -2.715553375914e-02   8.216805325482e-02
H         0.0415345277       0.8317296687      -0.2513447587  -3.066410142327e-03   1.142979910327e-01  -3.557518519354e-02
H         0.7628293025      -0.4423022284      -0.2852916656   2.785692588931e-02  -1.526475399454e-02   1.593056976735e-03
H        -0.6826621008      -0.4440334615      -0.2473206738  -1.280047109685e-01  -7.187173353150e-02  -4.818123242058e-02
4
Properties=species:S:1:pos:R:3:forces:R:3 energy=-7.660908473848e+01 dipole="6.6746564437e-03 2.4350038425e-02 -6.2744785266e-01" quadrupole="-1.7372927651e+00 -5.4237766403e-02 -1.1955066266e-03 -5.4237766403e-02 -1.6561694810e+00 -2.2644979532e-02 -1.1955066266e-03 -2.2644979532e-02 -4.7324613702e+00" polarizability="7.8675642550e+00 -6.1647645677e-02 -1.0710007388e-02 -6.1647645677e-02 8.0174076152e+00 -3.6908409564e-02 -1.0710007388e-02 -3.6908409564e-02 6.0675826324e+00" charge=1 multiplicity=1 method=wB97M-V basis=def2-svpd config_type=h3o+ sample_index=440 temperature=300.0 units=atomic
O        -0.0000515386      -0.0007838733       0.0661412023   5.426038061913e-03   1.242661618793e-02  -3.091954358709e-02
H        -0.0075734525       1.0049438838      -0.2287843207   1.489904325938e-03  -4.620277361000e-02   1.272282036606e-02
H         0.8584638083      -0.4990633084      -0.2236444590  -3.304519805326e-02   1.970645333076e-02   1.002716850764e-02
H        -0.8500677768      -0.4854609353      -0.2233922664   2.612936925306e-02   1.407741251426e-02   8.166236400825e-03
4
Properties=species:S:1:pos:R:3:forces:R:3 energy=-7.660872870232e+01 dipole="1.3891067858e-02 -6.9187755008e-02 -4.2558481304e-01" quadrupole="-1.9222104947e+00 3.3212187040e-01 -4.4588854743e-02 3.3212187040e-01 -1.3007352681e+00 9.8792513411e-02 -4.4588854743e-02 9.8792513411e-02 -4.8976080065e+00" polarizability="7.4880190124e+00 2.8018310869e-01 -8.8628514674e-03 2.8018310869e-01 7.8467139477e+00 7.7062163109e-02 -8.8628514674e-03 7.7062163109e-02 5.8358389209e+00" charge=1 multiplicity=1 method=wB97M-V basis=def2-svpd config_type=h3o+ sample_index=441 temperature=300.0 units=atomic
O        -0.0032260838       0.0068345810       0.0516578475  -1.011909498701e-02  -2.136268488108e-02  -1.053322150214e-02
H         0.0647734514       1.0035564204      -0.1294147451  -1.123310031241e-02  -2.896820048686e-02   6.177159844873e-04
H         0.8157848291      -0.5114777930      -0.1652180123  -5.769414348177e-03   1.156573497800e-02   3.641089980707e-03
H        -0.8289267422      -0.5939436998      -0.1490817345   2.712838156008e-02   3.876083680918e-02   6.280069565430e-03
4
Properties=species:S:1:pos:R:3:forces:R:3 energy=-7.660746215988e+01 dipole="-2.6483762905e-02 -7.8092230279e-03 -8.9307149509e-01" quadrupole="-2.3076340755e+00 -1.9936119044e-01 5.8081240587e-02 -1.9936119044e-01 -1.8578586779e+00 3.8142389421e-02 5.8081240587e-02 3.8142389421e-02 -4.2647909908e+00" polarizability="7.4154184225e+00 -1.6098744257e-01 3.7213556846e-02 -1.6098744257e-01 7.8249299885e+00 4.9261775804e-03 3.7213556846e-02 4.9261775804e-03 6.2663534312e+00" charge=1 multiplicity=1 method=wB97M-V basis=def2-svpd config_type=h3o+ sample_index=442 temperature=300.0 units=atomic
O         0.0029442078       0.0024823839       0.0867421049  -2.411658693056e-03   5.840433703354e-03  -5.417218848428e-02
H        -0.0471479862       0.9553715374      -0.3295102787   9.452347648244e-03  -3.352000831874e-02   2.013242624872e-02
H         0.7749403702      -0.5206212183      -0.3307965709  -1.111049931281e-02   2.113837650681e-02   1.705868688510e-02
H        -0.7749163533      -0.4661004143      -0.3455172606   4.066185776247e-03   6.538284799518e-03   1.698737256673e-02
4
Properties=species:S:1:pos:R:3:forces:R:3 energy=-7.659139783851e+01 dipole="-3.5234307864e-02 1.2452901753e-01 -5.5052054676e-01" quadrupole="-2.1024461079e+00 -7.6495104540e-01 1.1347245209e-01 -7.6495104540e-01 -1.5186528168e+00 -1.1130319691e-01 1.1347245209e-01 -1.1130319691e-01 -4.6893746068e+00" polarizability="6.6657910659e+00 -6.7256933932e-01 3.4742597979e-03 -6.7256933932e-01 7.5972783334e+00 -2.0362880421e-01 3.4742597979e-03 -2.0362880421e-01 5.6695875140e+00" charge=1 multiplicity=1 method=wB97M-V basis=def2-svpd config_type=h3o+ sample_index=443 temperature=300.0 units=atomic
O         0.0064026936      -0.0058631601       0.0603565768   8.853365338218e-02   1.056651170536e-01   2.228161579799e-02
H        -0.1512489974       1.0207199655      -0.2125174828   3.227235899602e-02  -5.171870587684e-02   1.489168828315e-02
H         0.8016670513      -0.5610679741      -0.1693121414  -4.969271063416e-03   1.773049284357e-02  -2.075268011215e-03
H        -0.7528861009      -0.3580646388      -0.2013507009  -1.158288786516e-01  -7.168343594347e-02  -3.509549465038e-02
4
Properties=species:S:1:pos:R:3:forces:R:3 energy=-7.660213287143e+01 dipole="7.3753337091e-02 7.6087718284e-02 -4.8998103395e-01" quadrupole="-2.0740784239e+00 4.2879690823e-02 -7.4680584736e-02 4.2879690823e-02 -1.9755937224e+00 -6.8248642077e-02 -7.4680584736e-02 -6.8248642077e-02 -4.6146287314e+00" polarizability="6.1059776995e+00 -5.4313324000e-02 -7.7646128281e-02 -5.4313324000e-02 6.3686651978e+00 -8.6768192238e-02 -7.7646128281e-02 -8.6768192238e-02 5.2814994750e+00" charge=1 multiplicity=1 method=wB97M-V basis=def2-svpd config_type=h3o+ sample_index=444 temperature=300.0 units=atomic
O        -0.0050560292      -0.0041288375       0.0561615649   7.229141761804e-02   7.685082528168e-02   4.340395827127e-02
H         0.0327026072       0.9314178838      -0.1851224063  -6.435205009075e-03   1.445628885864e-02  -1.613060109871e-03
H         0.7949008555      -0.4238186398      -0.1780856616   4.181219207433e-02  -2.955494904886e-02  -1.081631770887e-02
H        -0.7466977942      -0.4337958404      -0.1528401812  -1.076691300888e-01  -6.174179475164e-02  -3.097784233694e-02
4
Properties=species:S:1:pos:R:3:forces:R:3 energy=-7.658496047301e+01 dipole="-1.2859264382e-01 1.5074997604e-01 -7.5899709239e-01" quadrupole="-2.2119397401e+00 4.0147314294e-01 1.0504594115e-01 4.0147314294e-01 -1.7075489534e+00 -1.5795943724e-01 1.0504594115e-01 -1.5795943724e-01 -4.4334772126e+00" polarizability="6.8046218739e+00 5.7660203327e-01 2.4630271177e-01 5.7660203327e-01 7.7531680533e+00 -2.9023340787e-01 2.4630271177e-01 -2.9023340787e-01 5.8938523066e+00" charge=1 multiplicity=1 method=wB97M-V basis=def2-svpd config_type=h3o+ sample_index=445 temperature=300.0 units=atomic
O         0.0062905523      -0.0079885748       0.0756615586  -1.760588313404e-01   1.257892820193e-01   2.218783415435e-02
H         0.0336164629       1.0146557159      -0.3004532628  -7.325408495707e-03  -5.862270621361e-02   2.632929923156e-02
H         0.7026778052      -0.3811591043      -0.2482827722   1.533163793611e-01  -8.733306302838e-02  -6.444579294912e-02
H        -0.8369487571      -0.4975301995      -0.2796468582   3.007148434402e-02   2.016711728538e-02   1.593242758282e-02
4
Properties=species:S:1:pos:R:3:forces:R:3 energy=-7.660179220859e+01 dipole="-1.6681114902e-01 1.2007554423e-01 -3.9968901647e-01" quadrupole="-1.2524245756e+00 -1.0067720940e-02 1.5050892411e-01 -1.0067720940e-02 -1.8358421393e+00 -1.3857836541e-01 1.5050892411e-01 -1.3857836541e-01 -4.9373995004e+00" polarizability="7.9433247688e+00 1.9324483127e-01 1.6201989377e-01 1.9324483127e-01 7.7725964199e+00 -1.2404689847e-01 1.6201989377e-01 -1.2404689847e-01 5.8983547614e+00" charge=1 multiplicity=1 method=wB97M-V basis=def2-svpd config_type=h3o+ sample_index=446 temperature=300.0 units=atomic
O         0.0096986812      -0.0091179131       0.0497048534  -9.219697994233e-02   5.585518707744e-02  -1.109249204541e-02
H        -0.0508157168       1.0164676512      -0.1649433942   1.163392693465e-02  -4.896821481436e-02   1.085849366801e-02
H         0.8532151346      -0.4307555678      -0.0996302410   1.684492453940e-02  -1.753780573043e-02  -9.240042135036e-03
H        -0.9575889749      -0.4322690904      -0.1480479159   6.371742572764e-02   1.065080489865e-02   9.470444253353e-03
4
Properties=species:S:1:pos:R:3:forces:R:3 energy=-7.660988744981e+01 dipole="1.2441213479e-01 5.9324592763e-03 -3.8284067650e-01" quadrupole="-1.6690858851e+00 4.2482040158e-02 -1.1703414285e-01 4.2482040158e-02 -1.9586744309e+00 -1.7845395721e-02 -1.1703414285e-01 -1.7845395721e-02 -4.7974354364e+00" polarizability="6.9104054690e+00 -1.2429332916e-01 -1.1866954475e-01 -1.2429332916e-01 6.6703687028e+00 1.6858368593e-03 -1.1866954475e-01 1.6858368593e-03 5.4840724607e+00" charge=1 multiplicity=1 method=wB97M-V basis=def2-svpd config_type=h3o+ sample_index=447 temperature=300.0 units=atomic
O        -0.0081331138      -0.0008182286       0.0486007597   8.532696853613e-02  -3.542661617359e-03   1.346284064818e-02
H         0.0494129154       0.9311223099      -0.1351537139  -8.548592239852e-03   2.807052135345e-02  -5.510617380354e-03
H         0.8771997939      -0.4499875340      -0.1501815009  -2.728139602510e-02   3.637633774190e-03   5.300331175633e-03
H        -0.7964660963      -0.4605036124      -0.1095728655  -4.949881389922e-02  -2.816818945176e-02  -1.325158619117e-02
4
Properties=species:S:1:pos:R:3:forces:R:3 energy=-7.659980409743e+01 dipole="7.5710739287e-02 2.1428635433e-01 -4.9330365580e-01" quadrupole="-1.3068422758e+00 4.0757661521e-01 -1.2289006872e-01 4.0757661521e-01 -1.9240511990e+00 -2.5582999436e-01 -1.2289006872e-01 -2.5582999436e-01 -4.8586821906e+00" polarizability="7.7938207688e+00 2.7512330903e-01 -9.9614902377e-02 2.7512330903e-01 7.9596979743e+00 -2.8416466861e-01 -9.9614902377e-02 -2.8416466861e-01 5.9635801554e+00" charge=1 multiplicity=1 method=wB97M-V basis=def2-svpd config_type=h3o+ sample_index=448 temperature=300.0 units=atomic
O        -0.0069783812      -0.0157252413       0.0563109017   2.523986878825e-02   8.557352762320e-02  -1.583201928152e-02
H         0.0933553331       1.0334406614      -0.2192962487  -2.185287607267e-02  -6.205567165897e-02   1.961000357959e-02
H         0.9090641117      -0.3383732615      -0.1670410698  -2.207952768683e-02  -2.123330939858e-02   1.179086576531e-03
H        -0.8907453753      -0.4357171087      -0.1321656939   1.869223672064e-02  -2.286644847443e-03  -4.960573234160e-03
4
Properties=species:S:1:pos:R:3:forces:R:3 energy=-7.661091147036e+01 dipole="6.3466117301e-03 -2.2808302691e-02 -4.8247788900e-01" quadrupole="-1.5156333926e+00 -4.9943277165e-02 -5.1021068505e-04 -4.9943277165e-02 -1.7411380369e+00 1.0546201470e-02 -5.1021068505e-04 1.0546201470e-02 -4.8615535284e+00" polarizability="7.8785418728e+00 -5.1898102453e-02 -6.8776607354e-03 -5.1898102453e-02 7.6074112518e+00 2.8155829584e-02 -6.8776607354e-03 2.8155829584e-02 5.8899069924e+00" charge=1 multiplicity=1 method=wB97M-V basis=def2-svpd config_type=h3o+ sample_index=449 temperature=300.0 units=atomic
O        -0.0000096616       0.0010718859       0.0556507515   4.633180068902e-03  -1.766207275004e-02  -1.573005473359e-02
H        -0.0070367973       0.9770299487      -0.1673666741   1.281568921763e-03  -1.808189334069e-02   2.545633965790e-03
H         0.8804209973      -0.4994102783      -0.1702312401  -3.786900601584e-02   2.035475190652e-02   7.176027376381e-03
H        -0.8732284392      -0.4871247026      -0.1701867627   3.195408388487e-02   1.539651317946e-02   6.010222590602e-03
4
Properties=species:S:1:pos:R:3:forces:R:3 energy=-7.660612024380e+01 dipole="4.5861628445e-03 9.6656689188e-02 -8.3429389373e-01" quadrupole="-1.9607611250e+00 -3.1577985294e-01 3.6959508032e-02 -3.1577985294e-01 -2.4374960197e+00 -1.5707033369e-01 3.6959508032e-02 -1.5707033369e-01 -4.2563611822e+00" polarizability="6.9282774999e+00 -2.7758456176e-01 -1.9626386509e-02 -2.7758456176e-01 6.8186501457e+00 -1.7456489789e-01 -1.9626386509e-02 -1.7456489789e-01 5.8380716511e+00" charge=1 multiplicity=1 method=wB97M-V basis=def2-svpd config_type=h3o+ sample_index=450 temperature=300.0 units=atomic
O         0.0017663443      -0.0078325067       0.0821477981   3.439108138710e-02   4.107797555960e-02  -8.081214588535e-03
H        -0.0619452889       0.8941545846      -0.3347007505   1.450129153059e-02   4.820772787076e-03   1.525312399788e-02
H         0.8213870601      -0.4257434137      -0.2944312296  -8.182599586504e-03  -3.806163057317e-03   4.992731930839e-03
H        -0.7877198148      -0.3346957066      -0.3032839743  -4.070456899517e-02  -4.209210684380e-02  -1.216642808396e-02
4
Properties=species:S:1:pos:R:3:forces:R:3 energy=-7.659457787351e+01 dipole="1.9777599232e-01 3.1318897034e-03 -7.4100488486e-01" quadrupole="-2.4014903239e+00 -9.0243639605e-02 -2.3019346867e-01 -9.0243639605e-02 -1.5433887203e+00 6.1676712335e-02 -2.3019346867e-01 6.1676712335e-02 -4.4630309176e+00" polarizability="6.9096712377e+00 -4.0947605437e-01 -3.5325433839e-01 -4.0947605437e-01 7.5921990727e+00 1.0364271214e-02 -3.5325433839e-01 1.0364271214e-02 5.8864113076e+00" charge=1 multiplicity=1 method=wB97M-V basis=def2-svpd config_type=h3o+ sample_index=451 temperature=300.0 units=atomic
O        -0.0129940511       0.0036932905       0.0744561929   1.498976620526e-01   6.147591825940e-02   4.794597307864e-03
H         0.0538139345       0.9815150614      -0.2603493781  -1.121746411309e-02  -3.726074873247e-02   1.102032983263e-02
H         0.8203205182      -0.5296536372      -0.3067380172  -2.980714940365e-02   3.145390483426e-02   2.589402160716e-02
H        -0.6662162261      -0.5028969410      -0.2418777262  -1.088730324220e-01  -5.566517815733e-02  -4.170650678265e-02
4
Properties=species:S:1:pos:R:3:forces:R:3 energy=-7.658127273675e+01 dipole="-2.8000920266e-02 1.6274441448e-01 -2.4604995410e-01" quadrupole="-1.8082722266e+00 1.9798046588e-01 -2.8772779963e-03 1.9798046588e-01 -2.2060531041e+00 -1.4757562609e-01 -2.8772779963e-03 -1.4757562609e-01 -4.7022215928e+00" polarizability="5.7761037353e+00 1.5941452718e-01 1.2341095548e-02 1.5941452718e-01 5.9244497362e+00 -1.0407118346e-01 1.2341095548e-02 -1.0407118346e-01 5.0706337815e+00" charge=1 multiplicity=1 method=wB97M-V basis=def2-svpd config_type=h3o+ sample_index=452 temperature=300.0 units=atomic
O         0.0002501302      -0.0124127284       0.0391911995  -9.175194880654e-02   1.150789775624e-01   4.113759270187e-02
H         0.0323001861       0.9187351966      -0.1182945074  -7.267968834327e-03   3.841390847345e-02  -3.289037569936e-03
H         0.7775121123      -0.3272043815      -0.0623956531   1.758855651031e-01  -1.003203322103e-01  -2.483693635017e-02
H        -0.8138047056      -0.3854974777      -0.0636215757  -7.686566660756e-02  -5.317396253059e-02  -1.300821048468e-02
4
Properties=species:S:1:pos:R:3:forces:R:3 energy=-7.660808483381e+01 dipole="1.2093521713e-02 1.3257441582e-02 -6.8022552823e-01" quadrupole="-2.3518145367e+00 -1.8815784216e-01 6.7475762887e-03 -1.8815784216e-01 -1.8449594335e+00 1.6689799499e-02 6.7475762887e-03 1.6689799499e-02 -4.4520506603e+00" polarizability="6.3434839870e+00 -1.8521471391e-01 -3.7129315531e-02 -1.8521471391e-01 6.7909945074e+00 -3.2036959054e-02 -3.7129315531e-02 -3.2036959054e-02 5.5297608107e+00" charge=1 multiplicity=1 method=wB97M-V basis=def2-svpd config_type=h3o+ sample_index=453 temperature=300.0 units=atomic
O         0.0003136193       0.0014048993       0.0702154629   4.010517092043e-02   4.079001279413e-02   2.316530613626e-02
H        -0.0328185547       0.9337788604      -0.2442936205   6.238305969447e-03   2.909611893345e-04   1.768268047949e-03
H         0.7546082552      -0.5011114456      -0.2476132232   2.691139468034e-02  -3.177377625422e-03  -3.503926957846e-03
H        -0.7268156872      -0.4471272266      -0.2491997422  -7.325719587236e-02  -3.789740036972e-02  -2.143436618648e-02
4
Properties=species:S:1:pos:R:3:forces:R:3 energy=-7.659845037703e+01 dipole="1.2433744491e-01 -6.1289950851e-02 -5.5649285731e-01" quadrupole="-1.9333557297e+00 -4.9874459555e-01 -7.4876207013e-02 -4.9874459555e-01 -1.8310780170e+00 6.6945019291e-02 -7.4876207013e-02 6.6945019291e-02 -4.6481976618e+00" polarizability="6.8830306848e+00 -5.8981347265e-01 -1.8277448311e-01 -5.8981347265e-01 6.8698449838e+00 6.9107250124e-02 -1.8277448311e-01 6.9107250124e-02 5.5719349421e+00" charge=1 multiplicity=1 method=wB97M-V basis=def2-svpd config_type=h3o+ sample_index=454 temperature=300.0 units=atomic
O        -0.0044895824       0.0041050726       0.0608000488   1.383113156223e-01  -4.624001550319e-03   2.573442741963e-02
H        -0.0531725869       0.9221044586      -0.1861763176   8.412854750110e-03   2.944023731847e-02  -8.156489624899e-03
H         0.8621974975      -0.5568135270      -0.2132313965  -4.283798330701e-02   3.713289257415e-02   1.408332674893e-02
H        -0.7371949978      -0.4231836519      -0.1908662264  -1.038815821777e-01  -6.194613130794e-02  -3.166677931724e-02
4
Properties=species:S:1:pos:R:3:forces:R:3 energy=-7.658637377210e+01 dipole="1.8536360792e-01 -2.3283970232e-01 -4.8573802465e-01" quadrupole="-2.1991380479e+00 -1.8319022065e-01 -1.8223446791e-01 -1.8319022065e-01 -7.7399320041e-01 3.2040995474e-01 -1.8223446791e-01 3.2040995474e-01 -4.9164003790e+00" polarizability="8.0343115656e+00 -5.5359155062e-01 -2.6982874563e-01 -5.5359155062e-01 8.6621140367e+00 3.2611815689e-01 -2.6982874563e-01 3.2611815689e-01 6.1322243583e+00" charge=1 multiplicity=1 method=wB97M-V basis=def2-svpd config_type=h3o+ sample_index=455 temperature=300.0 units=atomic
O        -0.0115981481       0.0190785718       0.0556477811   7.399602931192e-02  -7.422974737543e-02  -1.818861098973e-02
H         0.0407078102       1.0121742785      -0.1154478657  -7.891186742361e-03  -2.566564992012e-02  -5.515261390774e-03
H         0.8657334704      -0.6732671629      -0.2249566106  -5.107782288642e-02   6.906220847157e-02   2.277212162085e-02
H        -0.7208538799      -0.6366886422      -0.1670674944  -1.502504785541e-02   3.083328597142e-02   9.320916281698e-04
4
Properties=species:S:1:pos:R:3:forces:R:3 energy=-7.660380546721e+01 dipole="9.2964587474e-02 -7.3543591746e-02 -3.6566013088e-01" quadrupole="-1.1775445177e+00 -2.7384332613e-01 -5.1552650237e-02 -2.7384332613e-01 -2.0181917580e+00 2.4055391792e-02 -5.1552650237e-02 2.4055391792e-02 -4.9118134455e+00" polarizability="7.9610391342e+00 -3.2657632750e-01 -8.1235752984e-02 -3.2657632750e-01 7.0223583668e+00 7.1659218685e-02 -8.1235752984e-02 7.1659218685e-02 5.7359384688e+00" charge=1 multiplicity=1 method=wB97M-V basis=def2-svpd config_type=h3o+ sample_index=456 temperature=300.0 units=atomic
O        -0.0032299444       0.0020785519       0.0473458559   4.859120645570e-02  -7.434735614039e-02   8.070080195124e-04
H        -0.0209948578       0.9203351644      -0.1200851208   3.178126827095e-03   4.818648519054e-02  -9.309231067608e-03
H         0.9452074037      -0.5061615168      -0.1354090076  -6.413226415449e-02   2.951061326468e-02   8.996041612303e-03
H        -0.8725289317      -0.4399374795      -0.1193062989   1.236160902735e-02  -3.352671270072e-03  -4.956700042850e-04
4
Properties=species:S:1:pos:R:3:forces:R:3 energy=-7.660744779001e+01 dipole="2.9795313631e-02 -4.5765706028e-02 -6.2079641390e-01" quadrupole="-1.4987914440e+00 4.5219316727e-01 -9.2900577144e-02 4.5219316727e-01 -2.0663417445e+00 1.4537092468e-02 -9.2900577144e-02 1.4537092468e-02 -4.6847043750e+00" polarizability="7.8795882918e+00 3.2983909563e-01 -5.4711776145e-02 3.2983909563e-01 7.2428995371e+00 6.5365399963e-02 -5.4711776145e-02 6.5365399963e-02 5.9099609175e+00" charge=1 multiplicity=1 method=wB97M-V basis=def2-svpd config_type=h3o+ sample_index=457 temperature=300.0 units=atomic
O        -0.0054709715       0.0014009599       0.0656448071  -6.180675700833e-04  -4.164022709583e-02  -1.644721527551e-02
H         0.0961751294       0.9196071734      -0.2198537066  -1.682745266608e-02   1.732816227360e-02  -2.803417646063e-03
H         0.8695942130      -0.4089739464      -0.2377183543  -2.572365775816e-02  -4.672876880781e-03   1.017299741525e-02
H        -0.8782180012      -0.5251293728      -0.2103629804   4.316523383976e-02   2.898377615386e-02   9.078822496550e-03
4
Properties=species:S:1:pos:R:3:forces:R:3 energy=-7.654986773177e+01 dipole="1.5017777400e-01 -4.8278203617e-01 -3.7214459404e-01" quadrupole="-2.2379728955e+00 -5.3440970964e-01 -1.0983888557e-01 -5.3440970964e-01 -1.1288566630e+00 4.5641426013e-01 -1.0983888557e-01 4.5641426013e-01 -4.8088680435e+00" polarizability="7.1687820164e+00 -6.9521340526e-01 -1.9320725594e-01 -6.9521340526e-01 7.1597631755e+00 3.9609185655e-01 -1.9320725594e-01 3.9609185655e-01 5.6395949525e+00" charge=1 multiplicity=1 method=wB97M-V basis=def2-svpd config_type=h3o+ sample_index=458 temperature=300.0 units=atomic
O        -0.0062858557       0.0312926825       0.0471071399   8.578242993347e-02  -3.452953110472e-01   1.878515925380e-02
H        -0.0385005350       0.8511251423      -0.0346410822  -6.120631331220e-03   2.498058746107e-01  -3.544554225926e-02
H         0.8267260870      -0.7346408768      -0.1836828320  -3.728415888959e-02   8.176399225332e-02   1.833391047048e-02
H        -0.6876479462      -0.6098481201      -0.1523466530  -4.237608144351e-02   1.373021199223e-02  -1.675562743673e-03
4
Properties=species:S:1:pos:R:3:forces:R:3 energy=-7.660956376427e+01 dipole="2.9979792401e-02 9.9123633900e-02 -6.4245525562e-01" quadrupole="-1.5027035423e+00 2.0987515405e-01 -6.0561046487e-02 2.0987515405e-01 -2.0841824367e+00 -1.4642551836e-01 -6.0561046487e-02 -1.4642551836e-01 -4.6700075350e+00" polarizability="7.7472141038e+00 1.4453784433e-01 -4.8330728283e-02 1.4453784433e-01 7.5298873286e+00 -1.4737821524e-01 -4.8330728283e-02 -1.4737821524e-01 5.9679722271e+00" charge=1 multiplicity=1 method=wB97M-V basis=def2-svpd config_type=h3o+ sample_index=459 temperature=300.0 units=atomic
O        -0.0032747271      -0.0080087026       0.0672588393   7.526141962867e-03   3.685694984923e-02  -2.414243699881e-02
H         0.0480547507       0.9712451939      -0.2555908350  -1.055574871735e-02  -3.292388048343e-02   1.561481609123e-02
H         0.8792151433      -0.3910389796      -0.2273127162  -2.381327756984e-02  -8.359012813081e-03   5.465807580923e-03
H        -0.8748668923      -0.4440788291      -0.2109446465   2.684834522333e-02   4.425867309932e-03   3.065079785727e-03
4
Properties=species:S:1:pos:R:3:forces:R:3 energy=-7.661111904264e+01 dipole="2.3296656178e-02 -2.9414348145e-02 -5.6787731391e-01" quadrupole="-1.4995606292e+00 1.9091082883e-01 -4.9636238104e-02 1.9091082883e-01 -1.9814775231e+00 4.1353349241e-03 -4.9636238104e-02 4.1353349241e-03 -4.7480696479e+00" polarizability="7.8201460641e+00 1.2396582152e-01 -3.6806246673e-02 1.2396582152e-01 7.2930462123e+00 4.4605287158e-02 -3.6806246673e-02 4.4605287158e-02 5.8703229786e+00" charge=1 multiplicity=1 method=wB97M-V basis=def2-svpd config_type=h3o+ sample_index=460 temperature=300.0 units=atomic
O        -0.0029587891       0.0007005958       0.0617860657   4.907791689533e-03  -3.179641160662e-02  -1.515865854018e-02
H         0.0437163833       0.9389817961      -0.2012416547  -7.878236106527e-03   5.782750537145e-03  -8.506590723081e-04
H         0.8774709303      -0.4469660970      -0.2098288452  -3.250924193181e-02   6.823653177497e-03   9.005750053009e-03
H        -0.8738385285      -0.4954049361      -0.1950395455   3.547676199587e-02   1.919555673318e-02   7.002937932119e-03
4
Properties=species:S:1:pos:R:3:forces:R:3 energy=-7.661213868780e+01 dipole="-2.6414994710e-03 3.3834070533e-02 -4.2943856250e-01" quadrupole="-1.5698507994e+00 -3.4414898418e-01 4.3087266181e-02 -3.4414898418e-01 -1.8523984373e+00 -4.9922428875e-02 4.3087266181e-02 -4.9922428875e-02 -4.8410354273e+00" polarizability="7.3457629727e+00 -2.7779549165e-01 8.2958156075e-03 -2.7779549165e-01 7.2252520761e+00 -4.1296225128e-02 8.2958156075e-03 -4.1296225128e-02 5.6923697015e+00" charge=1 multiplicity=1 method=wB97M-V basis=def2-svpd config_type=h3o+ sample_index=461 temperature=300.0 units=atomic
O         0.0027438156      -0.0028803650       0.0519147298   1.995299057729e-02   1.401663304527e-02  -2.024815182780e-03
H        -0.0650084322       0.9694547082      -0.1587962032   1.281444718741e-02  -1.329477060321e-02   2.995626180407e-03
H         0.8703308747      -0.5015492672      -0.1377304577  -2.781994649295e-02   1.561722543343e-02   1.720180703428e-03
H        -0.8492312793      -0.4142210183      -0.1514593922  -4.946952809179e-03  -1.633507268394e-02  -2.692583923845e-03
4
Properties=species:S:1:pos:R:3:forces:R:3 energy=-7.660580446421e+01 dipole="1.7872026303e-02 -1.4211258386e-01 -4.6010490423e-01" quadrupole="-1.5459019480e+00 1.7235372580e-01 -3.9528227950e-02 1.7235372580e-01 -1.9284375978e+00 1.1311398583e-01 -3.9528227950e-02 1.1311398583e-01 -4.8002514392e+00" polarizability="7.5754174398e+00 1.0000655324e-01 -2.6336960996e-02 1.0000655324e-01 6.8656289105e+00 1.5484514659e-01 -2.6336960996e-02 1.5484514659e-01 5.6765005242e+00" charge=1 multiplicity=1 method=wB97M-V basis=def2-svpd config_type=h3o+ sample_index=462 temperature=300.0 units=atomic
O        -0.0026920739       0.0080453248       0.0539545875   6.920839658284e-04  -1.239353148585e-01   4.742447138248e-03
H         0.0400470261       0.8953180434      -0.1382243431  -4.076970225430e-03   8.173591213166e-02  -1.966986673025e-02
H         0.8638896713      -0.4859404972      -0.1779220764  -2.972309742931e-02   1.505195005468e-02   8.172413384588e-03
H        -0.8608539239      -0.5304831575      -0.1644654203   3.310710128699e-02   2.715013908524e-02   6.756498577077e-03
4
Properties=species:S:1:pos:R:3:forces:R:3 energy=-7.660690700506e+01 dipole="4.1514263435e-02 4.9805897640e-02 -7.5156144695e-01" quadrupole="-1.7984134722e+00 -4.2164615564e-01 2.9706087707e-03 -4.2164615564e-01 -2.0311500825e+00 -7.9415916547e-02 2.9706087707e-03 -7.9415916547e-02 -4.5016440772e+00" polarizability="7.5651480990e+00 -4.4835550447e-01 -8.0900230984e-02 -4.4835550447e-01 7.5493542892e+00 -9.6248664388e-02 -8.0900230984e-02 -9.6248664388e-02 6.0327036251e+00" charge=1 multiplicity=1 method=wB97M-V basis=def2-svpd config_type=h3o+ sample_index=463 temperature=300.0 units=atomic
O         0.0002081027      -0.0038953061       0.0754799167   4.773259775867e-02   2.763994354694e-02  -2.689125021896e-02
H        -0.0659757162       0.9557464074      -0.2876868208   1.426149092656e-02  -2.703394095325e-02   1.643917294025e-02
H         0.8688867525      -0.4988452169      -0.2683671683  -4.275977159321e-02   2.383600674591e-02   1.532771350979e-02
H        -0.8062537417      -0.3864181476      -0.2694477061  -1.923490657726e-02  -2.444291469132e-02  -4.874831342221e-03
4
Properties=species:S:1:pos:R:3:forces:R:3 energy=-7.658464172300e+01 dipole="-2.2275075744e-01 -2.3107407410e-01 -8.3916830141e-01" quadrupole="-1.9634119362e+00 -3.7457762862e-02 3.1650458419e-01 -3.7457762862e-02 -1.5576899276e+00 3.2917932980e-01 3.1650458419e-01 3.2917932980e-01 -4.4824058533e+00" polarizability="8.7728346522e+00 4.1816192998e-01 4.9773156458e-01 4.1816192998e-01 8.4064165267e+00 4.7471969122e-01 4.9773156458e-01 4.7471969122e-01 6.5921471924e+00" charge=1 multiplicity=1 method=wB97M-V basis=def2-svpd config_type=h3o+ sample_index=464 temperature=300.0 units=atomic
O         0.0155391114       0.0163608673       0.0816460579  -6.438839501815e-02  -8.737786259720e-02  -5.070552215356e-02
H        -0.0941823799       0.9327644662      -0.2622597716   1.387380610906e-02  -1.272555277530e-03  -3.893389028027e-03
H         0.7535185555      -0.6030412591      -0.2921094118  -1.330282192092e-02   3.877093475077e-02   1.287979016918e-02
H        -0.9079931671      -0.5833406451      -0.3696959675   6.381915322831e-02   4.988426444869e-02   4.172639840428e-02
4
Properties=species:S:1:pos:R:3:forces:R:3 energy=-7.660694916924e+01 dipole="5.0761200468e-02 -5.0355013574e-02 -3.8949102724e-01" quadrupole="-1.8126721061e+00 -5.7721830540e-02 -3.9900684151e-02 -5.7721830540e-02 -2.0281960100e+00 3.3715302498e-02 -3.9900684151e-02 3.3715302498e-02 -4.7273630029e+00" polarizability="6.5370647322e+00 -1.0680650285e-01 -4.9798009649e-02 -1.0680650285e-01 6.2426883020e+00 5.0192299482e-02 -4.9798009649e-02 5.0192299482e-02 5.3185389134e+00" charge=1 multiplicity=1 method=wB97M-V basis=def2-svpd config_type=h3o+ sample_index=465 temperature=300.0 units=atomic
O        -0.0028223555       0.0029221292       0.0490825100   4.567910516855e-02  -6.210073749755e-02   2.941745651889e-02
H         0.0061351212       0.8889820710      -0.1269632250  -5.720682133763e-04   8.992241746588e-02  -1.807650071949e-02
H         0.8306063618      -0.4718080856      -0.1448703693   4.185449167222e-04  -1.567700786765e-03  -3.533007809188e-04
H        -0.7915775771      -0.4563709335      -0.1307848830  -4.552587941771e-02  -2.625074890793e-02  -1.098500886777e-02
4
Properties=species:S:1:pos:R:3:forces:R:3 energy=-7.660356225115e+01 dipole="1.0989894996e-01 -1.2822541337e-02 -6.0567955496e-01" quadrupole="-1.4363254203e+00 -2.9675996504e-01 -7.8341133668e-02 -2.9675996504e-01 -2.3488167742e+00 -3.4759631517e-02 -7.8341133668e-02 -3.4759631517e-02 -4.6183866974e+00" polarizability="7.4417836320e+00 -3.6480879226e-01 -1.4757550143e-01 -3.6480879226e-01 6.6052819711e+00 4.3805093380e-02 -1.4757550143e-01 4.3805093380e-02 5.6679917559e+00" charge=1 multiplicity=1 method=wB97M-V basis=def2-svpd config_type=h3o+ sample_index=466 temperature=300.0 units=atomic
O        -0.0042832029      -0.0018352290       0.0644601261   7.927846494521e-02  -4.776975922170e-02   1.179195104792e-02
H        -0.0230010962       0.8777930751      -0.2228632673   5.009672934242e-03   6.274601184435e-02  -1.412389727360e-02
H         0.9165962626      -0.4599531295      -0.2237640940  -5.425361987306e-02   1.694846745491e-02   1.370124620143e-02
H        -0.8250645067      -0.3805230791      -0.2024092493  -3.003388452722e-02  -3.192237195646e-02  -1.136984011556e-02
4
Properties=species:S:1:pos:R:3:forces:R:3 energy=-7.660843526274e+01 dipole="-8.5265489719e-02 8.1131595131e-02 -4.6990695919e-01" quadrupole="-1.6477118708e+00 -2.4290908448e-01 1.0904168039e-01 -2.4290908448e-01 -1.5918260896e+00 -7.8198147705e-02 1.0904168039e-01 -7.8198147705e-02 -4.8711134039e+00" polarizability="7.6078918854e+00 -1.0323334038e-01 9.7912582775e-02 -1.0323334038e-01 7.8894225712e+00 -9.7948125518e-02 9.7912582775e-02 -9.7948125518e-02 5.8886143335e+00" charge=1 multiplicity=1 method=wB97M-V basis=def2-svpd config_type=h3o+ sample_index=467 temperature=300.0 units=atomic
O         0.0068229239      -0.0043105042       0.0547233567  -3.647150727228e-02   4.135607981528e-02  -1.429281306703e-02
H        -0.0700603105       1.0255321417      -0.1779151110   1.505352579281e-02  -5.277787467240e-02   1.091076705337e-02
H         0.8392878528      -0.5036708231      -0.1404696313  -7.729518881405e-03   7.313823700630e-03  -2.818722895322e-03
H        -0.8784067538      -0.4452658613      -0.1745528551   2.915335875237e-02   4.110576340718e-03   6.202548666489e-03
4
Properties=species:S:1:pos:R:3:forces:R:3 energy=-7.660915317005e+01 dipole="6.4157648149e-02 1.2953462953e-01 -6.2418213972e-01" quadrupole="-1.6094320372e+00 6.7954880851e-02 -7.7105325751e-02 6.7954880851e-02 -1.9724861204e+00 -1.6703206038e-01 -7.7105325751e-02 -1.6703206038e-01 -4.6824999831e+00" polarizability="7.5337325450e+00 -2.1776675898e-02 -9.0109472229e-02 -2.1776675898e-02 7.6162588253e+00 -1.9342020132e-01 -9.0109472229e-02 -1.9342020132e-01 5.9274223844e+00" charge=1 multiplicity=1 method=wB97M-V basis=def2-svpd config_type=h3o+ sample_index=468 temperature=300.0 units=atomic
O        -0.0043017384      -0.0092347026       0.0658530356   3.647391875969e-02   5.793642894449e-02  -1.913096349379e-02
H         0.0318055952       0.9929178612      -0.2516075005  -7.115142682544e-03  -4.497395429855e-02   1.807437201893e-02
H         0.8809291354      -0.4109120671      -0.2205956213  -2.838945137843e-02  -2.656187369682e-03   6.310122123865e-03
H        -0.8439003831      -0.4263021260      -0.1991139088  -9.683485283078e-04  -1.030370868306e-02  -5.251742732507e-03
4
Properties=species:S:1:pos:R:3:forces:R:3 energy=-7.661300087307e+01 dipole="1.2887243568e-02 5.7023404738e-02 -3.6550355563e-01" quadrupole="-1.8349567744e+00 8.8604822024e-02 -2.0841792423e-02 8.8604822024e-02 -1.8086583504e+00 -4.9541113518e-02 -2.0841792423e-02 -4.9541113518e-02 -4.8026177271e+00" polarizability="6.6425173200e+00 5.5072715151e-02 -1.0819126318e-02 5.5072715151e-02 6.8127494854e+00 -5.3094704054e-02 -1.0819126318e-02 -5.3094704054e-02 5.4534347708e+00" charge=1 multiplicity=1 method=wB97M-V basis=def2-svpd config_type=h3o+ sample_index=469 temperature=300.0 units=atomic
O        -0.0014421528      -0.0031247939       0.0474387240  -1.801552741397e-04   4.189203732153e-02   1.377620809647e-02
H         0.0210761755       0.9650275488      -0.1355859973  -4.149481998022e-03  -5.384369536989e-03   6.551402001145e-04
H         0.8167441031      -0.4421594472      -0.1239519037   2.884945401946e-02  -2.140169728578e-02  -7.300022991710e-03
H        -0.8147380164      -0.4653672853      -0.1167426853  -2.451869624163e-02  -1.510237933795e-02  -7.128917916370e-03
4
Properties=species:S:1:pos:R:3:forces:R:3 energy=-7.659792939882e+01 dipole="5.5762107264e-02 -1.8686017902e-01 -2.0003817029e-01" quadrupole="-1.5597449697e+00 -4.8097649048e-01 2.5881582974e-03 -4.8097649048e-01 -1.7480809027e+00 1.2352403839e-01 2.5881582974e-03 1.2352403839e-01 -4.9199211255e+00" polarizability="7.2717960944e+00 -4.1501833296e-01 -3.0186366345e-02 -4.1501833296e-01 6.7388382953e+00 1.0162347359e-01 -3.0186366345e-02 1.0162347359e-01 5.5222839375e+00" charge=1 multiplicity=1 method=wB97M-V basis=def2-svpd config_type=h3o+ sample_index=470 temperature=300.0 units=atomic
O         0.0007812626       0.0107886584       0.0360077004   5.675731916520e-02  -1.453361853474e-01   7.534587970281e-03
H        -0.0733846768       0.8964264149      -0.0343910707   4.762643103086e-03   1.097348364692e-01  -1.078578371423e-02
H         0.8819819889      -0.5909163276      -0.0773741836  -4.632787428471e-02   4.509921799112e-02   5.033208899956e-03
H        -0.8211001913      -0.4709417556      -0.0813162880  -1.518937266977e-02  -9.498014025698e-03  -1.780514997543e-03
4
Properties=species:S:1:pos:R:3:forces:R:3 energy=-7.659017632389e+01 dipole="8.0174444613e-02 1.7456363183e-01 -6.6524028355e-01" quadrupole="-2.3027767226e+00 2.2583995947e-01 -1.1064972283e-01 2.2583995947e-01 -1.9624352762e+00 -1.8065347569e-01 -1.1064972283e-01 -1.8065347569e-01 -4.4226895904e+00" polarizability="5.9641373248e+00 1.0191820461e-01 -9.4139070655e-02 1.0191820461e-01 6.7158759191e+00 -2.8268901414e-01 -9.4139070655e-02 -2.8268901414e-01 5.4080618753e+00" charge=1 multiplicity=1 method=wB97M-V basis=def2-svpd config_type=h3o+ sample_index=471 temperature=300.0 units=atomic
O        -0.0064001667      -0.0098903631       0.0688336937   4.726593801439e-02   1.530065762368e-01   5.723594057120e-02
H         0.0694404152       0.9633107105      -0.2694612134  -1.611766986894e-02  -2.937857344157e-02   1.714268248006e-02
H         0.7547347595      -0.3678881842      -0.2407922595   8.885056700630e-02  -5.648450911991e-02  -2.929097100966e-02
H        -0.7217613926      -0.4291238411      -0.2088187286  -1.199945737765e-01  -6.714257653383e-02  -4.508666942127e-02
4
Properties=species:S:1:pos:R:3:forces:R:3 energy=-7.660088877098e+01 dipole="-1.0185955156e-01 -9.8411896272e-02 -6.2092099826e-01" quadrupole="-2.4931548579e+00 -5.3549524455e-01 1.6166330378e-01 -5.3549524455e-01 -1.5853418596e+00 1.5624030019e-01 1.6166330378e-01 1.5624030019e-01 -4.5362622852e+00" polarizability="6.3839427630e+00 -3.2375796936e-01 8.4889224251e-02 -3.2375796936e-01 6.8826213711e+00 1.0869946887e-01 8.4889224251e-02 1.0869946887e-01 5.5287187654e+00" charge=1 multiplicity=1 method=wB97M-V basis=def2-svpd config_type=h3o+ sample_index=472 temperature=300.0 units=atomic
O         0.0104371816       0.0099279122       0.0657790676   3.286980500851e-03  -1.600283303128e-02   2.201775604933e-02
H        -0.1443911196       0.9209942995      -0.1960201355   2.115281516020e-02   2.465862158079e-02  -9.969165322934e-03
H         0.7023363730      -0.6129150069      -0.2108814377   3.250027498534e-02   1.624250558298e-02  -4.348239149332e-03
H        -0.7249699691      -0.4590649591      -0.2630451470  -5.693698400037e-02  -2.489693788466e-02  -7.696661456621e-03
4
Properties=species:S:1:pos:R:3:forces:R:3 energy=-7.660663252810e+01 dipole="7.6947322696e-03 1.4282194556e-01 -6.1871959943e-01" quadrupole="-1.6093139236e+00 -1.7262328868e-02 -6.0643697159e-03 -1.7262328868e-02 -1.8021791469e+00 -1.7395913317e-01 -6.0643697159e-03 -1.7395913317e-01 -4.7309001541e+00" polarizability="7.7311158543e+00 -2.6424027950e-02 -1.0539203345e-02 -2.6424027950e-02 8.0248595378e+00 -2.2157197774e-01 -1.0539203345e-02 -2.2157197774e-01 6.0394159046e+00" charge=1 multiplicity=1 method=wB97M-V basis=def2-svpd config_type=h3o+ sample_index=473 temperature=300.0 units=atomic
O        -0.0003489120      -0.0094536874       0.0654162598   5.482421128270e-03   6.108080113547e-02  -2.596312519060e-02
H        -0.0007871720       1.0257299011      -0.2498936503   1.558476348870e-04  -6.051730710537e-02   2.072679758578e-02
H         0.8713238521      -0.4355728410      -0.2080688657  -2.407558740540e-02   1.232797122216e-03   3.491893113511e-03
H        -0.8649547400      -0.4309856070      -0.2063284512   1.843645189204e-02  -1.790068744306e-03   1.745879706873e-03
4
Properties=species:S:1:pos:R:3:forces:R:3 energy=-7.658335717754e+01 dipole="-2.5053517144e-01 1.5302533953e-01 -4.3232179485e-01" quadrupole="-2.2828516576e+00 -8.5304341645e-01 2.8754114243e-01 -8.5304341645e-01 -1.1850456451e+00 -9.0896375343e-02 2.8754114243e-01 -9.0896375343e-02 -4.7899176836e+00" polarizability="6.5419397435e+00 -5.0720944399e-01 1.8340965430e-01 -5.0720944399e-01 7.7087844500e+00 -1.6960109723e-01 1.8340965430e-01 -1.6960109723e-01 5.6307520666e+00" charge=1 multiplicity=1 method=wB97M-V basis=def2-svpd config_type=h3o+ sample_index=474 temperature=300.0 units=atomic
O         0.0200340659      -0.0035728489       0.0519577329  -6.809767156698e-02   1.294539074354e-01   1.750127244584e-02
H        -0.2321626953       1.0495878924      -0.1610215470   4.781609927949e-02  -6.026266371287e-02   1.121500035947e-02
H         0.6966824334      -0.6011036163      -0.0937273798   7.414599029877e-02  -2.994550426272e-02  -1.892485130665e-02
H        -0.7851092573      -0.3837746054      -0.1938241928  -5.385855310824e-02  -3.923962828858e-02  -9.794537698263e-03
4
Properties=species:S:1:pos:R:3:forces:R:3 energy=-7.659204430666e+01 dipole="2.1615123550e-01 1.6143599655e-01 -3.3540903244e-01" quadrupole="-1.7440095055e+00 4.5379743675e-01 -2.2157521769e-01 4.5379743675e-01 -1.0858932663e+00 -1.0803354735e-01 -2.2157521769e-01 -1.0803354735e-01 -5.0153206622e+00" polarizability="7.7054347297e+00 1.4966166050e-01 -1.8837997481e-01 1.4966166050e-01 8.6510367766e+00 -1.3885170428e-01 -1.8837997481e-01 -1.3885170428e-01 5.9835381249e+00" charge=1 multiplicity=1 method=wB97M-V basis=def2-svpd config_type=h3o+ sample_index=475 temperature=300.0 units=atomic
O        -0.0156378712      -0.0059972651       0.0451973218   9.798502095476e-02   7.570345044884e-02  -1.124417435552e-02
H         0.1418743548       1.1041409154      -0.1318402129  -3.051762455120e-02  -8.123360173861e-02   1.105723006620e-02
H         0.9010299157      -0.4496891762      -0.1432716413  -4.306756025172e-02   9.225324243734e-03   8.627035615758e-03
H        -0.7926612977      -0.5511376064      -0.0651628894  -2.439457925660e-02  -3.692359701936e-03  -8.444496130938e-03
4
Properties=species:S:1:pos:R:3:forces:R:3 energy=-7.660317722689e+01 dipole="-1.1238695963e-01 5.4830099067e-03 -6.9477723143e-01" quadrupole="-1.2952625662e+00 -5.3643266308e-02 1.3975301406e-01 -5.3643266308e-02 -2.5321490324e+00 -6.7845876772e-02 1.3975301406e-01 -6.7845876772e-02 -4.5449438833e+00" polarizability="7.9018398526e+00 1.0725760128e-01 1.8670458641e-01 1.0725760128e-01 6.7099435024e+00 4.4965702980e-02 1.8670458641e-01 4.4965702980e-02 5.8629414591e+00" charge=1 multiplicity=1 method=wB97M-V basis=def2-svpd config_type=h3o+ sample_index=476 temperature=300.0 units=atomic
O         0.0072443051      -0.0034390101       0.0711104621  -5.078763134604e-02  -5.115214082510e-02  -6.184446519338e-03
H        -0.0464564761       0.8645396317      -0.2630320003   6.355146407958e-03   5.744535250296e-02  -1.189545732707e-02
H         0.8606814032      -0.4074947582      -0.2282021492  -1.128319532253e-02  -8.093898666810e-03  -6.302092552800e-04
H        -0.9301490295      -0.3938927421      -0.2643737427   5.571601554678e-02   1.799675677004e-03   1.871124773849e-02
4
Properties=species:S:1:pos:R:3:forces:R:3 energy=-7.659251176365e+01 dipole="1.9979310467e-01 -1.1406380206e-01 -9.8905231169e-01" quadrupole="-2.1999194420e+00 1.1578531044e-01 -3.1600114310e-01 1.1578531044e-01 -1.9854755950e+00 1.8570155239e-01 -3.1600114310e-01 1.8570155239e-01 -4.1293918363e+00" polarizability="8.2186812573e+00 -2.4959625650e-01 -4.9091610796e-01 -2.4959625650e-01 8.0172584643e+00 2.8094117993e-01 -4.9091610796e-01 2.8094117993e-01 6.6751967199e+00" charge=1 multiplicity=1 method=wB97M-V basis=def2-svpd config_type=h3o+ sample_index=477 temperature=300.0 units=atomic
O        -0.0144377005       0.0089706406       0.0941605418   6.976335405806e-02  -3.767276764107e-02  -7.331943055583e-02
H         0.0976431943       0.9106343428      -0.3504671098  -1.639139966321e-02  -1.289667920342e-02   1.345750158770e-02
H         0.8625365341      -0.5048844701      -0.4231291746  -5.171304841737e-02   3.159851953458e-02   4.777906234513e-02
H        -0.7291619697      -0.5407580656      -0.3510400834  -1.656764269675e-03   1.897304780939e-02   1.207912989584e-02
4
Properties=species:S:1:pos:R:3:forces:R:3 energy=-7.660822015736e+01 dipole="1.3134135670e-01 -8.9821876833e-02 -6.9332892263e-01" quadrupole="-2.2826764166e+00 3.0676802644e-01 -1.8882484715e-01 3.0676802644e-01 -1.7456001223e+00 1.3714811945e-01 -1.8882484715e-01 1.3714811945e-01 -4.5029365490e+00" polarizability="6.9066560461e+00 6.4122639875e-02 -1.9249982428e-01 6.4122639875e-02 7.0969989743e+00 1.3445252693e-01 -1.9249982428e-01 1.3445252693e-01 5.7526877320e+00" charge=1 multiplicity=1 method=wB97M-V basis=def2-svpd config_type=h3o+ sample_index=478 temperature=300.0 units=atomic
O        -0.0110672209       0.0083259778       0.0711256163   5.182226643045e-02  -3.336485025912e-02  -3.638132613367e-03
H         0.1089755386       0.9199626038      -0.2292074329  -1.719973084247e-02   1.644073995481e-02  -6.681255661979e-03
H         0.7925166651      -0.4792677876      -0.2908495021  -6.690469712986e-03   9.048595801515e-03   1.603221746444e-02
H        -0.7243968958      -0.5659158715      -0.2355673871  -2.793319997836e-02   7.877926369918e-03  -5.708829441794e-03
4
Properties=species:S:1:pos:R:3:forces:R:3 energy=-7.659302109280e+01 dipole="-2.1273463624e-01 1.2333643879e-01 -5.6085381864e-01" quadrupole="-1.2200172817e+00 -1.1495918155e-01 2.3394842487e-01 -1.1495918155e-01 -1.7991794387e+00 -1.5827330125e-01 2.3394842487e-01 -1.5827330125e-01 -4.8634601378e+00" polarizability="8.5354374214e+00 1.8261389769e-01 2.8480855710e-01 1.8261389769e-01 8.3382543334e+00 -1.6409407469e-01 2.8480855710e-01 -1.6409407469e-01 6.2043682752e+00" charge=1 multiplicity=1 method=wB97M-V basis=def2-svpd config_type=h3o+ sample_index=479 temperature=300.0 units=atomic
O         0.0131042291      -0.0089493964       0.0610204371  -9.593732976340e-02   5.444936552320e-02  -2.780045973390e-02
H        -0.0827893666       1.0332374244      -0.2249326244   1.861576843507e-02  -6.273564271336e-02   1.828704694413e-02
H         0.8541645117      -0.4523468829      -0.1517552935   1.088633049087e-03  -5.963886651080e-03  -8.474533504957e-03
H        -0.9810636401      -0.4299010699      -0.2171842823   7.623410226326e-02   1.425315051926e-02   1.798855760291e-02
4
Properties=species:S:1:pos:R:3:forces:R:3 energy=-7.659920979354e+01 dipole="1.7726441533e-03 -2.0466189424e-01 -3.3604572566e-01" quadrupole="-1.5383064053e+00 -2.6191523191e-01 2.4571615680e-02 -2.6191523191e-01 -1.3715224203e+00 1.8238597661e-01 2.4571615680e-02 1.8238597661e-01 -5.0053029272e+00" polarizability="8.2401769735e+00 -2.1743864762e-01 4.9089728885e-03 -2.1743864762e-01 7.8620742010e+00 1.8188953185e-01 4.9089728885e-03 1.8188953185e-01 5.9381532918e+00" charge=1 multiplicity=1 method=wB97M-V basis=def2-svpd config_type=h3o+ sample_index=480 temperature=300.0 units=atomic
O         0.0021241791       0.0130186703       0.0453003726   3.973682339445e-03  -1.055760070125e-01  -1.116098011836e-02
H        -0.0471502922       0.9634717457      -0.0776081306   6.073605654663e-03   1.785378957003e-02  -7.126916844991e-03
H         0.8830523122      -0.6132732589      -0.1268103461  -5.114048754794e-02   5.247810526563e-02   9.212445041668e-03
H        -0.8698914397      -0.5511730837      -0.1374364594   4.109253823697e-02   3.524369095589e-02   9.082297308725e-03
4
Properties=species:S:1:pos:R:3:forces:R:3 energy=-7.659396238002e+01 dipole="8.5234833681e-02 4.6827879949e-02 -1.7857858709e-01" quadrupole="-2.1445799745e+00 3.1786043387e-01 -8.1102652720e-02 3.1786043387e-01 -5.1182936530e-01 5.3898740863e-02 -8.1102652720e-02 5.3898740863e-02 -5.1031746912e+00" polarizability="7.5323269651e+00 1.9900124692e-01 -5.3050728181e-02 1.9900124692e-01 8.9501246189e+00 1.6260047482e-02 -5.3050728181e-02 1.6260047482e-02 5.9526972796e+00" charge=1 multiplicity=1 method=wB97M-V basis=def2-svpd config_type=h3o+ sample_index=481 temperature=300.0 units=atomic
O        -0.0071880810       0.0046097905       0.0347570767   2.276656328711e-02   2.499285848126e-02  -5.876473626535e-03
H         0.0809768109       1.1218226321      -0.0454628465  -1.545795527187e-02  -8.245775280082e-02   2.654599143944e-03
H         0.8186297104      -0.5573028149      -0.0816649183  -1.108219404877e-02   2.401705917937e-02   2.804371129055e-03
H        -0.7845721036      -0.6312547794      -0.0457507319   3.769946873619e-03   3.345097689234e-02   4.150677042103e-04
4
Properties=species:S:1:pos:R:3:forces:R:3 energy=-7.658799224988e+01 dipole="8.1262204896e-02 8.5632268470e-02 -5.7143318646e-01" quadrupole="-2.0361646255e+00 -1.6339969216e-01 -5.9615897119e-02 -1.6339969216e-01 -2.2785460435e+00 -1.0359268537e-01 -5.9615897119e-02 -1.0359268537e-01 -4.4744351011e+00" polarizability="5.9271681719e+00 -2.1174768446e-01 -1.0593724247e-01 -2.1174768446e-01 5.9820480315e+00 -1.0266586216e-01 -1.0593724247e-01 -1.0266586216e-01 5.1775102440e+00" charge=1 multiplicity=1 method=wB97M-V basis=def2-svpd config_type=h3o+ sample_index=482 temperature=300.0 units=atomic
O        -0.0040908977      -0.0063972036       0.0620322029   1.373546015244e-01   7.159489302216e-02   7.518702776997e-02
H        -0.0079209695       0.8833621739      -0.2230546425   2.570189260164e-03   5.389649822716e-02  -8.991175289882e-03
H         0.8047002930      -0.4122944331      -0.2037577025   3.081660415711e-02  -2.653928143073e-02  -9.896289125098e-03
H        -0.7313239143      -0.3607777165      -0.1833532000  -1.707454402085e-01  -9.894841442289e-02  -5.630169301979e-02
4
Properties=species:S:1:pos:R:3:forces:R:3 energy=-7.660265217553e+01 dipole="7.6065935586e-02 -9.2814700183e-02 -4.0756952297e-01" quadrupole="-1.5025779093e+00 4.3758821271e-02 -7.8567832018e-02 4.3758821271e-02 -2.1663193090e+00 5.0352449316e-02 -7.8567832018e-02 5.0352449316e-02 -4.7638336748e+00" polarizability="7.1182855370e+00 -7.2443493618e-02 -8.2642201592e-02 -7.2443493618e-02 6.3152383116e+00 1.0022256310e-01 -8.2642201592e-02 1.0022256310e-01 5.4538801138e+00" charge=1 multiplicity=1 method=wB97M-V basis=def2-svpd config_type=h3o+ sample_index=483 temperature=300.0 units=atomic
O        -0.0052535257       0.0042717438       0.0502706105   3.927324258196e-02  -1.302140142835e-01   2.316539424303e-02
H         0.0354594791       0.8660045142      -0.1294210225  -2.295644191568e-03   1.264905315460e-01  -2.596116762919e-02
H         0.8815691896      -0.4569155170      -0.1592410191  -3.158649903886e-02   7.628212521282e-03   6.642298594800e-03
H        -0.8329602932      -0.4698465336      -0.1330076678  -5.393861368535e-03  -3.905180590095e-03  -3.846953793177e-03
4
Properties=species:S:1:pos:R:3:forces:R:3 energy=-7.660943505458e+01 dipole="-5.8573501308e-02 -5.7968817221e-02 -4.7671566736e-01" quadrupole="-2.1617993316e+00 1.5452699449e-01 4.2548052184e-02 1.5452699449e-01 -1.6501280511e+00 8.7277472722e-02 4.2548052184e-02 8.7277472722e-02 -4.7008609978e+00" polarizability="6.5329781787e+00 2.1482081752e-01 7.6235653191e-02 2.1482081752e-01 6.7874084177e+00 6.3545414311e-02 7.6235653191e-02 6.3545414311e-02 5.4599339841e+00" charge=1 multiplicity=1 method=wB97M-V basis=def2-svpd config_type=h3o+ sample_index=484 temperature=300.0 units=atomic
O         0.0028658908       0.0059731948       0.0552427178  -6.395260333181e-02  -1.108247939058e-02   2.021167697746e-02
H         0.0087266427       0.9383761562      -0.1510879551  -9.626910807037e-04   2.351223151667e-02  -8.541086540674e-03
H         0.7418691503      -0.4923576776      -0.1679119147   6.425221890092e-02  -2.818321855755e-02  -1.532520532686e-02
H        -0.7964501018      -0.5339552696      -0.1822046230   6.630564906596e-04   1.574425988018e-02   3.655405631091e-03
4
Properties=species:S:1:pos:R:3:forces:R:3 energy=-7.660923160203e+01 dipole="2.4668725707e-02 -1.2552679653e-02 -8.3585104089e-02" quadrupole="-1.1936875889e+00 6.1730582264e-02 -2.3311647965e-02 6.1730582264e-02 -1.7658880323e+00 -1.4473922419e-02 -2.3311647965e-02 -1.4473922419e-02 -5.0538072373e+00" polarizability="7.9085302042e+00 1.6367798760e-02 -1.6168064797e-02 1.6367798760e-02 7.3802305241e+00 -1.0522854950e-03 -1.6168064797e-02 -1.0522854950e-03 5.7424161331e+00" charge=1 multiplicity=1 method=wB97M-V basis=def2-svpd config_type=h3o+ sample_index=485 temperature=300.0 units=atomic
O        -0.0019935778      -0.0008843162       0.0283059714   9.845074265933e-03  -2.327723555622e-02  -1.581529305038e-03
H         0.0191534998       0.9797070563      -0.0268399711  -3.538762596193e-03  -4.941056100705e-03  -2.557398915693e-04
H         0.9173290700      -0.4718724396      -0.0264462738  -4.244634524920e-02   1.347141339439e-02   1.410959336739e-03
H        -0.9045707167      -0.4866539732      -0.0164852215   3.613940302391e-02   1.475073800470e-02   4.330801760552e-04
4
Properties=species:S:1:pos:R:3:forces:R:3 energy=-7.660449141703e+01 dipole="-1.0231549764e-01 -6.1198118330e-02 -1.4510369806e-01" quadrupole="-2.2595458413e+00 -1.4252402585e-01 8.0893940128e-02 -1.4252402585e-01 -8.9717161314e-01 1.1786021725e-01 8.0893940128e-02 1.1786021725e-01 -4.9927200242e+00" polarizability="6.9137475076e+00 2.4600144395e-02 5.7969486750e-02 2.4600144395e-02 7.7778734842e+00 6.9036070672e-02 5.7969486750e-02 6.9036070672e-02 5.6500851384e+00" charge=1 multiplicity=1 method=wB97M-V basis=def2-svpd config_type=h3o+ sample_index=486 temperature=300.0 units=atomic
O         0.0077452510       0.0097650934       0.0325429228  -4.798489242589e-02   1.592110133195e-03   8.076317887706e-05
H        -0.0624727783       1.0326691639      -0.0187986481   1.133520770389e-02  -3.817510052189e-02  -1.131909438031e-03
H         0.7380556507      -0.6093197465      -0.0399771823   3.325828730086e-02   1.032841799496e-02  -1.692981714435e-03
H        -0.7995128870      -0.5725848864      -0.0786565202   3.395363147279e-03   2.625753501414e-02   2.743305454175e-03
4
Properties=species:S:1:pos:R:3:forces:R:3 energy=-7.661106905991e+01 dipole="-1.0434875538e-01 -6.1850711487e-02 -6.5774085986e-01" quadrupole="-1.9758807799e+00 -8.4208085213e-03 1.2273709181e-01 -8.4208085213e-03 -1.7686856343e+00 8.4851630780e-02 1.2273709181e-01 8.4851630780e-02 -4.6102881542e+00" polarizability="7.3763475976e+00 1.5990193431e-01 1.6776318610e-01 1.5990193431e-01 7.3647475944e+00 9.8794119436e-02 1.6776318610e-01 9.8794119436e-02 5.8688011045e+00" charge=1 multiplicity=1 method=wB97M-V basis=def2-svpd config_type=h3o+ sample_index=487 temperature=300.0 units=atomic
O         0.0069456241       0.0052055981       0.0683790356  -5.629792185020e-02  -2.611516452772e-02  -1.483858945897e-02
H        -0.0387979776       0.9438161089      -0.2235052487   6.919813564618e-03  -1.688410756057e-03  -6.693093301690e-04
H         0.7752562657      -0.5111293765      -0.2267345075   1.370674076523e-02   2.954647417870e-03  -2.842435551093e-03
H        -0.8476014676      -0.5080421350      -0.2614117540   3.566996324980e-02   2.485281914590e-02   1.834305867036e-02
4
Properties=species:S:1:pos:R:3:forces:R:3 energy=-7.660085089628e+01 dipole="5.9761985747e-02 9.1426106372e-02 -7.0111828613e-01" quadrupole="-2.1747761557e+00 -2.9176863619e-01 -3.9584869909e-02 -2.9176863619e-01 -1.3705143761e+00 -5.9546911054e-02 -3.9584869909e-02 -5.9546911054e-02 -4.6125951763e+00" polarizability="7.3322733951e+00 -3.9936994484e-01 -1.1789847801e-01 -3.9936994484e-01 8.3520252362e+00 -1.5776471874e-01 -1.1789847801e-01 -1.5776471874e-01 6.0822989303e+00" charge=1 multiplicity=1 method=wB97M-V basis=def2-svpd config_type=h3o+ sample_index=488 temperature=300.0 units=atomic
O        -0.0023268924      -0.0024299489       0.0714846550   6.327772770870e-02   5.957762144624e-02  -2.260713492651e-02
H        -0.0319475827       1.0491197511      -0.2620893667   6.056528739558e-03  -6.901209818737e-02   2.063470203433e-02
H         0.8268374244      -0.5395633785      -0.2554383510  -2.846470771778e-02   2.875033835603e-02   1.405474260637e-02
H        -0.7576646979      -0.4626979804      -0.2438503610  -4.086678922976e-02  -1.930796082078e-02  -1.208628862963e-02
4
Properties=species:S:1:pos:R:3:forces:R:3 energy=-7.661112472477e+01 dipole="5.6618307965e-02 -9.3363073078e-02 -1.0400034864e-01" quadrupole="-1.7999238592e+00 1.4003841633e-01 -5.0633361895e-02 1.4003841633e-01 -1.3608215627e+00 8.4463777433e-02 -5.0633361895e-02 8.4463777433e-02 -5.0009856037e+00" polarizability="7.2475287716e+00 3.1992901131e-02 -3.3740244934e-02 3.1992901131e-02 7.3685376631e+00 5.4184114356e-02 -3.3740244934e-02 5.4184114356e-02 5.6307735421e+00" charge=1 multiplicity=1 method=wB97M-V basis=def2-svpd config_type=h3o+ sample_index=489 temperature=300.0 units=atomic
O        -0.0047637426       0.0077806550       0.0296989640   2.176007615867e-02  -4.258671797987e-02  -7.443760413340e-04
H         0.0459220235       0.9822268203      -0.0093210336  -7.424999960036e-03   6.241712219399e-04  -1.708856934525e-03
H         0.8462922241      -0.5320663693      -0.0532200177  -1.957994000748e-02   2.065239212636e-02   2.211302635335e-03
H        -0.8159748096      -0.5676549921      -0.0294224727   5.240595494609e-03   2.130936261701e-02   2.356282728212e-04
4
Properties=species:S:1:pos:R:3:forces:R:3 energy=-7.660292434547e+01 dipole="1.4468753965e-01 9.8214613765e-02 -7.9049490257e-01" quadrupole="-2.2432280763e+00 1.5609098861e-01 -1.9438094366e-01 1.5609098861e-01 -1.7236846997e+00 -8.8857536348e-02 -1.9438094366e-01 -8.8857536348e-02 -4.4199905938e+00" polarizability="7.0853081698e+00 -6.0911391226e-02 -2.4897351912e-01 -6.0911391226e-02 7.8183443280e+00 -1.8591151904e-01 -2.4897351912e-01 -1.8591151904e-01 6.0366828200e+00" charge=1 multiplicity=1 method=wB97M-V basis=def2-svpd config_type=h3o+ sample_index=490 temperature=300.0 units=atomic
O        -0.0103096765      -0.0037031480       0.0783773640   8.708781437855e-02   6.917725574693e-02  -2.125835984668e-02
H         0.0766774125       1.0003853785      -0.3026187530  -1.651010141367e-02  -5.345261714449e-02   2.349605302991e-02
H         0.8189759431      -0.4476399878      -0.3103585300  -1.812971942021e-02   6.489447872161e-03   1.766399050447e-02
H        -0.7306853959      -0.4853063596      -0.2588762920  -5.244663754307e-02  -2.220700313474e-02  -1.989733938446e-02
4
Properties=species:S:1:pos:R:3:forces:R:3 energy=-7.660820625383e+01 dipole="-4.4543522789e-02 -1.0948894582e-01 -5.5034892177e-01" quadrupole="-1.8676569988e+00 -2.1610310387e-02 5.0859080038e-02 -2.1610310387e-02 -2.0206692524e+00 1.0273407557e-01 5.0859080038e-02 1.0273407557e-01 -4.6346406749e+00" polarizability="6.9184702935e+00 5.0237915266e-02 6.0549667728e-02 5.0237915266e-02 6.5007721782e+00 1.4031766950e-01 6.0549667728e-02 1.4031766950e-01 5.5132026680e+00" charge=1 multiplicity=1 method=wB97M-V basis=def2-svpd config_type=h3o+ sample_index=491 temperature=300.0 units=atomic
O         0.0031451395       0.0069913727       0.0604854290  -2.459071711197e-02  -1.039958081307e-01   2.012554780307e-02
H        -0.0206800790       0.8764474888      -0.1761850737   1.923456847007e-03   9.310370208558e-02  -2.563182824615e-02
H         0.7972397457      -0.4936522799      -0.1966801934   9.312137952919e-03   1.032269885399e-03  -1.563368308430e-03
H        -0.8268875422      -0.4868614728      -0.2123846528   1.335438569829e-02   9.863655325340e-03   7.063487723594e-03
4
Properties=species:S:1:pos:R:3:forces:R:3 energy=-7.660785563867e+01 dipole="-5.6868916505e-02 -1.4338065904e-02 -5.7001296721e-01" quadrupole="-1.2746879347e+00 3.3612185573e-02 5.6416904389e-02 3.3612185573e-02 -2.2837883249e+00 -3.6291399865e-02 5.6416904389e-02 -3.6291399865e-02 -4.7174099462e+00" polarizability="7.8761249900e+00 1.0144776610e-01 7.7098904939e-02 1.0144776610e-01 6.8908233956e+00 4.3988266050e-02 7.7098904939e-02 4.3988266050e-02 5.7975681036e+00" charge=1 multiplicity=1 method=wB97M-V basis=def2-svpd config_type=h3o+ sample_index=492 temperature=300.0 units=atomic
O         0.0031565484      -0.0018106413       0.0619100242  -2.794028233708e-02  -5.087397013954e-02  -5.485374452146e-03
H        -0.0118464964       0.8996886943      -0.2091503609   1.594514893038e-03   4.161321466267e-02  -8.558209800762e-03
H         0.8798426727      -0.4271092503      -0.1916325214  -2.363577208528e-02  -5.739566637539e-04   2.732513713712e-03
H        -0.9185052531      -0.4357342387      -0.2073876794   4.998006898404e-02   9.840747019488e-03   1.130933623374e-02
4
Properties=species:S:1:pos:R:3:forces:R:3 energy=-7.660682138074e+01 dipole="-1.4799772630e-01 8.9119765363e-02 -7.4353924833e-01" quadrupole="-1.8594810250e+00 -9.4152130074e-02 1.8691509468e-01 -9.4152130074e-02 -2.0731525265e+00 -1.1838588131e-01 1.8691509468e-01 -1.1838588131e-01 -4.4814723316e+00" polarizability="7.3164724661e+00 1.1944213159e-01 2.4777759131e-01 1.1944213159e-01 7.3717148394e+00 -1.4572752980e-01 2.4777759131e-01 -1.4572752980e-01 5.9427554725e+00" charge=1 multiplicity=1 method=wB97M-V basis=def2-svpd config_type=h3o+ sample_index=493 temperature=300.0 units=atomic
O         0.0099036849      -0.0058900343       0.0747987484  -9.145774335976e-02   5.163109862701e-02  -1.731512658708e-02
H        -0.0649982957       0.9564458509      -0.2897983533   1.371412653408e-02  -2.962965790670e-02   1.766693538001e-02
H         0.7784578499      -0.4376102320      -0.2376797144   4.077464945747e-02  -2.496342848141e-02  -1.824190025190e-02
H        -0.8719395488      -0.4164364787      -0.2871314671   3.696506190873e-02   2.963959580762e-03   1.789098423647e-02
4
Properties=species:S:1:pos:R:3:forces:R:3 energy=-7.658184966068e+01 dipole="-1.1607554533e-01 -7.8487206657e-02 -4.2478503752e-01" quadrupole="-1.6391991773e+00 2.7055784167e-01 7.4612903273e-02 2.7055784167e-01 -2.3294993912e+00 3.5053115192e-02 7.4612903273e-02 3.5053115192e-02 -4.6435392128e+00" polarizability="6.4859402926e+00 3.1313849921e-01 1.1790398839e-01 3.1313849921e-01 5.7675190817e+00 9.3083943048e-02 1.1790398839e-01 9.3083943048e-02 5.2003739917e+00" charge=1 multiplicity=1 method=wB97M-V basis=def2-svpd config_type=h3o+ sample_index=494 temperature=300.0 units=atomic
O         0.0050044864       0.0031300051       0.0513848149  -1.237908059938e-01  -1.516887390262e-01   6.228414000728e-02
H         0.0163914315       0.8244982922      -0.1386859954  -2.430495476260e-03   2.031688729836e-01  -4.388739320700e-02
H         0.7760344426      -0.3961401575      -0.1379615755   9.669028549781e-02  -6.191975224643e-02  -2.415615875775e-02
H        -0.8724976503      -0.4707768284      -0.1629182921   2.953142297905e-02   1.044779085576e-02   5.755183628450e-03
4
Properties=species:S:1:pos:R:3:forces:R:3 energy=-7.660009280018e+01 dipole="-2.1847951521e-02 -2.1695101517e-01 -7.1022083862e-01" quadrupole="-1.8670338294e+00 -1.9424902870e-02 3.0292563320e-02 -1.9424902870e-02 -1.8747378345e+00 2.4861735833e-01 3.0292563320e-02 2.4861735833e-01 -4.5545333615e+00" polarizability="7.8420271521e+00 2.3805219669e-02 4.0513338021e-02 2.3805219669e-02 7.2229576997e+00 3.4954474475e-01 4.0513338021e-02 3.4954474475e-01 5.9809102765e+00" charge=1 multiplicity=1 method=wB97M-V basis=def2-svpd config_type=h3o+ sample_index=495 temperature=300.0 units=atomic
O         0.0016554961       0.0140302846       0.0720809708  -7.233881530572e-03  -1.491320674064e-01  -1.195806099543e-02
H        -0.0123267494       0.8772664309      -0.2178686872   1.032379162053e-03   7.879941574359e-02  -2.856296664429e-02
H         0.8229060511      -0.5499103706      -0.2723930691  -3.191728165284e-02   3.477103271832e-02   1.857288606968e-02
H        -0.8370737022      -0.5438377548      -0.2806612556   3.811892387023e-02   3.556461835562e-02   2.194157875132e-02
4
Properties=species:S:1:pos:R:3:forces:R:3 energy=-7.660574061671e+01 dipole="4.1668323177e-02 -1.0087736285e-02 -7.0144088191e-01" quadrupole="-1.4766382746e+00 -2.2960006063e-01 -1.9684442276e-02 -2.2960006063e-01 -2.0151315930e+00 -1.8914695620e-02 -1.9684442276e-02 -1.8914695620e-02 -4.6414443842e+00" polarizability="8.2906989756e+00 -2.7053138706e-01 -6.6938492700e-02 -2.7053138706e-01 7.7379601428e+00 2.4430506083e-02 -6.6938492700e-02 2.4430506083e-02 6.1635273767e+00" charge=1 multiplicity=1 method=wB97M-V basis=def2-svpd config_type=h3o+ sample_index=496 temperature=300.0 units=atomic
O        -0.0008467857      -0.0007291933       0.0716265933   2.183459866544e-02  -1.300296989396e-02  -3.743448583595e-02
H        -0.0288539434       0.9528787773      -0.2579550784   5.771528852570e-03  -1.910072546414e-02   9.505677040840e-03
H         0.9085640492      -0.4954993532      -0.2550019592  -5.695670133812e-02   2.710551610790e-02   1.784565704053e-02
H        -0.8661673201      -0.4376677797      -0.2507957528   2.935150520771e-02   4.999255841384e-03   1.008238458719e-02
4
Properties=species:S:1:pos:R:3:forces:R:3 energy=-7.659428803513e+01 dipole="-1.5001322201e-02 -9.1670938081e-02 -8.0448896464e-01" quadrupole="-1.3112343000e+00 2.7520135842e-01 -1.8651377711e-02 2.7520135842e-01 -2.1452088425e+00 6.9813232616e-02 -1.8651377711e-02 6.9813232616e-02 -4.5400161577e+00" polarizability="9.0999894424e+00 2.7721290310e-01 2.0033104325e-02 2.7721290310e-01 7.9029748610e+00 1.9491534527e-01 2.0033104325e-02 1.9491534527e-01 6.4739524651e+00" charge=1 multiplicity=1 method=wB97M-V basis=def2-svpd config_type=h3o+ sample_index=497 temperature=300.0 units=atomic
O        -0.0012899540       0.0038072254       0.0793436267  -3.631289066501e-03  -5.471328168720e-02  -5.377812422393e-02
H         0.0462737027       0.9173874213      -0.2861305007  -8.307322847816e-03   1.473519937358e-03   3.999551283745e-03
H         0.9028031507      -0.4509017111      -0.3038485459  -5.497016398069e-02   1.731391378004e-02   2.449545763039e-02
H        -0.9284354699      -0.5191883888      -0.2973846340   6.690618539009e-02   3.592500562822e-02   2.528416927132e-02
4
Properties=species:S:1:pos:R:3:forces:R:3 energy=-7.659425059088e+01 dipole="-1.0504907406e-01 2.2063267340e-01 -5.0737929496e-01" quadrupole="-1.0988101535e+00 4.0016337534e-01 3.8272966305e-02 4.0016337534e-01 -2.4404180042e+00 -2.8906466624e-01 3.8272966305e-02 -2.8906466624e-01 -4.7587465400e+00" polarizability="7.5229421175e+00 3.9760074406e-01 7.8473212997e-02 3.9760074406e-01 7.0835744425e+00 -2.5458858281e-01 7.8473212997e-02 -2.5458858281e-01 5.7539937418e+00" charge=1 multiplicity=1 method=wB97M-V basis=def2-svpd config_type=h3o+ sample_index=498 temperature=300.0 units=atomic
O         0.0027574792      -0.0193986064       0.0573802274  -9.579671256921e-02   7.909190516660e-02   1.635037814116e-03
H         0.0481852556       0.9528123363      -0.2356221464  -1.333239882447e-02  -1.961193475096e-02   1.452395718446e-02
H         0.8659057060      -0.2627906828      -0.1432062237   5.712767810848e-02  -5.562405655377e-02  -1.912504126503e-02
H        -0.9582054582      -0.3717767866      -0.1569318827   5.200599398285e-02  -3.859977102758e-03   2.965711794383e-03
4
Properties=species:S:1:pos:R:3:forces:R:3 energy=-7.658381365263e+01 dipole="3.1510603192e-01 1.3498946332e-01 -3.3683903022e-01" quadrupole="-1.1025348816e+00 1.6462005772e-01 -2.8706840103e-01 1.6462005772e-01 -1.5934264689e+00 -1.3303183657e-01 -2.8706840103e-01 -1.3303183657e-01 -5.0433424648e+00" polarizability="8.5317269936e+00 -2.5755126790e-01 -2.8947862727e-01 -2.5755126790e-01 8.3870480359e+00 -1.1276142166e-01 -2.8947862727e-01 -1.1276142166e-01 6.0863713848e+00" charge=1 multiplicity=1 method=wB97M-V basis=def2-svpd config_type=h3o+ sample_index=499 temperature=300.0 units=atomic
O        -0.0191311615      -0.0087517081       0.0451467796   1.487037953572e-01   7.245105802663e-02  -1.410830946476e-02
H         0.1199358169       1.0580487007      -0.1395092075  -2.737508707764e-02  -6.807183357254e-02   1.146409163766e-02
H         1.0169355034      -0.4397257188      -0.1477885203  -8.609545600375e-02   1.628839019935e-02   1.388034988341e-02
H        -0.8307352947      -0.4708821707      -0.0522647127  -3.522929223567e-02  -2.066646549620e-02  -1.123721585096e-02
