6
Properties=species:S:1:pos:R:3:forces:R:3 energy=-6.992930696003e+02 dipole="-7.8348703901e-01 -3.1429821845e-01 -1.0566675119e-01" quadrupole="-2.9254004818e+01 2.6156914735e+00 -1.4312831073e-01 2.6156914735e+00 -3.2638920175e+01 1.1842978320e-01 -1.4312831073e-01 1.1842978320e-01 -3.4215531843e+01" polarizability="4.2893769310e+01 7.2659446655e-01 2.0504599371e-01 7.2659446655e-01 4.2229217030e+01 -2.0320846443e-01 2.0504599371e-01 -2.0320846443e-01 4.1610464302e+01" charge=-1 multiplicity=1 method=wB97M-V basis=def2-svpd config_type=hso4- sample_index=0 temperature=300.0 units=atomic
S         0.1579315964       0.0435839683      -0.0112930805  -3.107923218743e-02  -6.417947815861e-02   3.651967754766e-02
O        -1.5532837792       0.0395445847      -0.0022040228   1.445526348428e-02   5.730855391313e-02  -9.860558137863e-04
O         0.4929194516       1.4301274494       0.0066396694   6.882973141191e-03   5.005939382664e-02  -2.264530869993e-03
O         0.4763014547      -0.7247406772       1.2189420554   2.229624882215e-03   7.472389332104e-03   3.548676455658e-03
O         0.4670064078      -0.7214893880      -1.2009860829   1.114137602585e-02  -1.031946738484e-02  -3.721025259485e-02
H        -1.9352238168      -0.8068101486       0.0039504622  -3.636560915425e-03  -4.036799425418e-02   4.144737261286e-04
6
Properties=species:S:1:pos:R:3:forces:R:3 energy=-6.992838226652e+02 dipole="-1.0457991890e+00 -5.1658307201e-01 3.1605045096e-01" quadrupole="-2.9286136787e+01 2.5913820215e+00 -7.2551217274e-01 2.5913820215e+00 -3.3057039381e+01 -6.3908187278e-01 -7.2551217274e-01 -6.3908187278e-01 -3.4570045235e+01" polarizability="4.4685822800e+01 1.8351765591e+00 3.9964218723e-01 1.8351765591e+00 4.5101441239e+01 6.9036381693e-02 3.9964218723e-01 6.9036381693e-02 4.3170422617e+01" charge=-1 multiplicity=1 method=wB97M-V basis=def2-svpd config_type=hso4- sample_index=1 temperature=300.0 units=atomic
S         0.1244251909       0.0191206246       0.0354002576   2.137151820948e-02  -4.123120311463e-03  -5.778232290861e-02
O        -1.5453519311       0.0664608002      -0.1004172682  -3.297317532532e-02  -7.024888703539e-02   3.959857705155e-02
O         0.5038733175       1.4458547018       0.0265015597  -8.369572502322e-03  -2.180611928011e-03   1.217510021725e-03
O         0.5582199432      -0.7037586098       1.2334179126  -1.248551220746e-02  -8.290148924225e-03   1.707770331599e-02
O         0.4304145035      -0.7280837958      -1.2390464701   3.334287493496e-03   1.009210354609e-02   2.011675556281e-02
H        -1.8914152446      -0.9347132695       0.1515839958   2.909933346400e-02   7.474312705304e-02  -2.025424110528e-02
6
Properties=species:S:1:pos:R:3:forces:R:3 energy=-6.992973423407e+02 dipole="-1.0740239731e+00 -4.0447011430e-01 -1.6582192649e-01" quadrupole="-2.9193661776e+01 2.5797446078e+00 4.9067274769e-04 2.5797446078e+00 -3.3310268629e+01 2.8752882539e-01 4.9067274769e-04 2.8752882539e-01 -3.4459831026e+01" polarizability="4.2517197597e+01 6.4842009842e-01 1.3905058859e-01 6.4842009842e-01 4.4086541355e+01 -3.9753830039e-01 1.3905058859e-01 -3.9753830039e-01 4.2381834572e+01" charge=-1 multiplicity=1 method=wB97M-V basis=def2-svpd config_type=hso4- sample_index=2 temperature=300.0 units=atomic
S         0.1190221686       0.0339115671      -0.0158053067   3.367279801130e-02  -1.725045764690e-02   4.469172346124e-02
O        -1.5287807725       0.0751315994       0.0142962278  -9.615285318198e-03   1.228394703927e-02  -3.598284539578e-03
O         0.4824877263       1.4641302924      -0.0056087952  -6.007275303933e-03  -6.148571806314e-03  -1.004944439870e-03
O         0.4935767211      -0.7566780244       1.2232525792  -1.221972372087e-02   2.248118796733e-02  -1.625393196966e-02
O         0.5055612086      -0.7373219338      -1.1988599029  -4.287129699811e-03  -1.137564347955e-03  -2.407235953050e-02
H        -1.8200322614      -0.8343653280      -0.0256009791  -1.520777936704e-03  -1.024133797867e-02   2.902690168801e-04
6
Properties=species:S:1:pos:R:3:forces:R:3 energy=-6.992837464703e+02 dipole="-5.1364285047e-01 -6.2712246278e-01 2.5631878486e-01" quadrupole="-3.0776297605e+01 1.9372369455e+00 2.6195415643e-01 1.9372369455e+00 -3.2535753491e+01 -2.5239881722e-01 2.6195415643e-01 -2.5239881722e-01 -3.3870500725e+01" polarizability="4.3488381014e+01 1.3928406387e+00 -3.8345143517e-01 1.3928406387e+00 4.3528396428e+01 3.2503785381e-01 -3.8345143517e-01 3.2503785381e-01 4.1179955022e+01" charge=-1 multiplicity=1 method=wB97M-V basis=def2-svpd config_type=hso4- sample_index=3 temperature=300.0 units=atomic
S         0.1690611186       0.0105929518       0.0308426737  -4.269544034853e-02   6.866204696359e-02  -1.015143939901e-01
O        -1.5696925929       0.0591175038      -0.0046883117   1.757169492657e-02  -7.006650407646e-02   5.007769530316e-03
O         0.4964434603       1.4436802951      -0.0233306531   4.965626909202e-03   2.032459127744e-03   9.183199500963e-03
O         0.4531623213      -0.7047286438       1.1976423663   2.573458924658e-02  -5.176697443573e-02   9.158241572132e-02
O         0.4623114197      -0.6978701218      -1.2313994014   5.875399545086e-03  -8.866170816512e-03  -2.787628877240e-03
H        -1.6341629838      -0.9868938978      -0.0006999009  -1.145582779121e-02   6.007612834969e-02  -1.438899165240e-03
6
Properties=species:S:1:pos:R:3:forces:R:3 energy=-6.992855218304e+02 dipole="-4.1176203152e-01 -4.4838282727e-01 -1.2867044895e-01" quadrupole="-3.0600780437e+01 1.8782000679e+00 -6.8160292011e-02 1.8782000679e+00 -3.2952962724e+01 -1.4939976936e-01 -6.8160292011e-02 -1.4939976936e-01 -3.4110187899e+01" polarizability="4.2178678776e+01 6.2844913622e-01 -9.9739851300e-02 6.2844913622e-01 4.3709887337e+01 7.5509105148e-01 -9.9739851300e-02 7.5509105148e-01 4.2527905012e+01" charge=-1 multiplicity=1 method=wB97M-V basis=def2-svpd config_type=hso4- sample_index=4 temperature=300.0 units=atomic
S         0.1942927980       0.0275838404      -0.0295069248  -4.299580846051e-02   1.923052304858e-02   1.973116317956e-02
O        -1.5207378212       0.0529953435       0.0216870665   1.653159050428e-02   6.302275329338e-02  -9.349573647287e-03
O         0.4535956590       1.4804388719       0.0574474585   1.686194081937e-02  -1.088272079118e-02  -1.722092925479e-02
O         0.4175624192      -0.6985989996       1.2303554598   2.251469041278e-02  -1.053619518799e-02   6.614709780010e-03
O         0.4364569694      -0.7767458377      -1.2502300176   1.305420931743e-02   1.380782011356e-02   5.978045393285e-04
H        -1.5585653929      -0.8530879144       0.0013897467  -2.595275252322e-02  -7.464780728682e-02  -3.870513523281e-04
6
Properties=species:S:1:pos:R:3:forces:R:3 energy=-6.992935849595e+02 dipole="-1.1091332538e+00 -5.3834654355e-01 -2.2538755270e-03" quadrupole="-2.8913364108e+01 2.4124609170e+00 4.7626450861e-02 2.4124609170e+00 -3.3505911213e+01 2.4813445226e-01 4.7626450861e-02 2.4813445226e-01 -3.4558802751e+01" polarizability="4.3395637458e+01 1.4990243265e+00 9.8966463465e-02 1.4990243265e+00 4.5396480531e+01 -7.0800965083e-01 9.8966463465e-02 -7.0800965083e-01 4.3110538778e+01" charge=-1 multiplicity=1 method=wB97M-V basis=def2-svpd config_type=hso4- sample_index=5 temperature=300.0 units=atomic
S         0.1227996802       0.0245471796       0.0106662159   3.411244083927e-02   1.225278344146e-02   8.892869889847e-03
O        -1.5355773842       0.0314740308      -0.0045417186  -1.014894789616e-02   2.913412036111e-02   3.131199580606e-03
O         0.5261002468       1.4952438210      -0.0403333884  -2.329123265055e-02  -4.770670105760e-02   1.163247065291e-02
O         0.4823325406      -0.7616705449       1.2452537540  -8.514091129933e-03   2.290259621356e-02  -1.553518776872e-02
O         0.4792674268      -0.7016679693      -1.2209443195   2.523223948021e-04  -3.700090537535e-03  -8.411223732324e-03
H        -1.9226339710      -0.8409759459      -0.0169911526   7.604523490853e-03  -1.283810050572e-02   3.168773960712e-04
6
Properties=species:S:1:pos:R:3:forces:R:3 energy=-6.992844547349e+02 dipole="-5.8677332866e-01 -2.6539171749e-01 3.7789683297e-01" quadrupole="-3.0369984203e+01 2.1948847419e+00 6.3181652822e-01 2.1948847419e+00 -3.2171139835e+01 -1.8419733240e-02 6.3181652822e-01 -1.8419733240e-02 -3.4473446140e+01" polarizability="4.3047379038e+01 1.0841586769e+00 -6.2957796340e-01 1.0841586769e+00 4.2296200407e+01 -2.5876741345e-01 -6.2957796340e-01 -2.5876741345e-01 4.2680442658e+01" charge=-1 multiplicity=1 method=wB97M-V basis=def2-svpd config_type=hso4- sample_index=6 temperature=300.0 units=atomic
S         0.1675644201       0.0532805075       0.0576895190  -3.972528933790e-02  -7.503641331105e-02  -1.014282241297e-01
O        -1.5564124608       0.0030524544       0.0070747447   1.595234059050e-02   5.409818465645e-02   8.925727021621e-03
O         0.5263817389       1.4168387096      -0.0907535832   1.200180787139e-02   6.793659436272e-02   2.390910347485e-02
O         0.4211856094      -0.7474942484       1.2287476700   1.886624730635e-02  -7.484783926431e-03   4.014629372111e-02
O         0.4591243524      -0.6631907901      -1.2579775787   1.134251061088e-03   1.905663236396e-03   3.182685324260e-02
H        -1.7109581793      -0.9100910513      -0.0508835608  -8.242390340587e-03  -4.141628340512e-02  -3.363761360012e-03
6
Properties=species:S:1:pos:R:3:forces:R:3 energy=-6.992824023796e+02 dipole="-8.4953621258e-01 -4.2080278816e-01 7.4522392381e-02" quadrupole="-3.0559028763e+01 2.1163605514e+00 9.7606706397e-02 2.1163605514e+00 -3.2827376271e+01 -1.3273193806e-01 9.7606706397e-02 -1.3273193806e-01 -3.4659074361e+01" polarizability="4.3317062661e+01 1.6903768333e+00 -1.8704520994e-01 1.6903768333e+00 4.6160470992e+01 3.0768115149e-01 -1.8704520994e-01 3.0768115149e-01 4.3001635203e+01" charge=-1 multiplicity=1 method=wB97M-V basis=def2-svpd config_type=hso4- sample_index=7 temperature=300.0 units=atomic
S         0.1274722577       0.0511266345       0.0058928350   2.776719662666e-02  -7.298165439288e-03  -2.404166289083e-02
O        -1.5420015714       0.0297557293       0.0042827534   2.022779281052e-03  -8.029071088261e-02  -1.076657458463e-03
O         0.5351286642       1.4887143089       0.0029407215  -1.309608249213e-02  -2.483290214949e-02  -1.016733052195e-04
O         0.4583650955      -0.7398758168       1.2135900964   1.609391761415e-03   7.825544551206e-03   8.427162393570e-03
O         0.4682508432      -0.7546232497      -1.2324688991  -6.422493444969e-03   2.372035957077e-02   1.666596521572e-02
H        -1.5569926213      -1.0679339965      -0.0019250325  -1.183225370442e-02   8.089458013703e-02   1.174143843085e-04
6
Properties=species:S:1:pos:R:3:forces:R:3 energy=-6.992923629684e+02 dipole="-1.0680826928e+00 -4.2952509132e-01 -1.6168197608e-01" quadrupole="-2.8645244125e+01 2.4969669199e+00 7.5052583171e-01 2.4969669199e+00 -3.3345325059e+01 2.0062018266e-01 7.5052583171e-01 2.0062018266e-01 -3.4306860521e+01" polarizability="4.2568281587e+01 3.2683991173e-01 -6.9202165256e-01 3.2683991173e-01 4.2800514565e+01 3.5327958208e-01 -6.9202165256e-01 3.5327958208e-01 4.2220673012e+01" charge=-1 multiplicity=1 method=wB97M-V basis=def2-svpd config_type=hso4- sample_index=8 temperature=300.0 units=atomic
S         0.1283687437       0.0169689565      -0.0230543301   1.661810471271e-02  -1.592687664874e-02   5.171694345069e-03
O        -1.5299429177       0.0783572132       0.0832755949   1.277045914223e-02   6.295470687537e-02  -1.674796211242e-03
O         0.4698379334       1.4374677111      -0.0031945148  -1.776615765241e-04   1.167799592400e-02  -5.236707306325e-03
O         0.4461398095      -0.7124281202       1.2101518769   8.561848896399e-03  -8.681261371329e-03   1.377870681216e-02
O         0.5567985358      -0.7321796147      -1.2375604063  -1.764689809732e-02   8.439743420062e-03   1.884213809177e-03
H        -1.9513539086      -0.7066304959      -0.1121596116  -2.014885336439e-02  -5.850020539339e-02  -1.393160122590e-02
6
Properties=species:S:1:pos:R:3:forces:R:3 energy=-6.992870010866e+02 dipole="-8.6839452619e-01 -1.0386525517e-01 7.9024271051e-02" quadrupole="-2.9833615856e+01 3.0722599393e+00 2.6054520269e-01 3.0722599393e+00 -3.2955268918e+01 -2.0241666986e-02 2.6054520269e-01 -2.0241666986e-02 -3.4884469206e+01" polarizability="4.5415608415e+01 -1.0789728651e-01 -3.0556793584e-01 -1.0789728651e-01 4.4970214168e+01 1.0907320466e-01 -3.0556793584e-01 1.0907320466e-01 4.4592188239e+01" charge=-1 multiplicity=1 method=wB97M-V basis=def2-svpd config_type=hso4- sample_index=9 temperature=300.0 units=atomic
S         0.1452257942       0.0643227126       0.0107237978  -8.047452767748e-04  -1.349177875010e-01  -2.001074488445e-02
O        -1.5821231600       0.1018899859       0.0138863397   9.957304629985e-03  -2.306424712241e-02  -1.878412248163e-03
O         0.4505174659       1.4510141983      -0.0174514306   1.450570839348e-02   5.434670920659e-02   3.550638294230e-03
O         0.5044581659      -0.7876671482       1.2251220569  -1.301953328872e-02   3.751917701786e-02  -2.194099018465e-02
O         0.5301830900      -0.7789180746      -1.2416055977  -2.065957258739e-02   4.284488573699e-02   3.921259536758e-02
H        -1.8630589164      -0.8495085501      -0.0255283991   1.009187959126e-02   2.317499102517e-02   1.100183706839e-03
6
Properties=species:S:1:pos:R:3:forces:R:3 energy=-6.992903736530e+02 dipole="-9.1930576988e-01 -7.2667884217e-01 1.0431782748e-01" quadrupole="-2.8923270985e+01 2.3827208510e+00 1.5817615813e-01 2.3827208510e+00 -3.3204382470e+01 -1.7378880068e-01 1.5817615813e-01 -1.7378880068e-01 -3.3933354033e+01" polarizability="4.1957843525e+01 1.5244472684e+00 -2.4147644401e-01 1.5244472684e+00 4.3482469047e+01 3.7407398842e-01 -2.4147644401e-01 3.7407398842e-01 4.0763504751e+01" charge=-1 multiplicity=1 method=wB97M-V basis=def2-svpd config_type=hso4- sample_index=10 temperature=300.0 units=atomic
S         0.1475874633      -0.0075511343       0.0086115387  -1.417177985782e-02   7.868849098983e-02  -5.312896054719e-02
O        -1.4977734715       0.0881604417       0.0063851692  -4.150124273486e-02  -4.524593098903e-02  -1.383977174069e-03
O         0.4543272709       1.4500179580       0.0015617702   4.164041846383e-03  -1.327356690522e-02   1.104083556263e-04
O         0.4642408490      -0.6957886406       1.1963048471   2.382147800434e-02  -4.731535899410e-02   7.816624174998e-02
O         0.4787160172      -0.7126894748      -1.2211894414   7.759969505670e-03  -1.587641030854e-02  -2.404942873750e-02
H        -1.8694603750      -0.8637391705      -0.0047006097   1.987973979343e-02   4.309453998912e-02   2.767646794412e-04
6
Properties=species:S:1:pos:R:3:forces:R:3 energy=-6.992931886456e+02 dipole="-1.0972505237e+00 -4.3390756491e-01 -1.4260103128e-01" quadrupole="-2.9278004241e+01 2.4534528163e+00 -1.0649559337e-01 2.4534528163e+00 -3.2512052629e+01 2.3990608564e-01 -1.0649559337e-01 2.3990608564e-01 -3.4820783907e+01" polarizability="4.2553689057e+01 1.0689552070e+00 2.6528006089e-01 1.0689552070e+00 4.2160709466e+01 -4.1847669168e-01 2.6528006089e-01 -4.1847669168e-01 4.2881722076e+01" charge=-1 multiplicity=1 method=wB97M-V basis=def2-svpd config_type=hso4- sample_index=11 temperature=300.0 units=atomic
S         0.1090392143       0.0198602133      -0.0123805007   3.031644052215e-02  -4.980106863856e-02   4.416290508863e-02
O        -1.5404651274       0.0508357702       0.0011527632  -1.588657234995e-02  -1.519378476073e-02  -1.293643350076e-03
O         0.5245408956       1.3827176283      -0.0043823163   2.648180512379e-03   6.583654471537e-02   8.292269665011e-04
O         0.4975476845      -0.6896125708       1.2731818033  -1.694303619528e-02   3.913256493565e-03  -2.882421014580e-02
O         0.4919875486      -0.6681352627      -1.2447769770  -4.962972670042e-03  -2.125043042868e-02  -1.547014772549e-02
H        -1.8129680451      -0.8944354444      -0.0074989331   4.745186940292e-03   1.645852871534e-02   6.150523944469e-04
6
Properties=species:S:1:pos:R:3:forces:R:3 energy=-6.992876869599e+02 dipole="-8.8662153159e-01 -5.9612923595e-01 -8.2350467566e-02" quadrupole="-2.9304462518e+01 2.3682466560e+00 5.3650940957e-01 2.3682466560e+00 -3.3608648251e+01 1.5960820867e-01 5.3650940957e-01 1.5960820867e-01 -3.4925122073e+01" polarizability="4.4647080376e+01 1.5636586033e+00 -5.4323359868e-01 1.5636586033e+00 4.7152320407e+01 3.3315821623e-01 -5.4323359868e-01 3.3315821623e-01 4.5645144646e+01" charge=-1 multiplicity=1 method=wB97M-V basis=def2-svpd config_type=hso4- sample_index=12 temperature=300.0 units=atomic
S         0.1641563782       0.0069741747      -0.0121780117  -5.915892542818e-04   2.012966458426e-02   3.155549532274e-05
O        -1.5248287146       0.0520579223       0.0618801923  -1.662079532396e-02  -2.293469346721e-02  -1.751996882183e-02
O         0.4827182939       1.5150212848      -0.0075158550  -7.559332904600e-03  -6.376399197563e-02  -1.888136501018e-03
O         0.4127390862      -0.7274683582       1.2841209193   1.358864506871e-02   1.233512176449e-02  -3.172984812134e-02
O         0.4974751258      -0.7391058982      -1.3091671907  -8.544752994337e-03   2.384901275800e-02   4.599888084273e-02
H        -1.8912218769      -0.8720342835      -0.0852781562   1.975594523269e-02   3.041651136978e-02   5.110766265566e-03
6
Properties=species:S:1:pos:R:3:forces:R:3 energy=-6.992937233876e+02 dipole="-9.0535053099e-01 -4.0331604896e-01 1.4655502527e-01" quadrupole="-2.9365156251e+01 2.3981360224e+00 6.5013655663e-02 2.3981360224e+00 -3.2599916297e+01 1.1342458983e-01 6.5013655663e-02 1.1342458983e-01 -3.4388740149e+01" polarizability="4.1688327248e+01 6.8589591835e-01 5.1726312428e-02 6.8589591835e-01 4.1647399529e+01 -5.9397620833e-01 5.1726312428e-02 -5.9397620833e-01 4.1779918749e+01" charge=-1 multiplicity=1 method=wB97M-V basis=def2-svpd config_type=hso4- sample_index=13 temperature=300.0 units=atomic
S         0.1360961629       0.0264365225       0.0297169196  -2.383697267548e-03  -4.529297263130e-02  -2.123421189680e-02
O        -1.5275451693       0.0527941529      -0.0205962055   7.460687134540e-04   4.087535180238e-02   8.174146516732e-03
O         0.4938881150       1.4024219699      -0.0561806477   9.987744229028e-03   6.296722978221e-02   1.698773068519e-02
O         0.4845491365      -0.7354346370       1.2415558000  -2.561370620323e-03   2.501860120468e-03   8.733704492503e-03
O         0.4674708114      -0.6604141934      -1.2244217767   5.118535690996e-03  -2.288332458366e-02  -1.324945540893e-02
H        -1.7986531670      -0.8366909977      -0.0018956793  -1.093483162205e-02  -3.815891213300e-02   6.456755841985e-04
6
Properties=species:S:1:pos:R:3:forces:R:3 energy=-6.992799554087e+02 dipole="-1.2484136612e+00 -4.7532966154e-01 -2.3806428652e-02" quadrupole="-2.9033931799e+01 2.6890577834e+00 -5.7863702634e-01 2.6890577834e+00 -3.2791884308e+01 -1.8685990827e-01 -5.7863702634e-01 -1.8685990827e-01 -3.4555787697e+01" polarizability="4.2379123000e+01 1.8043010758e+00 4.9807791901e-01 1.8043010758e+00 4.4001908859e+01 -1.8991622932e-01 4.9807791901e-01 -1.8991622932e-01 4.1659772086e+01" charge=-1 multiplicity=1 method=wB97M-V basis=def2-svpd config_type=hso4- sample_index=14 temperature=300.0 units=atomic
S         0.0919143391       0.0308619583      -0.0045227185   6.004220063072e-02  -2.173010233247e-02   2.642757865099e-02
O        -1.5104839076       0.0682505975      -0.0518225472  -5.870289200765e-02  -7.801737142629e-02   1.952548660206e-02
O         0.5115050914       1.4190098246       0.0354432859  -6.302338182459e-03   3.216275574324e-02  -6.740057003171e-03
O         0.5411722023      -0.7019716332       1.2121876405  -1.955084837541e-02  -2.065985782291e-03   7.027521792004e-03
O         0.4635634348      -0.7252344946      -1.1916043556   2.462416602092e-03  -1.197133682532e-02  -3.469612346860e-02
H        -1.7957618773      -0.9834670228       0.0859339915   2.206034408482e-02   8.158120033377e-02  -1.149482688740e-02
6
Properties=species:S:1:pos:R:3:forces:R:3 energy=-6.992944964223e+02 dipole="-7.6344307895e-01 -7.0787490443e-01 -7.6359200376e-02" quadrupole="-2.9283111364e+01 2.2959268158e+00 1.3522836306e-01 2.2959268158e+00 -3.3206686883e+01 -1.1172051880e-01 1.3522836306e-01 -1.1172051880e-01 -3.4327979098e+01" polarizability="4.4187749121e+01 1.0479517013e+00 -2.6793234683e-01 1.0479517013e+00 4.4084475641e+01 6.7379689640e-01 -2.6793234683e-01 6.7379689640e-01 4.3468147718e+01" charge=-1 multiplicity=1 method=wB97M-V basis=def2-svpd config_type=hso4- sample_index=15 temperature=300.0 units=atomic
S         0.1713824125      -0.0182745709      -0.0198691650  -2.646511725454e-02   5.251005042388e-02  -5.231183896734e-04
O        -1.5488420315       0.0785562385       0.0298419698   4.695697074357e-03   9.088252259781e-04  -8.358164499746e-03
O         0.4645421104       1.4516214096       0.0390562549   2.154616781352e-03  -2.549086222959e-02  -1.415204551920e-02
O         0.4531440546      -0.6602562120       1.2595891941   1.367119537535e-02  -2.647135354386e-02   8.312970960588e-03
O         0.4885641542      -0.7231317433      -1.2874778270  -2.434722473286e-04   1.543463238828e-03   1.502534527576e-02
H        -1.9442230684      -0.7995547138      -0.0178623369   6.169034810124e-03  -2.934690068978e-03  -3.706425820750e-04
6
Properties=species:S:1:pos:R:3:forces:R:3 energy=-6.992940101594e+02 dipole="-1.0538713806e+00 -6.6567943795e-01 -7.9158935664e-02" quadrupole="-2.8908172717e+01 2.4677615615e+00 3.2184297605e-01 2.4677615615e+00 -3.3337411784e+01 2.9207892222e-01 3.2184297605e-01 2.9207892222e-01 -3.4163522876e+01" polarizability="4.2719958671e+01 2.0065788790e-01 -1.8052014153e-01 2.0065788790e-01 4.2416680000e+01 -3.3073764613e-01 -1.8052014153e-01 -3.3073764613e-01 4.2029355352e+01" charge=-1 multiplicity=1 method=wB97M-V basis=def2-svpd config_type=hso4- sample_index=16 temperature=300.0 units=atomic
S         0.1232298910      -0.0230509971      -0.0033306747   1.783878945077e-02   4.427355550857e-02   1.862650914482e-02
O        -1.5341525603       0.1352961821       0.0313563965   5.432386834556e-04   3.352954029847e-03  -3.059532777979e-03
O         0.4361184614       1.4092226810      -0.0317263137   7.919887050207e-03   1.507801864222e-02   6.640860604324e-03
O         0.5023631725      -0.7149885192       1.2416274119  -6.992584639922e-03  -1.056184096767e-02   2.191895560024e-03
O         0.5452819575      -0.6759687315      -1.2312502134  -7.356078782730e-03  -2.903381471559e-02  -2.310392136544e-02
H        -1.8906000983      -0.7333108181      -0.0601069875  -1.201262927092e-02  -2.317357945344e-02  -1.287915744697e-03
6
Properties=species:S:1:pos:R:3:forces:R:3 energy=-6.992879035918e+02 dipole="-7.0017893301e-01 -3.2586107332e-01 3.6625472547e-01" quadrupole="-3.0368734089e+01 2.3067584314e+00 2.6572573936e-01 2.3067584314e+00 -3.2353971831e+01 -1.9384554899e-01 2.6572573936e-01 -1.9384554899e-01 -3.4629232099e+01" polarizability="4.5285773765e+01 1.0212250933e+00 -3.7001595085e-01 1.0212250933e+00 4.2974658062e+01 -8.5819925205e-02 -3.7001595085e-01 -8.5819925205e-02 4.3723376183e+01" charge=-1 multiplicity=1 method=wB97M-V basis=def2-svpd config_type=hso4- sample_index=17 temperature=300.0 units=atomic
S         0.1507355840       0.0413940358       0.0520892868  -1.607219920644e-02  -6.069612843169e-02  -8.883509418459e-02
O        -1.6115361362       0.0157024080      -0.0214390353   3.407126743281e-02   5.320476679768e-02   9.229676721419e-03
O         0.5477061034       1.4173391310      -0.0594938586  -1.469413287090e-03   4.235736755477e-02   1.913214384057e-02
O         0.4802428315      -0.7280004312       1.2485598431  -1.253495747111e-04  -3.279551078794e-04   1.650542237977e-02
O         0.4744017455      -0.6731512061      -1.2723196969  -9.141934998615e-03   8.476075462266e-03   4.353886463876e-02
H        -1.8202248261      -0.8875774090       0.0030054934  -7.254158070929e-03  -4.301459418190e-02   4.632156521213e-04
6
Properties=species:S:1:pos:R:3:forces:R:3 energy=-6.992932218060e+02 dipole="-7.5835526171e-01 -3.2487463106e-01 4.7990348737e-02" quadrupole="-2.9921504026e+01 2.6806618900e+00 2.2053131000e-01 2.6806618900e+00 -3.2543877557e+01 9.8956807276e-02 2.2053131000e-01 9.8956807276e-02 -3.4302656083e+01" polarizability="4.4739278892e+01 1.3979720987e-01 -1.6728455453e-01 1.3979720987e-01 4.2094385989e+01 -2.1488400132e-01 -1.6728455453e-01 -2.1488400132e-01 4.2429465337e+01" charge=-1 multiplicity=1 method=wB97M-V basis=def2-svpd config_type=hso4- sample_index=18 temperature=300.0 units=atomic
S         0.1471589615       0.0311479417       0.0110767117  -1.972027574778e-02  -7.727978228309e-02  -1.249977304055e-02
O        -1.6090154525       0.0816074418       0.0096779637   3.384817528624e-02   3.314778206481e-02   1.602386578915e-03
O         0.4853126291       1.4018919021      -0.0304910514   1.155307871803e-02   7.494780975542e-02   7.139461743886e-03
O         0.5032669757      -0.7339425559       1.2259430316  -7.283927943623e-03   5.214118582417e-03   4.305007512563e-03
O         0.5221685221      -0.7004099810      -1.2257892982  -1.049601112515e-02  -2.079918457682e-03   6.952057615948e-04
H        -1.8898479365      -0.8086140128      -0.0284213390  -7.923938667513e-03  -3.400707508853e-02  -1.225640165064e-03
6
Properties=species:S:1:pos:R:3:forces:R:3 energy=-6.992656175971e+02 dipole="-7.9047374274e-01 -3.3445771752e-01 -3.0482329091e-02" quadrupole="-2.9814893311e+01 2.6856854340e+00 -4.8044689727e-02 2.6856854340e+00 -3.2146135813e+01 1.8811043464e-01 -4.8044689727e-02 1.8811043464e-01 -3.4751956489e+01" polarizability="4.3075342492e+01 2.7225127991e+00 1.5776007102e-01 2.7225127991e+00 4.6023019614e+01 -5.0033068067e-01 1.5776007102e-01 -5.0033068067e-01 4.2510703159e+01" charge=-1 multiplicity=1 method=wB97M-V basis=def2-svpd config_type=hso4- sample_index=19 temperature=300.0 units=atomic
S         0.1571738262       0.0672099280       0.0039900441  -1.837106069194e-02  -7.402070454331e-02   1.849987370453e-02
O        -1.4991550118       0.0061081989      -0.0079375679  -4.773588037303e-02  -8.158423740353e-02   3.779875083295e-03
O         0.5209066943       1.4618805475      -0.0228012613   4.014154676327e-03   2.938856366533e-02   5.624394715664e-03
O         0.4306702242      -0.7557939981       1.2289839654   1.204282532084e-02   2.175561664215e-02  -2.718972111040e-03
O         0.4197901326      -0.7160772074      -1.2061536424   2.175648962319e-02  -2.938611032356e-03  -2.503768029029e-02
H        -1.7405257910      -1.1451266292      -0.0034397757   2.824775875419e-02   1.073313602165e-01  -1.180075375039e-04
6
Properties=species:S:1:pos:R:3:forces:R:3 energy=-6.992925692021e+02 dipole="-6.1357396501e-01 -3.8678148786e-01 -4.0547112181e-02" quadrupole="-2.9999465290e+01 2.5051689056e+00 -8.0058335094e-01 2.5051689056e+00 -3.2577621330e+01 -3.0278943404e-01 -8.0058335094e-01 -3.0278943404e-01 -3.4216603940e+01" polarizability="4.4502491408e+01 3.8685961316e-01 6.8211810782e-01 3.8685961316e-01 4.2320231205e+01 3.3816499990e-01 6.8211810782e-01 3.3816499990e-01 4.2640158098e+01" charge=-1 multiplicity=1 method=wB97M-V basis=def2-svpd config_type=hso4- sample_index=20 temperature=300.0 units=atomic
S         0.1718446152       0.0236968172      -0.0151500320  -3.988705762800e-02  -4.977420864742e-02   2.734480175937e-02
O        -1.5932663913       0.0681674555      -0.0569854273   3.118670962287e-02   3.615657053895e-02   3.769414207034e-04
O         0.4773394649       1.4132608547       0.0686479310   1.273542506370e-02   5.587396872751e-02  -1.453640719644e-02
O         0.5288837835      -0.6766955130       1.2471809174  -6.917433234457e-03  -7.562768166585e-03  -7.662486541044e-03
O         0.4395052338      -0.7415610783      -1.2346399888   1.080994316234e-02   1.171198233294e-04  -1.149978710368e-02
H        -1.8851588489      -0.8017787575       0.1105505442  -7.967076168517e-03  -3.482510656659e-02   5.927206956028e-03
6
Properties=species:S:1:pos:R:3:forces:R:3 energy=-6.992686460245e+02 dipole="-9.5962465784e-01 -4.0059900316e-01 -1.1264467496e-01" quadrupole="-3.0518762033e+01 1.9843776552e+00 1.7226761304e-01 1.9843776552e+00 -3.3533865623e+01 5.8604184823e-01 1.7226761304e-01 5.8604184823e-01 -3.4241389874e+01" polarizability="4.2332679100e+01 -6.2488633432e-02 2.8834062886e-02 -6.2488633432e-02 4.4815077206e+01 -1.0500411187e+00 2.8834062886e-02 -1.0500411187e+00 4.2222053061e+01" charge=-1 multiplicity=1 method=wB97M-V basis=def2-svpd config_type=hso4- sample_index=21 temperature=300.0 units=atomic
S         0.0955990210       0.0314742090       0.0020844503   7.874150556460e-02   3.045786789021e-02   3.756731399076e-02
O        -1.5334627982       0.1243593212       0.0211066776   9.291375729084e-03  -7.585663108851e-02  -7.228906300721e-03
O         0.4609834864       1.4694630017      -0.0611846887   1.531325580745e-03  -9.984622944632e-03   1.268946894476e-02
O         0.5084352248      -0.8143471356       1.2091876937  -2.425533723875e-02   3.435820719309e-02  -1.541738003724e-02
O         0.5374528889      -0.7243254723      -1.1698440635  -1.295526196190e-02  -1.036326213881e-02  -3.190324247021e-02
H        -1.4107380055      -0.9019271297      -0.0644885942  -5.232228822950e-02   3.139342175894e-02   4.338218961074e-03
6
Properties=species:S:1:pos:R:3:forces:R:3 energy=-6.992831454587e+02 dipole="-3.7077882652e-01 -3.4306798555e-01 3.1974512786e-02" quadrupole="-3.1370758207e+01 2.1797040363e+00 -1.1953459097e-01 2.1797040363e+00 -3.2454252573e+01 -1.5645768349e-01 -1.1953459097e-01 -1.5645768349e-01 -3.4426667943e+01" polarizability="4.6227601793e+01 1.4975799970e+00 6.8075761101e-02 1.4975799970e+00 4.6007819096e+01 2.2010568853e-01 6.8075761101e-02 2.2010568853e-01 4.3673999111e+01" charge=-1 multiplicity=1 method=wB97M-V basis=def2-svpd config_type=hso4- sample_index=22 temperature=300.0 units=atomic
S         0.1907982254       0.0540050528       0.0002117314  -4.493612815391e-02  -3.627848274937e-02  -7.846492453388e-03
O        -1.6087021199       0.0317531910      -0.0134914155   3.180283727855e-02  -7.201569868637e-02   5.292373031380e-03
O         0.5116730734       1.4852485820       0.0172345170   3.923924088680e-03  -4.775195195286e-03  -3.218695998521e-03
O         0.4575031984      -0.7393346209       1.2328952627   6.857837838100e-03   1.412105866788e-02  -5.341640411569e-03
O         0.4385537095      -0.7608773328      -1.2385948974   8.357160256895e-03   2.339846657921e-02   1.437310996330e-02
H        -1.6426012403      -1.0430779181       0.0278028695  -6.039351117668e-03   7.546432518325e-02  -3.257298266618e-03
6
Properties=species:S:1:pos:R:3:forces:R:3 energy=-6.992877457885e+02 dipole="-7.9239630858e-01 -2.9297871155e-01 -4.9293905943e-02" quadrupole="-2.9347116926e+01 2.6444021170e+00 2.0269749825e-01 2.6444021170e+00 -3.2551975678e+01 2.9035166457e-01 2.0269749825e-01 2.9035166457e-01 -3.3991738623e+01" polarizability="4.0750804936e+01 2.0194614471e-01 -3.1468138445e-02 2.0194614471e-01 4.0931956647e+01 -4.7098514007e-01 -3.1468138445e-02 -4.7098514007e-01 4.0285416876e+01" charge=-1 multiplicity=1 method=wB97M-V basis=def2-svpd config_type=hso4- sample_index=23 temperature=300.0 units=atomic
S         0.1509279601       0.0399036505       0.0031177820  -3.130380604718e-02  -7.962784102629e-02   2.253659805341e-02
O        -1.5082857946       0.0883869830       0.0166897557  -9.816149881239e-03   1.906497048517e-02  -5.961178191743e-04
O         0.4380473353       1.4015488626      -0.0368326366   3.090458447514e-02   1.095604918163e-01   6.889424099543e-03
O         0.4660947843      -0.7536159472       1.1931119727   7.395982176026e-03   6.270977044931e-04   2.777617096816e-02
O         0.4905473402      -0.7041367555      -1.1768739044   1.178262061381e-02  -2.690124241924e-02  -5.590823787580e-02
H        -1.7726349757      -0.8145133688      -0.0433025905  -8.941119187213e-03  -2.274699522038e-02  -6.360512565440e-04
6
Properties=species:S:1:pos:R:3:forces:R:3 energy=-6.992811701965e+02 dipole="-9.4342375654e-01 -3.7202667386e-01 -1.3289792453e-01" quadrupole="-2.8690998862e+01 2.5893061841e+00 1.9842498862e-01 2.5893061841e+00 -3.2462873050e+01 3.0790333980e-01 1.9842498862e-01 3.0790333980e-01 -3.3948945024e+01" polarizability="4.2106006402e+01 6.2257976841e-01 1.6147248544e-02 6.2257976841e-01 4.0265391563e+01 -4.0377935196e-01 1.6147248544e-02 -4.0377935196e-01 4.0163141829e+01" charge=-1 multiplicity=1 method=wB97M-V basis=def2-svpd config_type=hso4- sample_index=24 temperature=300.0 units=atomic
S         0.1338138465       0.0276311238      -0.0087360303  -3.160071946518e-02  -6.042292720705e-02   4.581044331110e-02
O        -1.5571825393       0.0508496677       0.0236488658   1.653806596231e-02   6.321230763142e-02   6.410676352276e-04
O         0.5009869638       1.3754208014      -0.0234279574   1.227382812423e-02   1.071320149955e-01   4.586244419531e-03
O         0.4815099073      -0.7051314819       1.2006799182   2.043106754242e-03  -1.355226870651e-02   3.170952313635e-02
O         0.5103793391      -0.6692139660      -1.1808242352   1.081456582220e-02  -4.693368266618e-02  -7.873240235159e-02
H        -2.0048161777      -0.7504367152      -0.0466697621  -1.013194732681e-02  -4.944568843372e-02  -3.993880632138e-03
6
Properties=species:S:1:pos:R:3:forces:R:3 energy=-6.992841150420e+02 dipole="-8.4887912644e-01 -1.7552253734e-01 2.4110488176e-02" quadrupole="-2.9017336119e+01 2.8888036333e+00 -9.2405889849e-02 2.8888036333e+00 -3.2575029263e+01 1.6221563341e-01 -9.2405889849e-02 1.6221563341e-01 -3.5203844297e+01" polarizability="4.3233649187e+01 4.5119746140e-01 2.5104637981e-01 4.5119746140e-01 4.2927889475e+01 -6.4916057925e-01 2.5104637981e-01 -6.4916057925e-01 4.4952362123e+01" charge=-1 multiplicity=1 method=wB97M-V basis=def2-svpd config_type=hso4- sample_index=25 temperature=300.0 units=atomic
S         0.1660066179       0.0421208491       0.0120873872  -2.803276402121e-02  -1.580175203291e-01   5.221511611474e-03
O        -1.5137789569       0.0704525581      -0.0196390934  -1.831717179346e-02  -4.821123768973e-03   6.388027276745e-03
O         0.4461049245       1.4007693987      -0.0328797741   3.112185342618e-02   1.117248371352e-01   7.798188911484e-03
O         0.4789038151      -0.7492197181       1.3075828998  -5.800611391220e-03   3.265735624730e-02  -5.039539795999e-02
O         0.4546141353      -0.6942639492      -1.2798348771   5.385666359174e-03   7.433508903581e-03   3.104758753335e-02
H        -1.9105995146      -0.8242239399       0.0069557794   1.567008992738e-02   1.103475682191e-02  -6.675456023689e-06
6
Properties=species:S:1:pos:R:3:forces:R:3 energy=-6.992931966499e+02 dipole="-1.1729291166e+00 -6.1759277853e-01 -1.5906214445e-01" quadrupole="-2.8669404617e+01 2.5279764006e+00 -4.7214643778e-01 2.5279764006e+00 -3.3422349386e+01 -4.2373157268e-03 -4.7214643778e-01 -4.2373157268e-03 -3.4099087346e+01" polarizability="4.2686507430e+01 7.4771666783e-01 4.7472569540e-01 7.4771666783e-01 4.3082899555e+01 -2.8443988246e-02 4.7472569540e-01 -2.8443988246e-02 4.1365954560e+01" charge=-1 multiplicity=1 method=wB97M-V basis=def2-svpd config_type=hso4- sample_index=26 temperature=300.0 units=atomic
S         0.1087786478      -0.0016898223      -0.0236228862   3.096149208107e-02   4.368877726064e-02   6.181023707993e-02
O        -1.5372609081       0.1001085468      -0.0212391760  -1.162279918582e-02   6.299360755529e-03  -3.944628031716e-04
O         0.4754215826       1.4345531941       0.0447722532  -8.638926496640e-03  -4.545417018260e-03  -1.328029893509e-02
O         0.5423998888      -0.6929286952       1.2128268669  -1.563719847430e-02  -1.021597174959e-02   7.034707212810e-03
O         0.5000151797      -0.7290419614      -1.1917094090   3.357462959203e-03  -2.546012727283e-02  -5.551884272969e-02
H        -1.9313383165      -0.7692149257       0.0485573183   1.562517559956e-03  -9.797669004263e-03   4.100981624525e-04
6
Properties=species:S:1:pos:R:3:forces:R:3 energy=-6.992823506751e+02 dipole="-9.8970147195e-01 -4.0722645415e-01 -3.7804969732e-02" quadrupole="-2.9690057377e+01 2.3166335988e+00 -3.8901601962e-01 2.3166335988e+00 -3.3743186656e+01 -3.1710192611e-01 -3.8901601962e-01 -3.1710192611e-01 -3.5214866025e+01" polarizability="4.3941493983e+01 8.5903019367e-01 2.9530869794e-01 8.5903019367e-01 4.7433945573e+01 7.6709457868e-01 2.9530869794e-01 7.6709457868e-01 4.6486936060e+01" charge=-1 multiplicity=1 method=wB97M-V basis=def2-svpd config_type=hso4- sample_index=27 temperature=300.0 units=atomic
S         0.1371282578       0.0338413946      -0.0175213884   3.769928921033e-02  -1.396629889028e-02   1.554523024886e-02
O        -1.5308640081       0.0465630380      -0.0229817187   1.057275335726e-02   4.531777490424e-02  -2.546692407379e-03
O         0.4991990909       1.5264062401       0.0623510621  -1.493107226446e-02  -6.177759218947e-02  -1.563585268958e-02
O         0.4925567584      -0.7273453723       1.2930625881  -1.396778124530e-02   2.769450908382e-02  -5.477225421075e-02
O         0.4520646368      -0.7999636837      -1.3007581776  -7.811798449960e-03   4.470271719245e-02   5.389408175650e-02
H        -1.7533292904      -0.8510527249       0.0634673499  -1.155600850040e-02  -4.192807198145e-02   3.461532317941e-03
6
Properties=species:S:1:pos:R:3:forces:R:3 energy=-6.992920901165e+02 dipole="-9.3955108144e-01 -4.9625059944e-01 -9.9070904578e-02" quadrupole="-2.8873600690e+01 2.3004157205e+00 2.7921050213e-02 2.3004157205e+00 -3.2954319733e+01 2.7348766104e-01 2.7921050213e-02 2.7348766104e-01 -3.4317973968e+01" polarizability="4.0327031265e+01 6.0329462668e-01 1.1382434094e-01 6.0329462668e-01 4.1670876312e+01 -5.0601059761e-01 1.1382434094e-01 -5.0601059761e-01 4.1535836887e+01" charge=-1 multiplicity=1 method=wB97M-V basis=def2-svpd config_type=hso4- sample_index=28 temperature=300.0 units=atomic
S         0.1440941694       0.0119027589      -0.0045442064   1.229868432624e-03  -3.472311357057e-03   3.846874979929e-02
O        -1.4796095765       0.0630575693       0.0069940325  -8.563820288597e-03   7.148210280940e-02   1.644739019240e-03
O         0.4624427840       1.4213203605      -0.0214054677   1.223798974295e-02   3.294452674401e-02   4.917757720218e-03
O         0.4565103794      -0.7185731157       1.2513331543   5.231479724686e-03   8.384182006083e-05  -5.183157191347e-03
O         0.4630915996      -0.6806027397      -1.2265783509   1.455111172859e-02  -3.014327856587e-02  -3.786321216405e-02
H        -1.7997492276      -0.7821987377      -0.0234748542  -2.472576082609e-02  -7.086228843103e-02  -1.922985421937e-03
6
Properties=species:S:1:pos:R:3:forces:R:3 energy=-6.992981609467e+02 dipole="-7.3514285162e-01 -5.5635653866e-01 1.6261219292e-02" quadrupole="-2.9753097473e+01 2.2591080766e+00 4.0681258464e-02 2.2591080766e+00 -3.2897376810e+01 1.8475327317e-01 4.0681258464e-02 1.8475327317e-01 -3.4442556947e+01" polarizability="4.3786927222e+01 1.0931544499e+00 9.3204264066e-02 1.0931544499e+00 4.3714704732e+01 -5.7000881741e-01 9.3204264066e-02 -5.7000881741e-01 4.3308161289e+01" charge=-1 multiplicity=1 method=wB97M-V basis=def2-svpd config_type=hso4- sample_index=29 temperature=300.0 units=atomic
S         0.1639600079       0.0100810585       0.0111670625  -1.940760136941e-02   1.180901058827e-02   5.953394903445e-03
O        -1.5599266999       0.0448826556      -0.0060710069   1.584045673914e-02   2.538850586111e-02   3.532594696420e-03
O         0.5002542367       1.4515076052      -0.0362994947  -2.565880618239e-03  -1.079042559068e-02   1.091598271862e-02
O         0.4653628957      -0.7284281433       1.2748309331   1.032056237012e-03   9.206366287611e-03  -1.791646246533e-02
O         0.4605415204      -0.6750278908      -1.2542741995   7.911489922676e-03  -1.463941333042e-02  -2.519131701039e-03
H        -1.8504387511      -0.8548109205      -0.0123978515  -2.823648375827e-03  -2.090669330561e-02   1.087766758055e-04
6
Properties=species:S:1:pos:R:3:forces:R:3 energy=-6.992873104865e+02 dipole="-7.8978738081e-01 -1.7870090810e-01 2.4905335338e-01" quadrupole="-2.9805242132e+01 2.4088301944e+00 -3.5746690082e-01 2.4088301944e+00 -3.2565199197e+01 -5.4415805601e-01 -3.5746690082e-01 -5.4415805601e-01 -3.4637612213e+01" polarizability="4.1758265104e+01 2.9260195905e-01 1.6313727241e-01 2.9260195905e-01 4.1958717198e+01 6.0839591767e-01 1.6313727241e-01 6.0839591767e-01 4.2751318260e+01" charge=-1 multiplicity=1 method=wB97M-V basis=def2-svpd config_type=hso4- sample_index=30 temperature=300.0 units=atomic
S         0.1471869216       0.0531949826       0.0213536072  -1.154501315490e-02  -1.117600888848e-01  -5.397461014280e-02
O        -1.5216887295       0.0489681250      -0.0560521713   8.006565278894e-03   6.470990079314e-02   3.194402226658e-03
O         0.4797053236       1.4151414318       0.0313605889   2.187166834847e-02   8.807378891960e-02  -2.734708428470e-03
O         0.5004563551      -0.7071251784       1.2300418299  -2.034356784569e-03  -3.406416786648e-03   1.205715421380e-02
O         0.4309869326      -0.7512327867      -1.2534826038   3.519769645803e-03   2.660842689109e-02   3.265837584853e-02
H        -1.6951286275      -0.8324906229       0.0955098057  -1.983255301573e-02  -6.429130802824e-02   8.750161224850e-03
6
Properties=species:S:1:pos:R:3:forces:R:3 energy=-6.992739320224e+02 dipole="-1.1022400597e+00 -3.5950713703e-01 5.6457997585e-02" quadrupole="-2.8646348616e+01 3.0426859042e+00 6.3268879505e-01 3.0426859042e+00 -3.2769150634e+01 1.6212351968e-01 6.3268879505e-01 1.6212351968e-01 -3.4758170109e+01" polarizability="4.6293979651e+01 2.6154112298e+00 -4.2306885571e-01 2.6154112298e+00 4.5500768203e+01 8.1434385004e-02 -4.2306885571e-01 8.1434385004e-02 4.3200651367e+01" charge=-1 multiplicity=1 method=wB97M-V basis=def2-svpd config_type=hso4- sample_index=31 temperature=300.0 units=atomic
S         0.1279757144       0.0451986869       0.0111904503   1.280265638437e-02  -6.766152950086e-02  -3.113329426962e-02
O        -1.5604074134       0.0415375443       0.0451431257  -5.179856786092e-02  -5.879929437396e-02  -1.451876647305e-02
O         0.5224485745       1.4405681598      -0.0438910054  -8.919928056939e-03   2.317832263346e-02   9.722225236776e-03
O         0.4593303624      -0.7435164088       1.2137725795   2.507961000749e-03   8.802099751676e-03   1.182634503953e-02
O         0.5302874199      -0.7093122583      -1.2328925079  -1.533536963300e-02   1.297249387200e-02   1.385371793456e-02
H        -2.0789155485      -0.9519659530      -0.0811601640   6.075970331236e-02   8.146452693439e-02   1.026533185416e-02
6
Properties=species:S:1:pos:R:3:forces:R:3 energy=-6.992835982353e+02 dipole="-7.9547290363e-01 -7.2400975989e-01 -1.6110253032e-01" quadrupole="-2.9663734043e+01 2.2905670726e+00 -4.8994876473e-01 2.2905670726e+00 -3.3353524522e+01 1.1555464479e-01 -4.8994876473e-01 1.1555464479e-01 -3.3763438878e+01" polarizability="4.3331487088e+01 1.8089511106e+00 5.4395134073e-01 1.8089511106e+00 4.5365138960e+01 -4.4688830308e-01 5.4395134073e-01 -4.4688830308e-01 4.0868474184e+01" charge=-1 multiplicity=1 method=wB97M-V basis=def2-svpd config_type=hso4- sample_index=32 temperature=300.0 units=atomic
S         0.1537772239       0.0088829143      -0.0176785879  -2.388653661202e-02   1.005767384816e-01   8.859446084203e-02
O        -1.5405240798       0.0655828180      -0.0296315260  -1.560687028258e-02  -4.728407118032e-02   7.935467551698e-03
O         0.4857712588       1.5046696857       0.0222847935  -9.406734048020e-03  -5.390575751875e-02  -6.926670702298e-03
O         0.4957389319      -0.7354157194       1.2004629332   2.049935603337e-03  -9.697958793815e-04   2.063072794695e-02
O         0.4429237679      -0.7343768413      -1.1603562689   3.068132571139e-02  -4.981996168653e-02  -1.063483127240e-01
H        -1.8259871539      -0.9243025488       0.0464030882   1.617788722601e-02   5.144015299508e-02  -3.900829111018e-03
6
Properties=species:S:1:pos:R:3:forces:R:3 energy=-6.992899194706e+02 dipole="-1.0179112465e+00 -6.9289910456e-01 -4.0045963140e-02" quadrupole="-2.9135832415e+01 2.5186404325e+00 -3.4190661505e-01 2.5186404325e+00 -3.3024190743e+01 -7.8215787101e-02 -3.4190661505e-01 -7.8215787101e-02 -3.4198016220e+01" polarizability="4.3752118923e+01 1.7332944296e+00 3.0098052190e-01 1.7332944296e+00 4.3918078042e+01 -7.3643476928e-02 3.0098052190e-01 -7.3643476928e-02 4.1697120572e+01" charge=-1 multiplicity=1 method=wB97M-V basis=def2-svpd config_type=hso4- sample_index=33 temperature=300.0 units=atomic
S         0.1270821335      -0.0066702745      -0.0066779668   8.233229329859e-03   4.898988254243e-02   2.547469322276e-02
O        -1.5436154001       0.0906328182      -0.0254796920  -2.982524385032e-02  -6.900564375771e-02   8.153642730669e-03
O         0.4849056353       1.4287512082       0.0242192158  -5.105767056429e-03  -5.101378930625e-04  -5.941642281700e-03
O         0.5209509140      -0.6854491819       1.2283031443  -5.921231156077e-03  -1.882746026834e-02   1.616373402267e-02
O         0.4806638626      -0.7033697115      -1.2162111123   6.172504619979e-03  -2.594974225603e-02  -3.883589782334e-02
H        -1.9058857556      -0.9062394480       0.0453622508   2.636263926290e-02   6.530304194460e-02  -4.982826980678e-03
6
Properties=species:S:1:pos:R:3:forces:R:3 energy=-6.992912657919e+02 dipole="-6.3914333510e-01 -3.8011556526e-01 -1.4642587641e-01" quadrupole="-3.0492511383e+01 2.3222484117e+00 -2.9317400969e-01 2.3222484117e+00 -3.3277747097e+01 2.0760809356e-02 -2.9317400969e-01 2.0760809356e-02 -3.4382821424e+01" polarizability="4.3943216251e+01 -4.1129609993e-02 3.2795045970e-01 -4.1129609993e-02 4.4789869968e+01 3.8358848992e-02 3.2795045970e-01 3.8358848992e-02 4.3625010404e+01" charge=-1 multiplicity=1 method=wB97M-V basis=def2-svpd config_type=hso4- sample_index=34 temperature=300.0 units=atomic
S         0.1639982787       0.0296060049      -0.0224697332  -7.804900445412e-03  -8.540141375877e-03   4.040234277199e-02
O        -1.5628573027       0.1036807036      -0.0079575932   2.959881056971e-02   1.967564178025e-02  -2.796108255235e-03
O         0.4392061969       1.4816313461       0.0342292876   1.187542685746e-02  -1.360089591863e-02  -9.645796474718e-03
O         0.4993055120      -0.7519729109       1.2491176388  -9.598845601517e-03   2.440823017152e-02  -3.417839565294e-02
O         0.4767225583      -0.7795939656      -1.2317583679  -8.242199652342e-04   1.752697286228e-02   4.366503975703e-03
H        -1.6476863796      -0.8249701419       0.0256092715  -2.320938454058e-02  -3.947521763267e-02   1.822766714208e-03
6
Properties=species:S:1:pos:R:3:forces:R:3 energy=-6.992975813807e+02 dipole="-7.7223107499e-01 -5.9921658213e-01 2.7582423514e-02" quadrupole="-2.9803074921e+01 2.3590507683e+00 -4.4741529887e-01 2.3590507683e+00 -3.3211130856e+01 -3.4346074062e-02 -4.4741529887e-01 -3.4346074062e-02 -3.4377978929e+01" polarizability="4.4108270104e+01 7.1614847661e-01 5.5349445989e-01 7.1614847661e-01 4.4427569038e+01 -4.5781192273e-01 5.5349445989e-01 -4.5781192273e-01 4.3400557431e+01" charge=-1 multiplicity=1 method=wB97M-V basis=def2-svpd config_type=hso4- sample_index=35 temperature=300.0 units=atomic
S         0.1588546334      -0.0006324491       0.0079552567  -1.016175033205e-02   3.106110926572e-02   1.585943644269e-02
O        -1.5556790919       0.0931557023      -0.0492689609   8.220443906382e-03  -2.182549457949e-02   1.237948546391e-02
O         0.4598312251       1.4601128418      -0.0001333561   3.707347728831e-03  -2.077403003871e-02   3.191474800610e-03
O         0.5193307110      -0.7302109401       1.2727620747  -1.077639062663e-02   1.036115311628e-02  -2.399477088497e-02
O         0.4505196848      -0.7083107274      -1.2430020678   9.539653023326e-03  -1.090390143292e-02  -5.186228472787e-03
H        -1.8179923606      -0.8437088400       0.0635687093  -5.447148275053e-04   1.211918838515e-02  -2.214412897482e-03
6
Properties=species:S:1:pos:R:3:forces:R:3 energy=-6.992825690706e+02 dipole="-9.2222036310e-01 -6.2624115953e-01 -1.7463365620e-01" quadrupole="-2.9463868619e+01 1.9967959468e+00 -5.4867187306e-01 1.9967959468e+00 -3.3411606867e+01 4.0287933583e-02 -5.4867187306e-01 4.0287933583e-02 -3.4497598454e+01" polarizability="4.3893919139e+01 1.8034117190e+00 6.3381149771e-01 1.8034117190e+00 4.5527366833e+01 -1.6176604753e-01 6.3381149771e-01 -1.6176604753e-01 4.3733040362e+01" charge=-1 multiplicity=1 method=wB97M-V basis=def2-svpd config_type=hso4- sample_index=36 temperature=300.0 units=atomic
S         0.1417548999       0.0152244812      -0.0245165991   1.198649950787e-02   4.061843588229e-02   6.858096111729e-02
O        -1.5578092971      -0.0095289258      -0.0288503659   3.179478798204e-02   1.045162557720e-01  -6.533905110038e-03
O         0.5621785382       1.5106237961       0.0401934730  -2.918209190224e-02  -6.705620683707e-02  -1.262518823894e-02
O         0.4817608214      -0.6991402631       1.2774026794  -7.823749935470e-03   1.384276579703e-02  -3.628767302249e-02
O         0.4272762604      -0.7214809906      -1.2427080486   1.423776791027e-02  -7.635901302198e-03  -2.212054221598e-02
H        -1.8990784343      -0.8342897571       0.0549321905  -2.102687463281e-02  -8.420389518814e-02   8.980597470338e-03
6
Properties=species:S:1:pos:R:3:forces:R:3 energy=-6.992863616456e+02 dipole="-1.0093671668e+00 -4.2336195438e-01 3.5343689006e-02" quadrupole="-2.9795023759e+01 2.2840380062e+00 -9.6371723636e-02 2.2840380062e+00 -3.3119036718e+01 -1.2428881178e-01 -9.6371723636e-02 -1.2428881178e-01 -3.5456882146e+01" polarizability="4.3102130112e+01 1.4406248896e+00 6.6036673710e-02 1.4406248896e+00 4.6312992186e+01 1.5011784707e-01 6.6036673710e-02 1.5011784707e-01 4.6137597679e+01" charge=-1 multiplicity=1 method=wB97M-V basis=def2-svpd config_type=hso4- sample_index=37 temperature=300.0 units=atomic
S         0.1295373566       0.0321317453       0.0020813747   4.579853229892e-02  -2.276923916079e-02  -5.216738961533e-03
O        -1.5058954847       0.0368547419      -0.0123440389  -2.168103467680e-02  -4.885348797820e-02   4.345050683455e-03
O         0.5137434357       1.4795340720       0.0109267434  -9.352587343513e-03  -2.850998517189e-02  -1.883724109254e-03
O         0.4659055600      -0.7232547295       1.3083533691  -9.137874144143e-03   2.314183246447e-02  -5.017169542367e-02
O         0.4493551137      -0.7368230859      -1.3123788685  -6.313782441024e-03   2.792609442954e-02   5.500432541014e-02
H        -1.6645452068      -0.9795424393       0.0228788209   6.765085742833e-04   4.914964876902e-02  -2.081591122522e-03
6
Properties=species:S:1:pos:R:3:forces:R:3 energy=-6.992841312386e+02 dipole="-7.3885648510e-01 -6.1403910523e-01 -2.7102106200e-01" quadrupole="-2.9493703141e+01 2.2729941528e+00 -1.8014428941e-01 2.2729941528e+00 -3.2239739385e+01 1.8250629037e-01 -1.8014428941e-01 1.8250629037e-01 -3.4308589739e+01" polarizability="4.2174759502e+01 1.6207500346e+00 2.3747975791e-01 1.6207500346e+00 4.1955629256e+01 -1.9526786657e-02 2.3747975791e-01 -1.9526786657e-02 4.1721246380e+01" charge=-1 multiplicity=1 method=wB97M-V basis=def2-svpd config_type=hso4- sample_index=38 temperature=300.0 units=atomic
S         0.1623091874      -0.0020486710      -0.0367137812  -3.935060603979e-02   5.319340211147e-03   8.273054252871e-02
O        -1.5158152756       0.0531056478       0.0187192460  -2.865302625272e-02  -5.562908796688e-02  -1.006976059077e-02
O         0.4872463478       1.3820874647       0.0397294606   1.760188677515e-02   6.822746567843e-02  -1.361862360592e-02
O         0.4435291475      -0.6379722325       1.2639517189   1.243188883808e-02  -2.897764678625e-02  -2.582646616744e-04
O         0.4528868665      -0.6750971066      -1.2482765767   2.120354882930e-02  -4.432780678489e-02  -6.083615672899e-02
H        -1.8148707079      -0.9405468888      -0.0080183801   1.673408195066e-02   5.542023337762e-02   2.038399527050e-03
6
Properties=species:S:1:pos:R:3:forces:R:3 energy=-6.992889054713e+02 dipole="-7.2528157519e-01 -4.9179865702e-01 5.5766584119e-02" quadrupole="-2.9906303352e+01 2.3360855671e+00 8.7453344092e-01 2.3360855671e+00 -3.2834649980e+01 5.3540753279e-02 8.7453344092e-01 5.3540753279e-02 -3.4130392179e+01" polarizability="4.2394804903e+01 4.6778510629e-02 -1.0414544378e+00 4.6778510629e-02 4.1900521943e+01 5.8634204938e-01 -1.0414544378e+00 5.8634204938e-01 4.1971161712e+01" charge=-1 multiplicity=1 method=wB97M-V basis=def2-svpd config_type=hso4- sample_index=39 temperature=300.0 units=atomic
S         0.1538576946       0.0027054757       0.0028094696  -1.741205675882e-02  -1.774037207456e-04  -5.886812802760e-02
O        -1.5343676146       0.1161644862       0.0810083662   5.691017535444e-03  -1.099123871238e-02  -1.534674714082e-02
O         0.4304431987       1.4043396956      -0.0265840575   2.530259724506e-02   5.556240391169e-02   1.515576047653e-03
O         0.4305243891      -0.7031697898       1.2112724522   2.210632588143e-02  -3.683802398527e-02   5.060709801882e-02
O         0.5511084196      -0.7116054028      -1.2645858390  -1.729861350253e-02   4.272350211284e-03   2.267363508863e-02
H        -1.7177728949      -0.7998092580      -0.1172433868  -1.841450307040e-02  -1.186362862961e-02  -6.208102938244e-04
6
Properties=species:S:1:pos:R:3:forces:R:3 energy=-6.992929359712e+02 dipole="-6.3960874896e-01 -4.6768094352e-01 -1.0907912972e-01" quadrupole="-3.0069032697e+01 2.2641896612e+00 4.7200689365e-01 2.2641896612e+00 -3.2920443079e+01 2.6072272363e-02 4.7200689365e-01 2.6072272363e-02 -3.4567302467e+01" polarizability="4.3855331602e+01 1.3273392500e+00 -6.0145699306e-01 1.3273392500e+00 4.5125880702e+01 7.8173322296e-01 -6.0145699306e-01 7.8173322296e-01 4.3858070333e+01" charge=-1 multiplicity=1 method=wB97M-V basis=def2-svpd config_type=hso4- sample_index=40 temperature=300.0 units=atomic
S         0.1783926850       0.0290243875      -0.0233557069  -2.820134556578e-02  -6.789604439143e-03  -2.685986656088e-04
O        -1.5369290910       0.0359363366       0.0685866010  -2.944345972065e-03  -2.119723913955e-02  -2.253002931840e-02
O         0.4896348521       1.4808873944       0.0231112147   2.472170698550e-03  -1.985745052185e-02  -1.073006860485e-02
O         0.3944067895      -0.7009343041       1.2418937402   2.506053649187e-02  -5.569068038232e-03   1.494846703594e-04
O         0.4845725021      -0.7565520570      -1.2822136271  -2.582355090338e-03   2.496620546393e-02   2.839331337296e-02
H        -1.7636956398      -0.9249288852      -0.0772626922   6.232017739027e-03   2.843438128779e-02   4.949231214180e-03
6
Properties=species:S:1:pos:R:3:forces:R:3 energy=-6.992720579788e+02 dipole="-9.1631761446e-01 -2.8726838626e-01 1.1012835752e-01" quadrupole="-2.9369940405e+01 2.3306005204e+00 4.0423258983e-01 2.3306005204e+00 -3.2572743990e+01 4.2355341190e-03 4.0423258983e-01 4.2355341190e-03 -3.4297342423e+01" polarizability="4.1352061875e+01 2.3721916036e-01 -4.3292274837e-01 2.3721916036e-01 4.0663393647e+01 3.4760215633e-02 -4.3292274837e-01 3.4760215633e-02 4.1417587843e+01" charge=-1 multiplicity=1 method=wB97M-V basis=def2-svpd config_type=hso4- sample_index=41 temperature=300.0 units=atomic
S         0.1283781188       0.0386629822       0.0155596525  -8.103755756295e-04  -7.264797634545e-02  -4.074507811781e-02
O        -1.5436695742       0.0386593887       0.0223039256   6.041463684016e-02   2.070961510756e-01   1.428092507019e-02
O         0.5086355800       1.3976553178      -0.0309411642   8.709722298970e-03   7.807301420967e-02   7.055220036488e-03
O         0.4645191022      -0.7139009081       1.2105304617   5.120038652050e-03  -1.228840962142e-02   3.197507775362e-02
O         0.5047239427      -0.6928480899      -1.2306480878  -1.043737712489e-02  -7.103580371588e-04   3.835639596684e-03
H        -1.8080240024      -0.7509864881      -0.0432856122  -6.301760027538e-02  -1.995406501771e-01  -1.642271126555e-02
6
Properties=species:S:1:pos:R:3:forces:R:3 energy=-6.992893980738e+02 dipole="-9.1951640068e-01 -2.8233224638e-01 -4.2478153194e-01" quadrupole="-2.9596026776e+01 2.7008118419e+00 9.1406841807e-02 2.7008118419e+00 -3.3151232957e+01 7.5060311900e-01 9.1406841807e-02 7.5060311900e-01 -3.4452255488e+01" polarizability="4.3479170851e+01 2.4264866815e-01 2.6880594272e-01 2.4264866815e-01 4.4081646194e+01 -9.8528706280e-01 2.6880594272e-01 -9.8528706280e-01 4.2814638212e+01" charge=-1 multiplicity=1 method=wB97M-V basis=def2-svpd config_type=hso4- sample_index=42 temperature=300.0 units=atomic
S         0.1353911871       0.0450866494      -0.0409599360   2.499879597930e-03  -4.492734780132e-02   1.073833213275e-01
O        -1.5501155240       0.0885066285       0.0464316543   5.029602286850e-03   2.871226438147e-03  -1.194969103490e-02
O         0.4628660628       1.4553691897      -0.0183769282   5.628552480738e-03   2.178535670086e-02  -2.018258588492e-03
O         0.4808882597      -0.7858852578       1.2394589891  -1.309533905048e-02   4.089024153087e-02  -4.140858470166e-02
O         0.5256835609      -0.7349974051      -1.1809770470   2.365464229772e-03  -1.593236887865e-02  -5.348836915913e-02
H        -1.8082063770      -0.8288719423      -0.0804935654  -2.409709470541e-03  -4.709394796346e-03   1.582468746091e-03
6
Properties=species:S:1:pos:R:3:forces:R:3 energy=-6.992750956137e+02 dipole="-1.4054205633e+00 -3.9756406184e-01 2.9373274620e-01" quadrupole="-2.8507677930e+01 2.3152731874e+00 2.5093421128e-01 2.3152731874e+00 -3.2831688623e+01 -3.4833420412e-01 2.5093421128e-01 -3.4833420412e-01 -3.4749474554e+01" polarizability="3.9545957543e+01 1.7494425239e+00 -3.9946555019e-01 1.7494425239e+00 4.2763628866e+01 4.9017620068e-01 -3.9946555019e-01 4.9017620068e-01 4.1205094745e+01" charge=-1 multiplicity=1 method=wB97M-V basis=def2-svpd config_type=hso4- sample_index=43 temperature=300.0 units=atomic
S         0.0752745612       0.0508929417       0.0304300789   1.181281494968e-01  -1.804513849030e-02  -8.901035408766e-02
O        -1.4385579942      -0.0059051882      -0.0024242291  -1.126089134792e-01   1.366142010398e-02   1.980775135216e-03
O         0.5569332982       1.4303291278      -0.0156256028  -1.790266897669e-02   1.991668023512e-02   6.880688336044e-03
O         0.4514425639      -0.7007612430       1.1818670106   1.567549234931e-02  -3.135306538498e-02   7.164747725065e-02
O         0.4641765640      -0.7081656953      -1.2248372260  -8.063966992691e-03   1.035939194553e-02   9.314241851541e-03
H        -1.7139043686      -0.9360032708       0.0012333922   4.746456033013e-03   5.464693188146e-03  -9.035599328944e-04
6
Properties=species:S:1:pos:R:3:forces:R:3 energy=-6.992906403208e+02 dipole="-9.6022836919e-01 -4.8945458012e-01 9.9614076071e-02" quadrupole="-2.8946247516e+01 2.7198398980e+00 -3.9672210069e-01 2.7198398980e+00 -3.3209618018e+01 -2.6673653488e-01 -3.9672210069e-01 -2.6673653488e-01 -3.4847202595e+01" polarizability="4.3685708934e+01 1.1972812768e+00 2.5831277701e-01 1.1972812768e+00 4.4940345596e+01 7.0853376535e-02 2.5831277701e-01 7.0853376535e-02 4.4203151101e+01" charge=-1 multiplicity=1 method=wB97M-V basis=def2-svpd config_type=hso4- sample_index=44 temperature=300.0 units=atomic
S         0.1527025564       0.0085097668       0.0092642303   2.868539474828e-03  -2.139923023490e-02  -1.235347022087e-02
O        -1.5031946090       0.1017320533      -0.0458497650  -4.225499076109e-02  -6.394760088821e-02   1.623712148607e-02
O         0.4354274186       1.4458741055       0.0208926168   1.292927929354e-02   6.295840293234e-03  -2.017777820951e-03
O         0.5104688991      -0.7156312916       1.2766961700  -7.055445545329e-03   7.031508121509e-03  -2.341770855639e-02
O         0.4487153204      -0.7337894617      -1.2744285371   4.286979637318e-03   1.218967553870e-02   2.979814307291e-02
H        -1.9001650498      -0.8679370554       0.0729375340   2.921937092628e-02   5.983074527596e-02  -8.260023434743e-03
6
Properties=species:S:1:pos:R:3:forces:R:3 energy=-6.992874499745e+02 dipole="-5.1205119632e-01 -5.6806883735e-01 -2.7092956263e-03" quadrupole="-3.0607595217e+01 2.3275521370e+00 -2.0161585715e-01 2.3275521370e+00 -3.3232854723e+01 1.7255118807e-01 -2.0161585715e-01 1.7255118807e-01 -3.3876123462e+01" polarizability="4.4134324353e+01 8.5615505411e-02 4.1686368252e-01 8.5615505411e-02 4.4631955458e+01 -7.5783060218e-01 4.1686368252e-01 -7.5783060218e-01 4.2034939418e+01" charge=-1 multiplicity=1 method=wB97M-V basis=def2-svpd config_type=hso4- sample_index=45 temperature=300.0 units=atomic
S         0.1778786367       0.0056089208       0.0103129887  -3.502232553442e-02   5.124444881451e-02   2.567760600427e-02
O        -1.5638564927       0.1419439668      -0.0287771434   2.201123493390e-02  -6.414937068318e-02   1.008049757591e-02
O         0.4042288593       1.4724657209      -0.0277157464   2.196936381389e-02  -1.416200945608e-02   8.729107870600e-03
O         0.5117838216      -0.7818254786       1.2269278966  -4.501582479024e-03   1.463018642440e-02  -1.672441071861e-03
O         0.4731920225      -0.7279401715      -1.1924617101   1.355043922368e-02  -2.157148195838e-02  -4.037427278497e-02
H        -1.6597777827      -0.8618116310       0.0211629082  -1.797505901266e-02   3.405073030340e-02  -2.390313292468e-03
6
Properties=species:S:1:pos:R:3:forces:R:3 energy=-6.992843044091e+02 dipole="-9.1304923280e-01 -3.5908896518e-01 2.1989162698e-01" quadrupole="-2.9607296943e+01 2.8164767388e+00 3.0463317214e-01 2.8164767388e+00 -3.2745217506e+01 -1.5053527886e-01 3.0463317214e-01 -1.5053527886e-01 -3.4803113464e+01" polarizability="4.4431087107e+01 1.6183297386e+00 -3.7939950162e-01 1.6183297386e+00 4.5513421837e+01 1.9052745490e-01 -3.7939950162e-01 1.9052745490e-01 4.3560528820e+01" charge=-1 multiplicity=1 method=wB97M-V basis=def2-svpd config_type=hso4- sample_index=46 temperature=300.0 units=atomic
S         0.1431603014       0.0439477377       0.0284649451   1.127422898883e-03  -5.706697697534e-02  -5.879895567356e-02
O        -1.5436745553       0.0638942649       0.0022806886  -2.421014181676e-02  -7.419519546488e-02   1.558462871162e-03
O         0.4892229017       1.4532632927      -0.0302523145   2.145256960512e-03   1.777484084619e-02   9.394129590356e-03
O         0.4715600821      -0.7499759910       1.2242864073   2.719027954678e-03   7.441896620412e-03   1.166047399508e-02
O         0.4893270896      -0.7327347032      -1.2525703528  -9.383128925764e-03   2.395671463156e-02   3.516509836237e-02
H        -1.8417925009      -0.9911273681      -0.0144118344   2.761753222320e-02   8.207476375723e-02   1.031610975422e-03
6
Properties=species:S:1:pos:R:3:forces:R:3 energy=-6.992896517964e+02 dipole="-9.8902424663e-01 -7.8248759426e-01 -3.9232587370e-02" quadrupole="-2.9832649479e+01 1.8133883825e+00 -6.1716901096e-01 1.8133883825e+00 -3.3077451532e+01 -2.6446596486e-01 -6.1716901096e-01 -2.6446596486e-01 -3.4293063956e+01" polarizability="4.3173245380e+01 2.3964745952e+00 5.9364655041e-01 2.3964745952e+00 4.4784053366e+01 1.0289345392e-01 5.9364655041e-01 1.0289345392e-01 4.2304113843e+01" charge=-1 multiplicity=1 method=wB97M-V basis=def2-svpd config_type=hso4- sample_index=47 temperature=300.0 units=atomic
S         0.1193298455       0.0013597094      -0.0108703523   2.994441306109e-02   8.220854476309e-02   3.435449087570e-02
O        -1.5472671800       0.0024332521      -0.0521824408  -1.241258322578e-02  -2.179994804187e-02   1.358680180452e-02
O         0.5758528433       1.4721558980       0.0525343804  -3.017241235305e-02  -4.846641954017e-02  -1.384506929941e-02
O         0.5007358171      -0.6567327703       1.2481853407  -6.708175032861e-03  -1.862857817257e-02   6.293858480166e-03
O         0.4199900735      -0.7018213817      -1.2321018025   1.544198145444e-02  -2.255496740504e-02  -3.551345079424e-02
H        -1.7543084787      -0.9647644810       0.0955017497   3.860331683744e-03   2.930706175537e-02  -4.815055228584e-03
6
Properties=species:S:1:pos:R:3:forces:R:3 energy=-6.992875721246e+02 dipole="-4.7564728062e-01 -4.7585312314e-01 -3.0798763237e-01" quadrupole="-3.0510086775e+01 2.1930926401e+00 3.1228151130e-01 2.1930926401e+00 -3.2868993079e+01 6.0200134477e-01 3.1228151130e-01 6.0200134477e-01 -3.3887453051e+01" polarizability="4.4394882473e+01 5.3669724433e-01 -9.0002621672e-02 5.3669724433e-01 4.3224490918e+01 -7.6773039079e-01 -9.0002621672e-02 -7.6773039079e-01 4.2047622896e+01" charge=-1 multiplicity=1 method=wB97M-V basis=def2-svpd config_type=hso4- sample_index=48 temperature=300.0 units=atomic
S         0.1829181154       0.0231849472      -0.0288264467  -4.881923448515e-02   2.238688396117e-02   9.165070540856e-02
O        -1.5929854988       0.0601251444       0.0566011707   4.214099221468e-02   7.156668689188e-02  -1.150107922997e-03
O         0.4786445011       1.4632368017      -0.0259543073   5.371157360725e-03  -4.234062357686e-03   8.301632912904e-04
O         0.4354084266      -0.7508742367       1.2352471518   8.163066889823e-03   1.653432041435e-02  -1.722488742874e-02
O         0.5017734070      -0.7076320854      -1.2028292557   1.396730557423e-02  -3.224809718446e-02  -6.324426084743e-02
H        -1.7712109248      -0.8135260436      -0.0947629367  -2.080802503952e-02  -7.402089181048e-02  -1.081071658421e-02
6
Properties=species:S:1:pos:R:3:forces:R:3 energy=-6.992948157263e+02 dipole="-8.4209132629e-01 -5.8725091159e-01 -6.1335330719e-02" quadrupole="-2.9617624156e+01 2.5398595260e+00 -4.0640846268e-02 2.5398595260e+00 -3.3738251191e+01 -1.4259456746e-01 -4.0640846268e-02 -1.4259456746e-01 -3.4330208616e+01" polarizability="4.4306460690e+01 3.1754309919e-01 -9.5410881663e-02 3.1754309919e-01 4.5936976204e+01 5.9635936109e-01 -9.5410881663e-02 5.9635936109e-01 4.3531786001e+01" charge=-1 multiplicity=1 method=wB97M-V basis=def2-svpd config_type=hso4- sample_index=49 temperature=300.0 units=atomic
S         0.1550946344       0.0028708996      -0.0174695512  -3.510931485500e-04   3.545289462395e-02   8.484612466359e-03
O        -1.5484154917       0.1262822093       0.0115812630   7.941196349222e-03  -2.250545970156e-02  -5.104343752118e-03
O         0.4252295896       1.4984186140       0.0393384306   5.328080542918e-03  -4.658295290537e-02  -1.178372564957e-02
O         0.4975998879      -0.7317278195       1.2297795422  -2.573416062244e-03   3.831016406664e-03  -7.765044368305e-03
O         0.5072246665      -0.7864113628      -1.2458740350  -8.921727914459e-03   2.190996166300e-02   1.602596485547e-02
H        -1.8322444568      -0.8067579491       0.0057621565  -1.397585853461e-03   7.919916150220e-03   1.087738009744e-04
6
Properties=species:S:1:pos:R:3:forces:R:3 energy=-6.992921862895e+02 dipole="-7.1707138951e-01 -3.1851662343e-01 1.2273353739e-01" quadrupole="-3.0800667833e+01 2.0038423433e+00 -2.5774678706e-02 2.0038423433e+00 -3.2570887046e+01 -3.2012806226e-01 -2.5774678706e-02 -3.2012806226e-01 -3.4495802786e+01" polarizability="4.3846458925e+01 7.1326241613e-01 -1.3366560649e-01 7.1326241613e-01 4.2953941337e+01 5.6890733898e-01 -1.3366560649e-01 5.6890733898e-01 4.2900367456e+01" charge=-1 multiplicity=1 method=wB97M-V basis=def2-svpd config_type=hso4- sample_index=50 temperature=300.0 units=atomic
S         0.1336991704       0.0428878687       0.0075062017   1.009366434381e-02  -3.790730029144e-02  -3.721791652400e-02
O        -1.5899136892       0.0419651510      -0.0110452197   2.914789002931e-02   9.162450615740e-03   2.227496182429e-03
O         0.5288255120       1.4298176449       0.0223742127   1.050129723820e-03   3.321227568728e-02  -4.241912078917e-03
O         0.4907683044      -0.7002055136       1.2256715290  -5.460928345150e-03  -6.757161056502e-03   1.042553487370e-02
O         0.4798947300      -0.7407957226      -1.2536412176  -1.278868548927e-02   2.206893591988e-02   2.892088768913e-02
H        -1.5848134853      -0.9093829498       0.0299342453  -2.204428840805e-02  -1.977384684004e-02  -1.436246465492e-04
6
Properties=species:S:1:pos:R:3:forces:R:3 energy=-6.992948055973e+02 dipole="-6.2420895669e-01 -5.5171608400e-01 -6.1727176122e-02" quadrupole="-2.9711027592e+01 2.3945738533e+00 -2.1519472913e-02 2.3945738533e+00 -3.3229386176e+01 1.3749160416e-01 -2.1519472913e-02 1.3749160416e-01 -3.3969317693e+01" polarizability="4.3483556558e+01 1.0881506519e+00 9.1740452282e-02 1.0881506519e+00 4.4843802681e+01 -2.7591145823e-01 9.1740452282e-02 -2.7591145823e-01 4.1909246833e+01" charge=-1 multiplicity=1 method=wB97M-V basis=def2-svpd config_type=hso4- sample_index=51 temperature=300.0 units=atomic
S         0.1830060479       0.0227109441      -0.0042478158  -4.336274742510e-02   3.658938803662e-02   2.481977383507e-02
O        -1.5444321484       0.0587717520       0.0023339179   5.695944562721e-03   1.266140044280e-02  -4.460260326000e-04
O         0.4644080085       1.5020975106      -0.0072558580   1.516449657133e-03  -3.972281151780e-02   1.063030027173e-03
O         0.4536248258      -0.7543968885       1.2144343110   1.284626184017e-02   5.838866086149e-03   1.364951676837e-02
O         0.4542658012      -0.7383040649      -1.2005520125   1.835120007343e-02  -1.112608954923e-02  -3.925339625992e-02
H        -1.8601415593      -0.8493366579      -0.0086304770   4.957001191360e-03  -4.235249379330e-03   1.961402431740e-04
6
Properties=species:S:1:pos:R:3:forces:R:3 energy=-6.992928094353e+02 dipole="-8.8539782560e-01 -3.6185754410e-01 1.3030134915e-01" quadrupole="-2.9725956789e+01 2.3564291738e+00 -1.4024062757e-01 2.3564291738e+00 -3.2454391012e+01 -5.1814712338e-01 -1.4024062757e-01 -5.1814712338e-01 -3.4804520904e+01" polarizability="4.2792010986e+01 9.2224732850e-01 -1.6544674973e-01 9.2224732850e-01 4.2404681186e+01 1.0128633344e+00 -1.6544674973e-01 1.0128633344e+00 4.3327733560e+01" charge=-1 multiplicity=1 method=wB97M-V basis=def2-svpd config_type=hso4- sample_index=52 temperature=300.0 units=atomic
S         0.1354182043       0.0313708590       0.0001983432   4.290596874927e-04  -6.455281064922e-02  -4.470805588949e-02
O        -1.5472669097       0.0368931341      -0.0142206259   2.482422646626e-03   1.010470176185e-02   6.528041519752e-04
O         0.5187032049       1.4006618479       0.0562419404   7.342466439725e-03   6.351751617400e-02  -1.361082887405e-02
O         0.4823039133      -0.6482714109       1.2445802773   1.608709874573e-03  -2.670774774161e-02   1.631981726101e-02
O         0.4645387741      -0.7367858508      -1.2898083858  -9.034171998583e-03   2.422602650435e-02   4.173089882477e-02
H        -1.7701305722      -0.8931737453       0.0533692746  -2.880281111282e-03  -6.569921150492e-03  -4.411976784745e-04
6
Properties=species:S:1:pos:R:3:forces:R:3 energy=-6.992881630256e+02 dipole="-8.4207863652e-01 -4.8500845486e-01 -1.0172243727e-02" quadrupole="-2.9852389998e+01 2.0090297336e+00 -1.2439590101e-01 2.0090297336e+00 -3.2732643066e+01 1.2619034599e-01 -1.2439590101e-01 1.2619034599e-01 -3.4336048830e+01" polarizability="4.1010436554e+01 4.0179082902e-01 2.5080335876e-01 4.0179082902e-01 4.1281346885e+01 -4.5381716932e-01 2.5080335876e-01 -4.5381716932e-01 4.1941993254e+01" charge=-1 multiplicity=1 method=wB97M-V basis=def2-svpd config_type=hso4- sample_index=53 temperature=300.0 units=atomic
S         0.1326762307       0.0094878923       0.0055113438   1.470895098771e-02   2.751283654689e-04   1.866794029386e-02
O        -1.5191496572       0.0692518622      -0.0174466075   8.139628821983e-03   7.444246697065e-02   2.824607638881e-03
O         0.4825829135       1.4029755003      -0.0187710574   1.239822646500e-02   4.629927732374e-02   6.416217867292e-03
O         0.4875983596      -0.7085130690       1.2624835385  -7.553717873537e-03  -1.495169295776e-03  -1.110101478229e-02
O         0.4636662856      -0.6715659290      -1.2380643972   5.679513007123e-03  -2.683114185313e-02  -1.930387862381e-02
H        -1.6283264718      -0.8185373498       0.0113894367  -3.345498561829e-02  -9.267478927203e-02   2.551309708948e-03
6
Properties=species:S:1:pos:R:3:forces:R:3 energy=-6.992832718916e+02 dipole="-8.6237271083e-01 -7.7723195691e-01 7.5005077415e-02" quadrupole="-3.0770003071e+01 1.7439438530e+00 -7.5721853895e-02 1.7439438530e+00 -3.3205267673e+01 9.5622402842e-02 -7.5721853895e-02 9.5622402842e-02 -3.4316246545e+01" polarizability="4.5366796361e+01 1.4555731432e+00 2.3379887201e-01 1.4555731432e+00 4.5369398787e+01 -6.2212529461e-01 2.3379887201e-01 -6.2212529461e-01 4.3445072157e+01" charge=-1 multiplicity=1 method=wB97M-V basis=def2-svpd config_type=hso4- sample_index=54 temperature=300.0 units=atomic
S         0.1171483531      -0.0132181616       0.0198124930   3.857690969666e-02   9.062540026439e-02  -5.827214680395e-03
O        -1.6063229996       0.0689061255      -0.0255171651   3.130424741058e-02  -6.471597300459e-02   1.019889570425e-02
O         0.5413165176       1.4641123649      -0.0376651200  -2.238517690068e-02  -4.703150812234e-02   1.386999465588e-02
O         0.5196657001      -0.7223709900       1.2647324373  -1.782448934099e-02   5.538745027831e-04  -1.100277357737e-02
O         0.4907299984      -0.6645610377      -1.2421720641  -7.146825979109e-03  -2.265552153530e-02  -4.557371049689e-03
H        -1.6248098280      -0.9582415528       0.0133247772  -2.258389271812e-02   4.321387046250e-02  -2.667189792832e-03
6
Properties=species:S:1:pos:R:3:forces:R:3 energy=-6.992956352559e+02 dipole="-7.6555826715e-01 -3.9254273322e-01 -5.0612070607e-03" quadrupole="-3.0059047619e+01 2.1981785359e+00 -5.6046515474e-02 2.1981785359e+00 -3.2786095968e+01 2.4099323951e-01 -5.6046515474e-02 2.4099323951e-01 -3.4390593600e+01" polarizability="4.2901434863e+01 9.1881558668e-01 2.3007878831e-01 9.1881558668e-01 4.3247407994e+01 -7.5507640245e-01 2.3007878831e-01 -7.5507640245e-01 4.2495259060e+01" charge=-1 multiplicity=1 method=wB97M-V basis=def2-svpd config_type=hso4- sample_index=55 temperature=300.0 units=atomic
S         0.1470985776       0.0389839517       0.0108900090  -3.943570926542e-03  -2.092638692193e-02   1.732298149564e-02
O        -1.5563509871       0.0287217546      -0.0144129449   1.943757788128e-02   6.259421400147e-02   4.762907471463e-03
O         0.5180261017       1.4546228157      -0.0386899385  -4.101143794809e-03   5.325253369588e-03   1.110135104623e-02
O         0.4739460376      -0.7551803091       1.2483636216  -5.105534461308e-03   2.175411882066e-02  -1.571426639091e-02
O         0.4564150395      -0.6920591532      -1.2170527405   7.992014726076e-03  -1.207104831449e-02  -1.819423605862e-02
H        -1.7331057316      -0.8711527693      -0.0035630362  -1.427071325293e-02  -5.665402390318e-02   7.783416964465e-04
6
Properties=species:S:1:pos:R:3:forces:R:3 energy=-6.992843792588e+02 dipole="-8.9488588252e-01 -3.0555449482e-01 -1.6249311996e-01" quadrupole="-2.8201528639e+01 3.0017557279e+00 -5.1251730188e-01 3.0017557279e+00 -3.3401994681e+01 -1.4862419458e-01 -5.1251730188e-01 -1.4862419458e-01 -3.4374091880e+01" polarizability="4.2886241600e+01 3.9434095345e-01 2.6473030303e-01 3.9434095345e-01 4.3849868640e+01 4.4051874353e-01 2.6473030303e-01 4.4051874353e-01 4.2550549737e+01" charge=-1 multiplicity=1 method=wB97M-V basis=def2-svpd config_type=hso4- sample_index=56 temperature=300.0 units=atomic
S         0.1753813803       0.0260747667      -0.0322402350  -2.859777603985e-02  -6.836408706104e-02   4.381786258081e-02
O        -1.4748124576       0.1355461874      -0.0143584260  -5.582251932195e-02  -2.915772280169e-02  -4.067504173566e-04
O         0.3616236914       1.4403486680       0.0702090144   3.574435908699e-02   5.052020760451e-02  -1.609264117544e-02
O         0.5008080658      -0.7235475601       1.2243678239   4.222037647595e-03   7.011986260355e-03  -1.059532037112e-02
O         0.4652611239      -0.7978013468      -1.2184928914   1.081033540407e-02   1.434698513854e-02  -1.325797727689e-02
H        -2.0208560697      -0.7078318052       0.0537540095   3.361508582110e-02   2.559798693371e-02  -3.475703306899e-03
6
Properties=species:S:1:pos:R:3:forces:R:3 energy=-6.992899668775e+02 dipole="-6.8159894202e-01 -7.0793849480e-01 2.3770651885e-01" quadrupole="-2.9745876594e+01 2.4333431839e+00 -4.2359489296e-02 2.4333431839e+00 -3.3629718243e+01 -1.9501215786e-01 -4.2359489296e-02 -1.9501215786e-01 -3.3764381881e+01" polarizability="4.4461755699e+01 6.4538244949e-01 1.5691567132e-02 6.4538244949e-01 4.5344907630e+01 -1.1347848541e-01 1.5691567132e-02 -1.1347848541e-01 4.1827804342e+01" charge=-1 multiplicity=1 method=wB97M-V basis=def2-svpd config_type=hso4- sample_index=57 temperature=300.0 units=atomic
S         0.1723160853      -0.0062654854       0.0344430386  -3.610206345718e-02   8.742699504724e-02  -6.538506874753e-02
O        -1.5616903761       0.1217245770      -0.0350290529   1.066208412894e-02  -2.396741996899e-02   1.176403329555e-02
O         0.4252434414       1.5013405865      -0.0285760523   6.089426968574e-03  -5.272762019588e-02   1.278115274525e-02
O         0.5100799032      -0.7645716773       1.1967479605   9.843857577672e-03  -1.821186753023e-02   5.529238997708e-02
O         0.4758162912      -0.7337646048      -1.2042357379   7.150898677118e-03  -4.535842379436e-03  -1.261576660755e-02
H        -1.8679604029      -0.8064724600       0.0348378827   2.380296545169e-03   1.209459741263e-02  -1.844154803220e-03
6
Properties=species:S:1:pos:R:3:forces:R:3 energy=-6.992891863861e+02 dipole="-8.4951989195e-01 -2.6945002355e-01 -6.5875302591e-03" quadrupole="-3.0453624547e+01 2.1474761997e+00 -1.7494320997e-04 2.1474761997e+00 -3.2300132395e+01 -4.5740482171e-02 -1.7494320997e-04 -4.5740482171e-02 -3.5000761659e+01" polarizability="4.3100671250e+01 7.6793797816e-01 -4.0843613904e-02 7.6793797816e-01 4.2633930298e+01 1.5018732514e-01 -4.0843613904e-02 1.5018732514e-01 4.3883996462e+01" charge=-1 multiplicity=1 method=wB97M-V basis=def2-svpd config_type=hso4- sample_index=58 temperature=300.0 units=atomic
S         0.1226034382       0.0425436490      -0.0032463955   1.955915898837e-02  -8.594674567642e-02  -7.477424566839e-04
O        -1.5607451850       0.0410204729       0.0029325611   1.305067333460e-02  -3.075495979963e-02  -1.330860818941e-03
O         0.5296644945       1.3955292886       0.0094784386   1.171344293670e-02   7.623284867586e-02  -2.551259079130e-03
O         0.4801963685      -0.6941465419       1.2707435132  -1.211211731974e-02   6.388587991577e-03  -2.695543804291e-02
O         0.4832726908      -0.7085494244      -1.2766935772  -1.411327851117e-02   1.285363028152e-02   3.145673911094e-02
H        -1.5882575426      -0.9530293680       0.0014666373  -1.813261711181e-02   2.122587237330e-02   1.248472845484e-04
6
Properties=species:S:1:pos:R:3:forces:R:3 energy=-6.992936633134e+02 dipole="-7.6980116352e-01 -4.8983036237e-01 -1.8015721128e-01" quadrupole="-2.9600904417e+01 2.3824160873e+00 -2.3532701974e-01 2.3824160873e+00 -3.2640877154e+01 -8.1758021622e-03 -2.3532701974e-01 -8.1758021622e-03 -3.4798887689e+01" polarizability="4.4356959800e+01 1.7769116787e+00 2.0781615214e-01 1.7769116787e+00 4.4376355487e+01 2.6364746504e-01 2.0781615214e-01 2.6364746504e-01 4.4192934186e+01" charge=-1 multiplicity=1 method=wB97M-V basis=def2-svpd config_type=hso4- sample_index=59 temperature=300.0 units=atomic
S         0.1654549640       0.0222353705      -0.0298004747  -1.990125716689e-02  -2.198964162871e-02   4.514440030144e-02
O        -1.5511307548       0.0176058848       0.0053432766  -1.021159423315e-02  -1.801734208528e-02  -4.521754994640e-03
O         0.5224803097       1.4452315950       0.0482627850  -3.700916566618e-03   1.092545744743e-03  -1.536516313378e-02
O         0.4504557773      -0.6693338440       1.2852308340   4.341708408628e-03   8.080741928502e-04  -3.221345017462e-02
O         0.4443275401      -0.7209465651      -1.2798954170   7.912628370082e-03   5.301167696393e-03   7.366846383622e-03
H        -1.8922089485      -0.9286642397       0.0159198848   2.157937230621e-02   3.285754543372e-02  -4.778340011375e-04
6
Properties=species:S:1:pos:R:3:forces:R:3 energy=-6.992898923858e+02 dipole="-7.4434051512e-01 -4.1801764177e-01 -6.0157598477e-02" quadrupole="-2.9759002457e+01 2.5561542985e+00 7.4531509515e-02 2.5561542985e+00 -3.3352647656e+01 4.7064663567e-01 7.4531509515e-02 4.7064663567e-01 -3.4095849986e+01" polarizability="4.4158097794e+01 9.6218511845e-01 2.0810970277e-01 9.6218511845e-01 4.5734219652e+01 -1.2142946724e+00 2.0810970277e-01 -1.2142946724e+00 4.2293031241e+01" charge=-1 multiplicity=1 method=wB97M-V basis=def2-svpd config_type=hso4- sample_index=60 temperature=300.0 units=atomic
S         0.1628736736       0.0458820757       0.0108183532  -2.044303553857e-02   2.263774893496e-03   3.356908387288e-02
O        -1.5645028227       0.0526932007      -0.0009592387   1.173158837910e-02   2.397260418265e-02   3.402405514298e-03
O         0.4839856254       1.5172686873      -0.0610834213  -7.826226189080e-03  -4.124230132026e-02   1.491613010435e-02
O         0.4736700151      -0.8205270423       1.2079286035  -1.915026242335e-03   3.770002696805e-02  -3.629166388414e-03
O         0.4748108029      -0.7270845916      -1.1658446706   1.373702161437e-02  -1.186224998699e-02  -4.859941357133e-02
H        -1.8674457524      -0.8528699112      -0.0345429145   4.738934095754e-03  -1.083402753444e-02   4.156256842785e-04
6
Properties=species:S:1:pos:R:3:forces:R:3 energy=-6.992910675566e+02 dipole="-8.0852273023e-01 -4.2196600646e-01 1.2178669047e-01" quadrupole="-2.9182761754e+01 2.4250339210e+00 1.3799289108e-01 2.4250339210e+00 -3.2827396303e+01 2.0839676049e-02 1.3799289108e-01 2.0839676049e-02 -3.4696326444e+01" polarizability="4.2205225467e+01 3.2366160903e-01 -8.9981022554e-02 3.2366160903e-01 4.2244366375e+01 -2.5368445019e-01 -8.9981022554e-02 -2.5368445019e-01 4.3689293537e+01" charge=-1 multiplicity=1 method=wB97M-V basis=def2-svpd config_type=hso4- sample_index=61 temperature=300.0 units=atomic
S         0.1639133519       0.0109739602       0.0209735091  -1.980548248483e-02  -4.518975237906e-02  -2.649496981837e-02
O        -1.5175694895       0.0691960023      -0.0067562133   2.232081531619e-02   7.621238722141e-02   4.537025580213e-03
O         0.4560178104       1.4131718832      -0.0358361871   1.717023950020e-02   4.489301088684e-02   1.052074494953e-02
O         0.4643187006      -0.7188836679       1.2850090556   3.224638094751e-03   4.577115582833e-03  -1.640248387774e-02
O         0.4640648696      -0.6774381339      -1.2840603846   3.122377582608e-03  -3.369935751058e-03   2.803565029836e-02
H        -1.8563538008      -0.7649400284      -0.0086441483  -2.603970295908e-02  -7.710602261814e-02  -1.276521115751e-04
6
Properties=species:S:1:pos:R:3:forces:R:3 energy=-6.992851084335e+02 dipole="-7.1877271359e-01 -2.2357131212e-01 -7.4869963657e-02" quadrupole="-2.9359891681e+01 2.3979714479e+00 -6.9779310847e-02 2.3979714479e+00 -3.2482576258e+01 2.1838436093e-01 -6.9779310847e-02 2.1838436093e-01 -3.4736783496e+01" polarizability="4.1585029539e+01 8.2736360289e-01 1.9117017678e-01 8.2736360289e-01 4.2267031954e+01 -5.3280862118e-01 1.9117017678e-01 -5.3280862118e-01 4.3117345030e+01" charge=-1 multiplicity=1 method=wB97M-V basis=def2-svpd config_type=hso4- sample_index=62 temperature=300.0 units=atomic
S         0.1723106302       0.0541662225      -0.0020630992  -3.517709608889e-02  -1.024597115674e-01   2.774167399658e-02
O        -1.5017532305       0.0020054978      -0.0042275974   1.387415498022e-02   1.138644010509e-01   2.175600943466e-03
O         0.4985283842       1.4343706794      -0.0183970842   1.405354744316e-02   5.883146154454e-02   4.161996365349e-03
O         0.4294771458      -0.7352644697       1.2725241593   1.022984741179e-02   2.359101312129e-02  -2.816916587993e-02
O         0.4209425666      -0.6983509297      -1.2454738569   1.944978206284e-02  -2.380304151988e-03  -6.017126891113e-03
H        -1.8144797326      -0.8322632051      -0.0068975153  -2.243699238452e-02  -9.152335000374e-02   1.297091016784e-04
6
Properties=species:S:1:pos:R:3:forces:R:3 energy=-6.992855488490e+02 dipole="-1.0441277039e+00 -2.3937482922e-01 3.6954411067e-02" quadrupole="-2.8629366049e+01 2.6024191938e+00 5.3579665433e-01 2.6024191938e+00 -3.2735013668e+01 1.6004613987e-01 5.3579665433e-01 1.6004613987e-01 -3.5462466243e+01" polarizability="4.3143939251e+01 1.3927616138e+00 -4.2199814800e-01 1.3927616138e+00 4.3871595494e+01 -1.1843792051e-01 -4.2199814800e-01 -1.1843792051e-01 4.5480334635e+01" charge=-1 multiplicity=1 method=wB97M-V basis=def2-svpd config_type=hso4- sample_index=63 temperature=300.0 units=atomic
S         0.1437680025       0.0479874253       0.0101232476   8.851833187055e-03  -1.055425059464e-01  -1.906724036046e-02
O        -1.5031903399      -0.0016690159       0.0388563021  -2.824421701220e-02   2.976680513445e-02  -3.920213597918e-03
O         0.5244103293       1.4322157877      -0.0410098809   6.381797424559e-04   3.660385118274e-02   8.760923186489e-03
O         0.4152312717      -0.7244679989       1.2976253849   8.478599323380e-03   2.317299303444e-02  -3.586645971793e-02
O         0.4763962604      -0.6900203223      -1.3117397640  -7.571064323392e-03   1.964916749460e-02   5.090298768648e-02
H        -1.9481327673      -0.8500914185      -0.0717696958   1.783516552166e-02  -3.634901949664e-03  -7.632394468852e-04
6
Properties=species:S:1:pos:R:3:forces:R:3 energy=-6.992966827550e+02 dipole="-8.1890204058e-01 -3.4409056728e-01 2.0747320058e-01" quadrupole="-2.9768471813e+01 2.4847918765e+00 3.1378291926e-01 2.4847918765e+00 -3.2797780662e+01 -1.4055827774e-01 3.1378291926e-01 -1.4055827774e-01 -3.4613028268e+01" polarizability="4.3227038017e+01 5.9192999629e-01 -4.0181371273e-01 5.9192999629e-01 4.3298277831e+01 1.8471893701e-01 -4.0181371273e-01 1.8471893701e-01 4.3239574834e+01" charge=-1 multiplicity=1 method=wB97M-V basis=def2-svpd config_type=hso4- sample_index=64 temperature=300.0 units=atomic
S         0.1483993273       0.0356999772       0.0266900932  -5.885509097237e-03  -4.988899250108e-02  -5.807845825511e-02
O        -1.5512438684       0.0577642318       0.0048782735   1.253056014179e-02   2.677416749455e-02   2.831802585622e-03
O         0.4877702239       1.4382127762      -0.0293891809   5.566975268260e-03   2.795422399183e-02   8.809001115372e-03
O         0.4679820555      -0.7350118484       1.2347700804   3.541354309840e-03   1.472974349610e-03   1.101580874354e-02
O         0.4886583847      -0.7188041119      -1.2627740890  -9.284700242592e-03   1.817170228901e-02   3.639739906351e-02
H        -1.7922720026      -0.8529065276      -0.0175821922  -6.472532078793e-03  -2.448448958597e-02  -9.553709293268e-04
6
Properties=species:S:1:pos:R:3:forces:R:3 energy=-6.992939128308e+02 dipole="-7.8458591352e-01 -6.3043859542e-01 -9.8620154397e-02" quadrupole="-2.9238099443e+01 2.4815926523e+00 1.7760146106e-01 2.4815926523e+00 -3.3741881863e+01 1.4140654766e-01 1.7760146106e-01 1.4140654766e-01 -3.3889345014e+01" polarizability="4.2605179847e+01 2.8428470271e-01 -1.4218336760e-01 2.8428470271e-01 4.4648193181e+01 4.1835989338e-03 -1.4218336760e-01 4.1835989338e-03 4.1682642706e+01" charge=-1 multiplicity=1 method=wB97M-V basis=def2-svpd config_type=hso4- sample_index=65 temperature=300.0 units=atomic
S         0.1673359226      -0.0005402203      -0.0125010007  -2.457478444672e-02   6.268840383197e-02   1.985430573352e-02
O        -1.5143765829       0.1277510999       0.0276514224   1.523815418548e-03   6.680701706433e-03  -5.442222054934e-03
O         0.4008317520       1.4943383517       0.0003846193   1.451988525349e-02  -4.002614233172e-02  -2.825056413153e-03
O         0.4687353491      -0.7542065809       1.2036408761   1.024473708710e-02  -3.328898156884e-03   2.005817161520e-02
O         0.5028161796      -0.7575390720      -1.2044656128   6.305938334600e-03  -6.483018473594e-03  -3.099774773771e-02
H        -1.8477166585      -0.7560747967      -0.0376158222  -7.995229256605e-03  -1.947641021499e-02  -6.241296788097e-04
6
Properties=species:S:1:pos:R:3:forces:R:3 energy=-6.992822002446e+02 dipole="-9.7433144934e-01 -3.0931359109e-01 -1.4617631435e-01" quadrupole="-2.9242266167e+01 2.5255284086e+00 1.0651128270e-01 2.5255284086e+00 -3.3573050072e+01 4.9896928590e-01 1.0651128270e-01 4.9896928590e-01 -3.4264727312e+01" polarizability="4.1443771871e+01 -1.4273707965e-01 1.3825754307e-01 -1.4273707965e-01 4.3880019716e+01 -1.0222844444e+00 1.3825754307e-01 -1.0222844444e+00 4.2119975180e+01" charge=-1 multiplicity=1 method=wB97M-V basis=def2-svpd config_type=hso4- sample_index=66 temperature=300.0 units=atomic
S         0.1332642797       0.0427017245      -0.0034880779   2.153213129034e-02  -2.425273560313e-02   4.417664554842e-02
O        -1.5098711381       0.0908011022       0.0140160009   2.618645448383e-02   1.300690693984e-01   7.750721248791e-03
O         0.4423886400       1.4829359944      -0.0446369832   4.412228350072e-03  -7.435363082845e-03   8.590847995444e-03
O         0.4858686098      -0.8119696659       1.2154284592  -1.059072279132e-02   3.916780785882e-02  -1.715744492070e-02
O         0.5021415494      -0.7395056204      -1.1753492548   1.898362972214e-03  -4.392299408492e-03  -3.483878498220e-02
H        -1.7655148492      -0.7365125506      -0.0466513113  -4.336924911480e-02  -1.331757950399e-01  -8.429269569064e-03
6
Properties=species:S:1:pos:R:3:forces:R:3 energy=-6.992822352210e+02 dipole="-8.7237067764e-01 -4.2229500903e-01 8.4451283811e-02" quadrupole="-2.9533222431e+01 2.3603738398e+00 -5.5468932029e-01 2.3603738398e+00 -3.3398018077e+01 -2.8581316026e-02 -5.5468932029e-01 -2.8581316026e-02 -3.4902933299e+01" polarizability="4.3283534225e+01 -1.5727949424e-01 7.8427478657e-01 -1.5727949424e-01 4.4131554236e+01 -6.8014596885e-01 7.8427478657e-01 -6.8014596885e-01 4.5462194598e+01" charge=-1 multiplicity=1 method=wB97M-V basis=def2-svpd config_type=hso4- sample_index=67 temperature=300.0 units=atomic
S         0.1518111056       0.0079226354       0.0177277553   1.050769462200e-02  -1.686288343122e-02   5.626115542250e-04
O        -1.5300745006       0.0966241434      -0.0681773355   3.610728205718e-02   9.593674478699e-02  -2.809421254667e-03
O         0.4423100342       1.4523029199      -0.0127595190   1.057544784303e-02  -5.284671702206e-03   8.009244505229e-03
O         0.5330478588      -0.7510672234       1.3233318726  -2.182410627185e-02   3.008712087362e-02  -5.830270269391e-02
O         0.4409043394      -0.7069574729      -1.2827243115   4.612787257667e-03   5.182968981035e-03   3.442475180509e-02
H        -1.7859869147      -0.7329649314       0.0818004864  -3.998162900867e-02  -1.090365140935e-01   1.816014644003e-02
6
Properties=species:S:1:pos:R:3:forces:R:3 energy=-6.992788353651e+02 dipole="-9.9408896420e-01 -8.9441200702e-01 6.0000372623e-02" quadrupole="-2.8805872526e+01 1.8893132124e+00 -4.6398518004e-02 1.8893132124e+00 -3.3297481948e+01 -2.3344486325e-01 -4.6398518004e-02 -2.3344486325e-01 -3.3769262148e+01" polarizability="3.9882484857e+01 2.0205815261e+00 -6.0716845242e-02 2.0205815261e+00 4.3181208029e+01 4.1996085714e-01 -6.0716845242e-02 4.1996085714e-01 3.9874491320e+01" charge=-1 multiplicity=1 method=wB97M-V basis=def2-svpd config_type=hso4- sample_index=68 temperature=300.0 units=atomic
S         0.1371780802      -0.0147065659       0.0003455084   7.010557088325e-03   1.382381551060e-01  -3.911666601177e-02
O        -1.4504326575       0.0362508764      -0.0052140496  -6.591232840929e-02  -6.107017779097e-03   4.595382956117e-04
O         0.4970468779       1.4691001801       0.0228038178  -8.661768173384e-03  -4.027916446054e-02  -6.290033517170e-03
O         0.4369222828      -0.6622830249       1.1939378685   3.665884907254e-02  -6.780252023463e-02   1.064977237485e-01
O         0.4306907055      -0.6988331890      -1.2133215933   2.582759046577e-02  -3.749265472917e-02  -6.071925492432e-02
H        -1.7681945907      -0.8899416805       0.0210202115   5.026290976818e-03   1.357540954303e-02  -8.352865722374e-04
6
Properties=species:S:1:pos:R:3:forces:R:3 energy=-6.992935751028e+02 dipole="-5.3736204534e-01 -3.3234861583e-01 -1.0709939800e-02" quadrupole="-3.0562039524e+01 2.4454690534e+00 -2.7640640450e-01 2.4454690534e+00 -3.2551240521e+01 -1.2090543544e-01 -2.7640640450e-01 -1.2090543544e-01 -3.4520057666e+01" polarizability="4.5717937557e+01 1.3543253455e+00 2.4617678589e-01 1.3543253455e+00 4.5018163524e+01 9.9787054173e-02 2.4617678589e-01 9.9787054173e-02 4.3730319584e+01" charge=-1 multiplicity=1 method=wB97M-V basis=def2-svpd config_type=hso4- sample_index=69 temperature=300.0 units=atomic
S         0.1810070120       0.0511160397      -0.0046680326  -3.704326218618e-02  -5.313863211479e-02   8.820934103633e-03
O        -1.5974393197       0.0252747038      -0.0221739323   1.566966399407e-02  -2.244414894574e-02   5.395327163036e-03
O         0.5147754391       1.4721111413       0.0231273716   4.645407866528e-04   3.631617684995e-03  -4.878439370193e-03
O         0.4729979256      -0.7298454057       1.2463126447   1.345630427892e-03   1.766071835711e-02  -1.686958389716e-02
O         0.4387058015      -0.7503371988      -1.2402088131   8.610176881858e-03   1.907862338495e-02   9.961966272336e-03
H        -1.8077133330      -0.9566771602       0.0410768513   1.093872691787e-02   3.514966573629e-02  -2.435576266127e-03
6
Properties=species:S:1:pos:R:3:forces:R:3 energy=-6.992764004833e+02 dipole="-1.0490267731e+00 -9.7767453879e-01 -2.3969224640e-01" quadrupole="-2.9284114761e+01 1.7220372773e+00 4.1965333104e-02 1.7220372773e+00 -3.3370400159e+01 2.7586250612e-01 4.1965333104e-02 2.7586250612e-01 -3.3971330540e+01" polarizability="4.2248614797e+01 1.2257305859e+00 6.9002025119e-02 1.2257305859e+00 4.2656010157e+01 -1.7058626727e-01 6.9002025119e-02 -1.7058626727e-01 4.1919844379e+01" charge=-1 multiplicity=1 method=wB97M-V basis=def2-svpd config_type=hso4- sample_index=70 temperature=300.0 units=atomic
S         0.1154304812      -0.0470398366      -0.0301279998   2.343270702409e-02   1.399763975898e-01   7.895710606369e-02
O        -1.5419441336       0.0611745511       0.0295058633   2.752577815511e-02   8.764741046244e-02  -2.290256628903e-03
O         0.5243663240       1.4310141818       0.0174247660  -2.026055415713e-02  -3.694498838544e-02  -9.869376263763e-03
O         0.4754403452      -0.6383427165       1.2593606125  -1.075965875640e-03  -3.530282869763e-02   7.008764952566e-03
O         0.5032808887      -0.6514833155      -1.2439506834   9.109655041810e-03  -5.610572106048e-02  -6.743962192597e-02
H        -1.8128664371      -0.7813500194      -0.0338423189  -3.878323305893e-02  -9.927779916335e-02  -6.352444149840e-03
6
Properties=species:S:1:pos:R:3:forces:R:3 energy=-6.992898882859e+02 dipole="-8.9013446508e-01 -4.8168802542e-01 -3.8243341052e-02" quadrupole="-2.9834011330e+01 2.6183320122e+00 -4.7676909731e-01 2.6183320122e+00 -3.3489907397e+01 -9.7254234489e-02 -4.7676909731e-01 -9.7254234489e-02 -3.4265733437e+01" polarizability="4.3632607859e+01 6.1712965288e-01 5.0789777292e-01 6.1712965288e-01 4.5860707125e+01 -2.0205212696e-01 5.0789777292e-01 -2.0205212696e-01 4.2503156755e+01" charge=-1 multiplicity=1 method=wB97M-V basis=def2-svpd config_type=hso4- sample_index=71 temperature=300.0 units=atomic
S         0.1391215922       0.0254529065      -0.0052968611   1.272774019096e-02   1.362069432975e-02   2.608170283938e-02
O        -1.5384109077       0.1216831391      -0.0416293816  -7.702473234190e-03  -7.282569689850e-02   1.365478195764e-02
O         0.4362069445       1.4913013778       0.0253904138   4.875637247771e-03  -2.683037624735e-02  -4.665861824072e-03
O         0.5365269698      -0.7671709745       1.2108347364  -1.507545412594e-02   2.064267864830e-02  -6.586979712541e-03
O         0.4730602487      -0.7785645801      -1.1877688072   2.421813085251e-03   6.493837280921e-03  -2.135298636836e-02
H        -1.7414739487      -0.9001436574       0.0666414165   2.813489629313e-03   5.887617176484e-02  -7.162590709418e-03
6
Properties=species:S:1:pos:R:3:forces:R:3 energy=-6.992949329411e+02 dipole="-1.1297627447e+00 -5.1713945551e-01 -3.7357110061e-02" quadrupole="-2.9213315117e+01 2.4907736431e+00 -4.6476660880e-02 2.4907736431e+00 -3.3713107356e+01 2.6529817300e-01 -4.6476660880e-02 2.6529817300e-01 -3.4486684832e+01" polarizability="4.2666649538e+01 6.3370492198e-01 2.2168128144e-01 6.3370492198e-01 4.5273333190e+01 -7.4356799125e-01 2.2168128144e-01 -7.4356799125e-01 4.2893166927e+01" charge=-1 multiplicity=1 method=wB97M-V basis=def2-svpd config_type=hso4- sample_index=72 temperature=300.0 units=atomic
S         0.1126800167       0.0191742506       0.0059263135   5.246093204559e-02   1.836708444781e-02   1.947354626318e-02
O        -1.5211422322       0.0946962230      -0.0091430387  -1.425811335262e-02  -4.705104470132e-03   3.316133021786e-03
O         0.4703885554       1.4882074668      -0.0326991612  -9.607197566310e-03  -3.762750906215e-02   8.873738599524e-03
O         0.5131140968      -0.7816094970       1.2346233523  -1.859399238213e-02   2.762314948027e-02  -1.984584886547e-02
O         0.5009603406      -0.7263057958      -1.2043704360  -5.719438229802e-03  -2.023835168167e-03  -1.203594048664e-02
H        -1.7871604770      -0.8329771221      -0.0076768364  -4.252407295255e-03  -1.642148146816e-03   2.344358677483e-04
6
Properties=species:S:1:pos:R:3:forces:R:3 energy=-6.992933997237e+02 dipole="-9.6200944518e-01 -7.9110159477e-01 4.0507360921e-02" quadrupole="-2.9294740608e+01 1.9917082930e+00 -8.7064208629e-02 1.9917082930e+00 -3.3322593093e+01 -9.0251672117e-02 -8.7064208629e-02 -9.0251672117e-02 -3.4036520124e+01" polarizability="4.1995321552e+01 1.2603781851e+00 5.5344949895e-02 1.2603781851e+00 4.3266504221e+01 7.2254893008e-02 5.5344949895e-02 7.2254893008e-02 4.1565907583e+01" charge=-1 multiplicity=1 method=wB97M-V basis=def2-svpd config_type=hso4- sample_index=73 temperature=300.0 units=atomic
S         0.1320710472      -0.0148549084       0.0038275218   1.090624495420e-02   9.306172728091e-02  -1.019172779668e-02
O        -1.5280949341       0.0548388503      -0.0115563091   5.586436569924e-03   4.455058093088e-02   1.087843469728e-03
O         0.5067782174       1.4593224968       0.0049718896  -1.377327383489e-02  -3.800349381440e-02  -4.513515463381e-04
O         0.4816994552      -0.6837041133       1.2315129410   6.387552491464e-03  -2.886520383332e-02   3.432936634057e-02
O         0.4669636755      -0.6895356992      -1.2336462568   7.103531436244e-03  -2.410424423466e-02  -2.609257474631e-02
H        -1.8131492807      -0.8232721108       0.0185942901  -1.631964900423e-02  -4.655937549805e-02   1.322309193935e-03
6
Properties=species:S:1:pos:R:3:forces:R:3 energy=-6.992927006860e+02 dipole="-6.1143038823e-01 -3.3593764222e-01 7.6676359087e-03" quadrupole="-3.0046933534e+01 2.2493954186e+00 -2.1706961372e-01 2.2493954186e+00 -3.2375785147e+01 5.0409585989e-02 -2.1706961372e-01 5.0409585989e-02 -3.4382122577e+01" polarizability="4.1530973505e+01 5.5060351117e-01 3.0311607158e-01 5.5060351117e-01 4.1600389108e+01 -3.8099647224e-01 3.0311607158e-01 -3.8099647224e-01 4.2071786386e+01" charge=-1 multiplicity=1 method=wB97M-V basis=def2-svpd config_type=hso4- sample_index=74 temperature=300.0 units=atomic
S         0.1696278330       0.0340281378       0.0060450502  -3.678387146901e-02  -6.591807701308e-02   1.483189590565e-02
O        -1.5183523554       0.0524222189      -0.0272042853   3.674675939902e-03   2.401878723528e-02   6.309569684243e-03
O         0.4688461289       1.4104743221      -0.0101477190   2.598874354878e-02   7.954335305323e-02   4.081184064330e-03
O         0.4651500398      -0.7220651587       1.2571672554   3.857250523626e-03   6.194131624373e-03  -9.638957131564e-03
O         0.4275042518      -0.6945060507      -1.2336753825   1.834080388025e-02  -1.542565563368e-02  -1.673645458638e-02
H        -1.6649372554      -0.8733658531       0.0291704913  -1.506264811742e-02  -2.843155197595e-02   1.191829376063e-03
6
Properties=species:S:1:pos:R:3:forces:R:3 energy=-6.992976363054e+02 dipole="-7.5722503670e-01 -4.6507557728e-01 7.2568011135e-03" quadrupole="-2.9967250383e+01 2.5146290288e+00 -4.3012475246e-02 2.5146290288e+00 -3.2754065007e+01 -2.2694793842e-02 -4.3012475246e-02 -2.2694793842e-02 -3.4165319557e+01" polarizability="4.3397721571e+01 5.8897140314e-01 3.8944173677e-02 5.8897140314e-01 4.2982769552e+01 -1.8810659187e-03 3.8944173677e-02 -1.8810659187e-03 4.1767440637e+01" charge=-1 multiplicity=1 method=wB97M-V basis=def2-svpd config_type=hso4- sample_index=75 temperature=300.0 units=atomic
S         0.1492865919       0.0198895625       0.0007356962  -1.641554714492e-02  -1.285510615483e-02  -5.027458621821e-04
O        -1.5633710022       0.0958988638      -0.0047742460   6.448777447343e-03  -4.088849760116e-02   1.399602161409e-03
O         0.4628758614       1.4268837346       0.0020192208   1.132449333948e-02   3.480635465737e-02  -1.842177421328e-04
O         0.4985763479      -0.7225305851       1.2163195112  -1.316419026640e-03  -5.970112938130e-03   1.564395807732e-02
O         0.4920071817      -0.7238806277      -1.2154607842  -1.385838233992e-04  -5.966765774977e-03  -1.585382341753e-02
H        -1.7749121981      -0.8829816377       0.0074352201   8.469714550641e-05   3.084255599506e-02  -5.053245139196e-04
6
Properties=species:S:1:pos:R:3:forces:R:3 energy=-6.992957708039e+02 dipole="-8.4969759065e-01 -6.6435330072e-01 -1.2690515340e-01" quadrupole="-2.9847648356e+01 2.3673834531e+00 -1.1949292137e-01 2.3673834531e+00 -3.3030421159e+01 1.8631541173e-01 -1.1949292137e-01 1.8631541173e-01 -3.4291633418e+01" polarizability="4.5005399389e+01 1.2724973080e+00 2.4977432614e-01 1.2724973080e+00 4.4373587031e+01 -3.3278693705e-01 2.4977432614e-01 -3.3278693705e-01 4.2842061853e+01" charge=-1 multiplicity=1 method=wB97M-V basis=def2-svpd config_type=hso4- sample_index=76 temperature=300.0 units=atomic
S         0.1415821140      -0.0034922846      -0.0127457213  -8.319988864089e-04   4.581386477426e-02   4.606241335461e-02
O        -1.5871907216       0.0801444868       0.0005287661   7.168112338150e-03  -4.449347925542e-02  -1.495706418041e-03
O         0.4991880923       1.4473879825       0.0017608388  -8.731836643397e-03  -1.931621772710e-02  -1.695795813276e-03
O         0.5028854470      -0.7079335823       1.2553284703  -9.688872563005e-03   8.530000929614e-04  -1.584217415096e-02
O         0.4965483797      -0.6962533950      -1.2319452478   1.870228092130e-03  -2.181325300560e-02  -2.749669800154e-02
H        -1.8633329693      -0.8955924464      -0.0029330521   1.012420101753e-02   3.898042053180e-02   4.921276443439e-04
6
Properties=species:S:1:pos:R:3:forces:R:3 energy=-6.992949337687e+02 dipole="-7.7847819684e-01 -4.6999947013e-01 -7.8035310489e-02" quadrupole="-2.9806195227e+01 2.2894930658e+00 9.0270219954e-01 2.2894930658e+00 -3.2728457201e+01 2.5903484196e-01 9.0270219954e-01 2.5903484196e-01 -3.4405172249e+01" polarizability="4.3771387647e+01 1.3395765052e+00 -8.8016049017e-01 1.3395765052e+00 4.3494439172e+01 3.8124411525e-01 -8.8016049017e-01 3.8124411525e-01 4.2787012331e+01" charge=-1 multiplicity=1 method=wB97M-V basis=def2-svpd config_type=hso4- sample_index=77 temperature=300.0 units=atomic
S         0.1536608352       0.0250211410      -0.0109528862  -1.333843958896e-02  -1.214625440780e-02  -1.839929320958e-02
O        -1.5540636838       0.0334919366       0.0950568723  -5.944678786655e-03  -1.672166266357e-02  -2.599020594381e-02
O         0.5137768298       1.4395998150      -0.0266550845  -1.190534431545e-03   1.192455237679e-02   1.400124834085e-03
O         0.3959227568      -0.7034109707       1.2260104304   2.301943482443e-02  -1.450621488236e-02   2.101669631729e-02
O         0.5296041263      -0.7043231700      -1.2645304576  -1.203470004242e-02   6.187986608330e-03   1.494191208873e-02
H        -1.8281345681      -0.8943109109      -0.1384914787   9.461461558619e-03   2.525357683948e-02   7.017240475977e-03
6
Properties=species:S:1:pos:R:3:forces:R:3 energy=-6.992922297421e+02 dipole="-8.5568854183e-01 -6.8253756361e-01 2.4029116594e-01" quadrupole="-2.9840250130e+01 2.1285425560e+00 7.0163985043e-01 2.1285425560e+00 -3.3036236581e+01 1.5577446767e-01 7.0163985043e-01 1.5577446767e-01 -3.4228384586e+01" polarizability="4.3728924710e+01 1.3174221118e+00 -6.8084906117e-01 1.3174221118e+00 4.3898968423e+01 -3.3093764822e-01 -6.8084906117e-01 -3.3093764822e-01 4.2617335255e+01" charge=-1 multiplicity=1 method=wB97M-V basis=def2-svpd config_type=hso4- sample_index=78 temperature=300.0 units=atomic
S         0.1401876354      -0.0031728163       0.0423873295   1.889789108692e-03   6.018076548369e-02  -8.408202688833e-02
O        -1.5651323936       0.0565046597       0.0286689957   8.910213064159e-03  -6.625420746401e-03   9.405823830588e-05
O         0.5130849206       1.4451424491      -0.0909671469  -1.109526955004e-02  -1.970365048176e-02   2.801233516599e-02
O         0.4507553224      -0.7349398644       1.2362142768   1.137647966466e-02  -2.014235221517e-02   4.050573127029e-02
O         0.5121383757      -0.6458055763      -1.2543930388  -9.531418913409e-03  -1.755592140881e-02   1.494911081747e-02
H        -1.8065198798      -0.8765515791      -0.0820558719  -1.573801037433e-03   3.890234427796e-03   5.088883117855e-04
6
Properties=species:S:1:pos:R:3:forces:R:3 energy=-6.992967328865e+02 dipole="-1.0006014693e+00 -5.6464307705e-01 -8.1873456166e-03" quadrupole="-2.9703084169e+01 2.3316554211e+00 -1.6452394915e-01 2.3316554211e+00 -3.3274912468e+01 -3.8946148723e-03 -1.6452394915e-01 -3.8946148723e-03 -3.4262593398e+01" polarizability="4.3751015617e+01 5.7901916331e-01 2.1017420275e-01 5.7901916331e-01 4.3700612741e+01 -1.3361508062e-01 2.1017420275e-01 -1.3361508062e-01 4.2419358756e+01" charge=-1 multiplicity=1 method=wB97M-V basis=def2-svpd config_type=hso4- sample_index=79 temperature=300.0 units=atomic
S         0.1156434256       0.0091355696       0.0001658293   3.226765329615e-02   2.943618101393e-02   1.011625481087e-02
O        -1.5779265837       0.0831075815      -0.0152836136   2.208691100762e-02   2.869306597835e-02   1.468631470638e-03
O         0.5020230264       1.4516258526       0.0033053727  -1.334483972522e-02  -1.808391319073e-02  -1.148624555761e-04
O         0.5286775477      -0.7223030641       1.2273781308  -1.678502015418e-02   2.222390333412e-03  -1.304714553324e-03
O         0.5062220861      -0.7185766712      -1.2169585332  -9.351427164948e-03  -5.494352616404e-03  -1.139800596024e-02
H        -1.8039049695      -0.8212837194       0.0212237155  -1.490332283946e-02  -3.680551046279e-02   1.246456861245e-03
6
Properties=species:S:1:pos:R:3:forces:R:3 energy=-6.992984323535e+02 dipole="-7.5632604101e-01 -5.3372450152e-01 5.9966839368e-02" quadrupole="-2.9622908374e+01 2.3494200336e+00 2.8896960507e-01 2.3494200336e+00 -3.3076702926e+01 -4.6212977270e-02 2.8896960507e-01 -4.6212977270e-02 -3.4262710836e+01" polarizability="4.2649417125e+01 4.8012066482e-01 -3.5180826245e-01 4.8012066482e-01 4.3186437324e+01 2.5637588463e-01 -3.5180826245e-01 2.5637588463e-01 4.2499482191e+01" charge=-1 multiplicity=1 method=wB97M-V basis=def2-svpd config_type=hso4- sample_index=80 temperature=300.0 units=atomic
S         0.1613466537       0.0080036022       0.0057693231  -1.776050998993e-02   1.512863417482e-02  -3.115521179709e-02
O        -1.5348310696       0.0845821502       0.0214562108   1.321330446896e-02   2.802961185014e-02  -1.878998985236e-03
O         0.4536835024       1.4481871132      -0.0088905823   9.292906663362e-03   3.775046139403e-04   1.708804143165e-03
O         0.4570842532      -0.7162895468       1.2333505342   1.121977921133e-02  -1.306774344175e-02   1.875394011108e-02
O         0.4917638909      -0.7212629759      -1.2556923147  -2.632219404777e-03   4.713118700282e-03   1.442061035302e-02
H        -1.7976965793      -0.8090097361      -0.0308878294  -1.334036336268e-02  -3.514363404024e-02  -1.859338636667e-03
6
Properties=species:S:1:pos:R:3:forces:R:3 energy=-6.992853811629e+02 dipole="-8.2825957995e-01 -4.9157834913e-01 1.7833068811e-01" quadrupole="-2.9498489805e+01 2.7425809457e+00 -5.2490323557e-01 2.7425809457e+00 -3.2935621546e+01 -1.5818064439e-01 -5.2490323557e-01 -1.5818064439e-01 -3.4638100925e+01" polarizability="4.7098617916e+01 1.6322480454e+00 5.0321813671e-01 1.6322480454e+00 4.5425619079e+01 -6.0107741740e-01 5.0321813671e-01 -6.0107741740e-01 4.4300288080e+01" charge=-1 multiplicity=1 method=wB97M-V basis=def2-svpd config_type=hso4- sample_index=81 temperature=300.0 units=atomic
S         0.1574301381       0.0142664095       0.0295269250  -1.118725422393e-02  -2.110491993813e-02  -1.883239584889e-02
O        -1.5934241667       0.0758210007      -0.0724817820  -1.490736525994e-02  -6.233361612944e-02   2.545596182101e-02
O         0.4889106130       1.4455600969      -0.0166704258  -2.301427262422e-03  -6.859814661908e-05   1.007726859130e-02
O         0.5429964210      -0.7363866692       1.2750807898  -1.514839572641e-02   1.621645213865e-02  -2.217764220702e-02
O         0.4509094760      -0.6967402741      -1.2502323523   4.541585964800e-03  -3.080571631671e-04   1.663835129373e-02
H        -2.0163793882      -0.8996768886       0.0878389460   3.899747601532e-02   6.760520441328e-02  -1.110850863870e-02
6
Properties=species:S:1:pos:R:3:forces:R:3 energy=-6.992917865468e+02 dipole="-8.3174149394e-01 -2.4845459730e-01 2.6148708998e-01" quadrupole="-2.9352843110e+01 2.5906723810e+00 -5.9359380066e-01 2.5906723810e+00 -3.2864906720e+01 -4.4530290424e-01 -5.9359380066e-01 -4.4530290424e-01 -3.4657779362e+01" polarizability="4.4005269065e+01 1.0323400853e+00 3.7222560004e-01 1.0323400853e+00 4.4093588481e+01 1.9026475731e-01 3.7222560004e-01 1.9026475731e-01 4.3530776574e+01" charge=-1 multiplicity=1 method=wB97M-V basis=def2-svpd config_type=hso4- sample_index=82 temperature=300.0 units=atomic
S         0.1569459682       0.0552746927       0.0283971954  -1.457279503506e-02  -7.976764339870e-02  -4.195326618363e-02
O        -1.5476115835       0.0203027087      -0.0778865256  -1.005418246379e-03   3.093583927433e-02   1.285755949367e-02
O         0.5081680096       1.4602012718       0.0165542465  -6.014476415324e-04   1.860774064550e-02   1.827830434552e-03
O         0.5111026273      -0.7328399762       1.2387247223  -4.829945238764e-03   1.407235140760e-02  -4.355756144037e-04
O         0.4122722930      -0.7458992126      -1.2408577164   1.147901807226e-02   2.570189113144e-02   2.548874655927e-02
H        -1.9195847583      -0.8397512045       0.1152931691   9.537511149958e-03  -9.614321947866e-03   2.211461881580e-03
6
Properties=species:S:1:pos:R:3:forces:R:3 energy=-6.992948634980e+02 dipole="-9.7001375812e-01 -3.5910654719e-01 -2.1693460495e-01" quadrupole="-2.9340989259e+01 2.5360626569e+00 -3.3563341505e-01 2.5360626569e+00 -3.2662930154e+01 1.1585703095e-01 -3.3563341505e-01 1.1585703095e-01 -3.4747988011e+01" polarizability="4.1944349270e+01 8.4839443559e-01 3.9111976259e-01 8.4839443559e-01 4.2712810052e+01 -1.2638338916e-01 3.9111976259e-01 -1.2638338916e-01 4.2809423226e+01" charge=-1 multiplicity=1 method=wB97M-V basis=def2-svpd config_type=hso4- sample_index=83 temperature=300.0 units=atomic
S         0.1324073998       0.0318522537      -0.0285822658   1.150624044135e-02  -6.130514261527e-02   5.937614509458e-02
O        -1.5118507239       0.0610614584      -0.0053865600  -2.264722990014e-02  -1.712153484260e-02  -1.814528101349e-03
O         0.4848605396       1.4118998544       0.0358723085   1.169093945826e-02   5.717237375483e-02  -9.920242278744e-03
O         0.4865837343      -0.6980972659       1.2631369419  -9.078448703204e-03   8.431063956653e-03  -3.149631152020e-02
O         0.4644566515      -0.7229589116      -1.2375346658   4.390303600483e-03  -5.289350141007e-03  -1.594675480225e-02
H        -1.7732055323      -0.8884266227       0.0218128487   4.111184133383e-03   1.811203834552e-02  -2.096884514065e-04
6
Properties=species:S:1:pos:R:3:forces:R:3 energy=-6.992843087943e+02 dipole="-9.4401924477e-01 -8.3702139788e-01 1.0727446404e-01" quadrupole="-3.0266993835e+01 1.8470134273e+00 7.7816819987e-02 1.8470134273e+00 -3.3264168845e+01 -1.4052368407e-01 7.7816819987e-02 -1.4052368407e-01 -3.4095410801e+01" polarizability="4.3565900850e+01 1.2051924080e+00 -1.6439456247e-01 1.2051924080e+00 4.4311305371e+01 1.9310209183e-01 -1.6439456247e-01 1.9310209183e-01 4.2154453124e+01" charge=-1 multiplicity=1 method=wB97M-V basis=def2-svpd config_type=hso4- sample_index=84 temperature=300.0 units=atomic
S         0.1112117878      -0.0239100468       0.0121168672   3.738609646556e-02   1.123507758552e-01  -3.974982048580e-02
O        -1.5662146844       0.0953088294      -0.0033779542   1.235737830074e-02  -7.043650565153e-02   2.556678446062e-03
O         0.5075293591       1.4470943346      -0.0053922042  -1.445931371162e-02  -3.479920949698e-02   2.900126341930e-03
O         0.5073841396      -0.6866614090       1.2253276289  -1.955529201957e-03  -3.339592460449e-02   3.833021749524e-02
O         0.5089129673      -0.6895230309      -1.2410579154  -1.170567420902e-02  -1.697973599574e-02  -3.092380497318e-03
H        -1.6332349691      -0.9298586196       0.0040291844  -2.169751923427e-02   4.326133059797e-02  -9.790682859836e-04
6
Properties=species:S:1:pos:R:3:forces:R:3 energy=-6.992890289040e+02 dipole="-8.7880102172e-01 -8.1352017817e-01 1.9729375852e-01" quadrupole="-2.9450900553e+01 2.1964410737e+00 3.2181365578e-02 2.1964410737e+00 -3.3766134870e+01 -2.8956023427e-01 3.2181365578e-02 -2.8956023427e-01 -3.4245097425e+01" polarizability="4.4133493133e+01 4.0802157466e-01 -1.7545163101e-01 4.0802157466e-01 4.4872955880e+01 3.9183439451e-01 -1.7545163101e-01 3.9183439451e-01 4.3700986546e+01" charge=-1 multiplicity=1 method=wB97M-V basis=def2-svpd config_type=hso4- sample_index=85 temperature=300.0 units=atomic
S         0.1496767496      -0.0349269820       0.0220828846   1.264495723730e-03   9.351060818301e-02  -6.157218964568e-02
O        -1.5529193059       0.1189505894      -0.0163626410   2.809655358274e-02   3.067002351411e-02   3.138080584398e-03
O         0.4451988292       1.4776664219      -0.0037205512  -8.827997245247e-04  -5.597824799382e-02   4.240751190996e-03
O         0.5074165178      -0.7046974677       1.2557267105   1.446102095008e-03  -2.161051004716e-02   1.885234949853e-02
O         0.4953718916      -0.7140358043      -1.2812352740  -8.308119811714e-03   2.534020123688e-03   3.392616008421e-02
H        -1.8608280483      -0.7492446583       0.0239519172  -2.170267046092e-02  -4.910595321260e-02   1.419034538452e-03
6
Properties=species:S:1:pos:R:3:forces:R:3 energy=-6.992862549059e+02 dipole="-1.1086153594e+00 -7.2013051151e-01 -6.8503329694e-02" quadrupole="-2.9183452885e+01 2.3163012783e+00 -9.0945703033e-02 2.3163012783e+00 -3.3596741174e+01 1.9039697016e-01 -9.0945703033e-02 1.9039697016e-01 -3.4678783951e+01" polarizability="4.4259737312e+01 8.6349024372e-02 2.6355709857e-01 8.6349024372e-02 4.3936541870e+01 -4.9686834168e-01 2.6355709857e-01 -4.9686834168e-01 4.4827591877e+01" charge=-1 multiplicity=1 method=wB97M-V basis=def2-svpd config_type=hso4- sample_index=86 temperature=300.0 units=atomic
S         0.1150634987      -0.0354763813      -0.0028286942   4.560733245209e-02   5.731908269836e-02   2.498365420497e-02
O        -1.5614178840       0.1248933788      -0.0063032187   3.152777874250e-02   4.731159727096e-02   8.507984665936e-04
O         0.4646875455       1.4308670155      -0.0140752992  -6.416758371936e-03  -2.631594585149e-02   4.213154856297e-03
O         0.5371040423      -0.7049729953       1.3070737961  -2.543309548169e-02   5.286247103012e-03  -4.628184167886e-02
O         0.5252990739      -0.6733188749      -1.2810146861  -1.497059546545e-02  -1.558532780878e-02   1.565502259312e-02
H        -1.8797350251      -0.7252272328      -0.0017762320  -3.036667921773e-02  -6.808227859161e-02   5.887892117113e-04
6
Properties=species:S:1:pos:R:3:forces:R:3 energy=-6.992918499615e+02 dipole="-6.5456493725e-01 -4.3610218827e-01 2.3231683809e-01" quadrupole="-3.0627041062e+01 2.1783764369e+00 -9.4684175230e-02 2.1783764369e+00 -3.2967076321e+01 -7.2532523188e-03 -9.4684175230e-02 -7.2532523188e-03 -3.4297329075e+01" polarizability="4.4111550278e+01 5.0798153513e-01 2.8683297538e-01 5.0798153513e-01 4.4266300792e+01 -7.6992457140e-01 2.8683297538e-01 -7.6992457140e-01 4.3013225506e+01" charge=-1 multiplicity=1 method=wB97M-V basis=def2-svpd config_type=hso4- sample_index=87 temperature=300.0 units=atomic
S         0.1543962871       0.0267928797       0.0433425988  -4.894213291361e-03   7.137989248244e-04  -4.132732610215e-02
O        -1.5732415074       0.0807606259      -0.0501975631   2.425851187616e-02  -2.355606862993e-02   1.849622696901e-02
O         0.4761560664       1.4594572664      -0.0586735000   5.457191046442e-03  -9.701838616714e-04   2.037532049253e-02
O         0.5109193436      -0.7796777199       1.2440987502  -9.672821572319e-03   1.897156494077e-02  -3.729105958147e-03
O         0.4573733925      -0.6977786361      -1.2244256817   3.235505364978e-03  -3.302748186169e-03   9.276001183011e-03
H        -1.6368439116      -0.8914798720       0.0371217290  -1.833536376332e-02   8.197981553067e-03  -3.050416298444e-03
6
Properties=species:S:1:pos:R:3:forces:R:3 energy=-6.992926050124e+02 dipole="-1.0670400285e+00 -4.9269641068e-01 7.3707793859e-02" quadrupole="-2.9543943754e+01 2.7002612404e+00 -3.0973149638e-01 2.7002612404e+00 -3.3120049513e+01 -9.0430795425e-02 -3.0973149638e-01 -9.0430795425e-02 -3.4350454276e+01" polarizability="4.4501678877e+01 7.2686714544e-01 3.4520817097e-01 7.2686714544e-01 4.4152911574e+01 -3.0131307901e-01 3.4520817097e-01 -3.0131307901e-01 4.2369319702e+01" charge=-1 multiplicity=1 method=wB97M-V basis=def2-svpd config_type=hso4- sample_index=88 temperature=300.0 units=atomic
S         0.1094926299       0.0165614551       0.0128451158   3.300020008541e-02  -4.286987586186e-03  -3.798028217294e-03
O        -1.5771435849       0.1110901722      -0.0395672720  -5.005556807113e-03  -5.984165207797e-02   1.316356801388e-02
O         0.4812095086       1.4334833234      -0.0032670054  -5.038487823421e-03   1.099467530797e-02   3.948228852620e-03
O         0.5607735179      -0.7382944540       1.2139909496  -2.260677846454e-02   6.618748837738e-03   4.479931054465e-03
O         0.5089885885      -0.7228707071      -1.1998451394  -1.094356484909e-02  -3.808014129307e-03  -1.242351136551e-02
H        -1.8491904820      -0.8809107042       0.0507686769   1.056149892273e-02   5.025031198803e-02  -5.380365873243e-03
6
Properties=species:S:1:pos:R:3:forces:R:3 energy=-6.992885254414e+02 dipole="-9.2023100654e-01 -6.4162492580e-01 6.8595215539e-02" quadrupole="-2.9890032251e+01 1.9068007738e+00 7.4767074605e-02 1.9068007738e+00 -3.2860451527e+01 3.7753640027e-01 7.4767074605e-02 3.7753640027e-01 -3.4862062319e+01" polarizability="4.3889810036e+01 1.8087091835e+00 1.8138251527e-01 1.8087091835e+00 4.4355537104e+01 -1.2720530642e+00 1.8138251527e-01 -1.2720530642e+00 4.4687609509e+01" charge=-1 multiplicity=1 method=wB97M-V basis=def2-svpd config_type=hso4- sample_index=89 temperature=300.0 units=atomic
S         0.1328486065       0.0031710966       0.0289544269   2.315497804807e-02   3.005603130874e-02   1.393224358588e-04
O        -1.5604955843       0.0027402215      -0.0183758403   1.049277660594e-02   2.789220620668e-02   9.174967659807e-03
O         0.5673848050       1.4439466830      -0.0849208338  -2.095535992229e-02  -2.451854949432e-02   2.816046930175e-02
O         0.4668319598      -0.7308391077       1.3233384290  -1.056244694229e-02   1.962835608567e-02  -4.257111340635e-02
O         0.4509473711      -0.6066235178      -1.2770831484   3.480911592749e-03  -3.121762502838e-02   5.062039941400e-03
H        -1.7818540720      -0.9161048522      -0.0230401351  -5.626842668995e-03  -2.183830585196e-02   6.734140862716e-05
6
Properties=species:S:1:pos:R:3:forces:R:3 energy=-6.992852338276e+02 dipole="-7.6217170470e-01 -5.2976794527e-01 -1.9850149229e-02" quadrupole="-2.9786483943e+01 2.6133683480e+00 -7.5401307792e-01 2.6133683480e+00 -3.2927345461e+01 -1.9177312753e-01 -7.5401307792e-01 -1.9177312753e-01 -3.4464352557e+01" polarizability="4.7935657030e+01 2.0556063947e+00 6.8130453402e-01 2.0556063947e+00 4.5953408742e+01 -1.5973112543e-01 6.8130453402e-01 -1.5973112543e-01 4.3994569457e+01" charge=-1 multiplicity=1 method=wB97M-V basis=def2-svpd config_type=hso4- sample_index=90 temperature=300.0 units=atomic
S         0.1607982477       0.0194510091      -0.0055327797  -1.339835049254e-02  -4.668956784523e-04   3.079043875622e-02
O        -1.6230194072       0.0464875720      -0.0611820596  -5.728586966338e-03  -5.017217922189e-02   1.778827282496e-02
O         0.5244305234       1.4676177424       0.0410252651  -1.373228028946e-02  -2.421111961690e-02  -8.686482205394e-03
O         0.5371098629      -0.7047978810       1.2618359021  -1.378820068575e-02   1.036661792146e-02  -2.372895735666e-02
O         0.4453269332      -0.7306171854      -1.2363006041   7.420626554955e-03   1.869543579303e-03  -5.818334591069e-03
H        -2.0358413649      -0.9208162858       0.1008849916   3.920606555351e-02   6.264073345554e-02  -1.036201150094e-02
6
Properties=species:S:1:pos:R:3:forces:R:3 energy=-6.992983562751e+02 dipole="-9.5632080618e-01 -4.5571904039e-01 8.7569358306e-02" quadrupole="-2.9637102837e+01 2.3074601812e+00 1.9203255525e-02 2.3074601812e+00 -3.2860032249e+01 1.0452004722e-01 1.9203255525e-02 1.0452004722e-01 -3.4435246003e+01" polarizability="4.2008722022e+01 9.3269645142e-01 7.8784418190e-02 9.3269645142e-01 4.3031576265e+01 -4.9858398919e-01 7.8784418190e-02 -4.9858398919e-01 4.2060497487e+01" charge=-1 multiplicity=1 method=wB97M-V basis=def2-svpd config_type=hso4- sample_index=91 temperature=300.0 units=atomic
S         0.1249107459       0.0274317419       0.0199297200   2.237362828126e-02  -1.074419602160e-02  -1.121684503676e-02
O        -1.5289233016       0.0553903428      -0.0159862276  -8.670699272486e-03  -2.900486952779e-03   6.715799789299e-03
O         0.5031717479       1.4347472333      -0.0393174040  -1.824393474235e-03   1.723990964718e-02   1.245876716669e-02
O         0.4881610888      -0.7418847128       1.2349838578  -6.594859392593e-03   7.400278187008e-03   2.595753352580e-03
O         0.4733777834      -0.6873663804      -1.2197877379   6.290390094508e-04  -1.230671624158e-02  -1.015672512115e-02
H        -1.7254029784      -0.8916311670       0.0004067041  -5.919984424836e-03   1.321563186653e-03  -3.708602950151e-04
6
Properties=species:S:1:pos:R:3:forces:R:3 energy=-6.992905218192e+02 dipole="-8.3671966100e-01 -6.7477069964e-01 -8.9758655975e-02" quadrupole="-2.8847309927e+01 2.2204460037e+00 -4.3086551655e-01 2.2204460037e+00 -3.3274949714e+01 1.5399600810e-01 -4.3086551655e-01 1.5399600810e-01 -3.4180482113e+01" polarizability="4.2493712602e+01 8.0991703336e-01 5.2966506354e-01 8.0991703336e-01 4.3043399512e+01 -5.7137443521e-01 5.2966506354e-01 -5.7137443521e-01 4.2432444718e+01" charge=-1 multiplicity=1 method=wB97M-V basis=def2-svpd config_type=hso4- sample_index=92 temperature=300.0 units=atomic
S         0.1648679676      -0.0130559551      -0.0058244356  -2.451856966729e-02   5.571231666869e-02   6.001617676520e-02
O        -1.5221525978       0.0665484655      -0.0322122945   1.912016054080e-02   6.385195783148e-02   3.909329280735e-04
O         0.4645649903       1.4494483819       0.0008337274   2.046175968804e-03  -2.032100536510e-02   8.547511011914e-04
O         0.4897102190      -0.7047525428       1.2762831769  -6.806269328834e-04  -3.429129200914e-04  -1.823381606841e-02
O         0.4385235420      -0.6790003283      -1.2355532427   2.382631431825e-02  -3.837119706727e-02  -4.860420457019e-02
H        -1.9502693818      -0.7351159505       0.0392149017  -1.982706105283e-02  -6.045499236736e-02   5.615692282323e-03
6
Properties=species:S:1:pos:R:3:forces:R:3 energy=-6.992937916987e+02 dipole="-8.0351187315e-01 -2.9172418355e-01 -7.5905755107e-03" quadrupole="-2.9778781384e+01 2.6866795826e+00 1.0455303798e-01 2.6866795826e+00 -3.3203364637e+01 2.0458635718e-01 1.0455303798e-01 2.0458635718e-01 -3.4734533323e+01" polarizability="4.4500887281e+01 7.6109363617e-01 2.4322839058e-02 7.6109363617e-01 4.5972793983e+01 -5.2756669549e-01 2.4322839058e-02 -5.2756669549e-01 4.4283619973e+01" charge=-1 multiplicity=1 method=wB97M-V basis=def2-svpd config_type=hso4- sample_index=93 temperature=300.0 units=atomic
S         0.1596531450       0.0529685746       0.0071446738  -6.192692910695e-03  -5.575272188197e-02   2.573393220882e-03
O        -1.5557947764       0.0571738800       0.0037927883   5.834820804743e-03   1.304852451439e-03   6.748317578480e-04
O         0.4783765214       1.4985899039      -0.0317350774  -1.705428802124e-03  -1.932049399064e-02   7.469053825930e-03
O         0.4712203432      -0.7951295355       1.2476571042  -4.516442567154e-03   4.068981971175e-02  -3.018521237405e-02
O         0.4790625427      -0.7510893647      -1.2328414197  -1.972278802346e-03   2.447640101252e-02   1.888930629720e-02
H        -1.8371934295      -0.8763189687      -0.0229013363   8.571017983552e-03   8.547496291523e-03   5.998394743669e-04
6
Properties=species:S:1:pos:R:3:forces:R:3 energy=-6.992936298577e+02 dipole="-4.7208231343e-01 -5.2189144142e-01 -6.3211293709e-02" quadrupole="-3.1005759015e+01 1.9907273704e+00 -3.8059420229e-01 1.9907273704e+00 -3.2548634447e+01 -7.2128122752e-02 -3.8059420229e-01 -7.2128122752e-02 -3.3862529074e+01" polarizability="4.4935034812e+01 1.0630714702e+00 4.3024163310e-01 1.0630714702e+00 4.3000168897e+01 -2.4606100219e-02 4.3024163310e-01 -2.4606100219e-02 4.1607360551e+01" charge=-1 multiplicity=1 method=wB97M-V basis=def2-svpd config_type=hso4- sample_index=94 temperature=300.0 units=atomic
S         0.1693725982       0.0228105294      -0.0100352844  -3.554794410144e-02   3.141464095197e-02   3.374503395998e-02
O        -1.6189147296       0.0449390523      -0.0276788857   3.643368849343e-02   5.183719959205e-03   3.502206716643e-03
O         0.5179052953       1.4473171458       0.0280250031  -1.061094710199e-03   3.283649505008e-03  -6.807942329834e-03
O         0.4958470553      -0.7011667893       1.2219929300  -3.533537238729e-04  -9.056872310667e-03   1.409837419858e-02
O         0.4506061545      -0.7203146290      -1.2050212665   1.327175438440e-02  -2.085233141152e-02  -4.509245239890e-02
H        -1.6968139244      -0.9060106665       0.0496232309  -1.276536944607e-02  -9.926777383279e-03   5.419811667458e-04
6
Properties=species:S:1:pos:R:3:forces:R:3 energy=-6.992769672125e+02 dipole="-6.5066219198e-01 -5.6291972296e-01 -3.1456524343e-01" quadrupole="-2.9419454500e+01 2.6902647217e+00 2.9339296919e-01 2.6902647217e+00 -3.2816854628e+01 3.3089736329e-01 2.9339296919e-01 3.3089736329e-01 -3.3604572851e+01" polarizability="4.3226879804e+01 9.0774837061e-01 -1.4607014048e-01 9.0774837061e-01 4.2645924438e+01 2.0129635424e-01 -1.4607014048e-01 2.0129635424e-01 4.0178521607e+01" charge=-1 multiplicity=1 method=wB97M-V basis=def2-svpd config_type=hso4- sample_index=95 temperature=300.0 units=atomic
S         0.1735962455       0.0032484634      -0.0430720131  -6.185734114010e-02   3.264037507253e-02   7.693820460965e-02
O        -1.5301379141       0.1336449503       0.0678797759  -2.776832915503e-02  -7.470018453478e-02  -2.775539299642e-02
O         0.4012198231       1.4154468979       0.0224416266   2.823214893722e-02   5.245333275946e-02  -1.217712896309e-02
O         0.4499729126      -0.7051168894       1.1804953876   2.023436369825e-02  -2.858345941175e-02   4.535442154573e-02
O         0.5278690159      -0.7358376147      -1.1797312039   1.882577473716e-02  -4.311741208973e-02  -9.333616605207e-02
H        -1.8958138112      -0.8447695189      -0.0820404953   2.234722332016e-02   6.133675065006e-02   1.097676893075e-02
6
Properties=species:S:1:pos:R:3:forces:R:3 energy=-6.992801208802e+02 dipole="-7.3519203873e-01 -1.9014627359e-01 5.2418491548e-01" quadrupole="-3.0427068900e+01 2.6541236959e+00 -1.6490170010e-01 2.6541236959e+00 -3.2902319607e+01 -4.2176902446e-01 -1.6490170010e-01 -4.2176902446e-01 -3.4527374617e+01" polarizability="4.5455209918e+01 -2.9971446741e-01 2.0389327053e-01 -2.9971446741e-01 4.4068602449e+01 -3.4183394630e-01 2.0389327053e-01 -3.4183394630e-01 4.4035305560e+01" charge=-1 multiplicity=1 method=wB97M-V basis=def2-svpd config_type=hso4- sample_index=96 temperature=300.0 units=atomic
S         0.1466432688       0.0481941209       0.0760910616  -4.534086461714e-03  -8.667656790636e-02  -1.011452681343e-01
O        -1.5925091178       0.1046831601      -0.0851648860   2.807003044231e-02  -1.404611600295e-03   2.483232209687e-02
O         0.4545546064       1.4335521955      -0.0594712650   1.644983508528e-02   5.395642253135e-02   2.135693862158e-02
O         0.5588353744      -0.7940647501       1.2248654495  -1.671370680156e-02   2.248797337614e-02   9.374892315559e-03
O         0.4717784105      -0.7274266631      -1.2379716248  -9.076142500407e-03   2.335993926575e-02   4.719785454262e-02
H        -1.7377321960      -0.8243462531       0.0889928319  -1.416801841588e-02  -1.166844960068e-02  -1.665474008905e-03
6
Properties=species:S:1:pos:R:3:forces:R:3 energy=-6.992674751051e+02 dipole="-6.9638671034e-01 -2.0140640015e-01 6.6007783791e-02" quadrupole="-3.0307452771e+01 2.2370695932e+00 8.3447059115e-02 2.2370695932e+00 -3.2593692481e+01 -7.2640794268e-02 8.3447059115e-02 -7.2640794268e-02 -3.4501838394e+01" polarizability="4.2199154470e+01 -3.8981491107e-01 -1.3562032063e-01 -3.8981491107e-01 4.1055880874e+01 1.2312092272e-01 -1.3562032063e-01 1.2312092272e-01 4.2939392588e+01" charge=-1 multiplicity=1 method=wB97M-V basis=def2-svpd config_type=hso4- sample_index=97 temperature=300.0 units=atomic
S         0.1447581036       0.0364452240       0.0073081255  -2.579270247486e-03  -1.001922329684e-01  -1.749047630287e-02
O        -1.5518086936       0.0875727122       0.0011421537   3.293078877399e-02   1.744089201822e-01   1.454175562972e-03
O         0.4565398961       1.3958350150      -0.0045541594   3.013494001438e-02   1.025917221508e-01   1.068770589546e-03
O         0.4891819550      -0.7234800048       1.2489848498  -7.600930666651e-03   6.957577664384e-03  -1.334642309207e-02
O         0.4947592721      -0.7249597668      -1.2600759959  -1.199092493314e-02   1.431326324681e-02   2.947003127409e-02
H        -1.6035204008      -0.7528088227      -0.0023642901  -4.090090648366e-02  -1.981287369638e-01  -1.146427239470e-03
6
Properties=species:S:1:pos:R:3:forces:R:3 energy=-6.992947676319e+02 dipole="-8.3116758893e-01 -6.2780124318e-01 1.5622621612e-01" quadrupole="-3.0209156573e+01 1.9174465631e+00 -4.0865387194e-01 1.9174465631e+00 -3.3128957030e+01 -3.1918782868e-01 -4.0865387194e-01 -3.1918782868e-01 -3.4426484835e+01" polarizability="4.4272594776e+01 1.7359771668e+00 3.8582805451e-01 1.7359771668e+00 4.5067459107e+01 7.2874705210e-02 3.8582805451e-01 7.2874705210e-02 4.3360649938e+01" charge=-1 multiplicity=1 method=wB97M-V basis=def2-svpd config_type=hso4- sample_index=98 temperature=300.0 units=atomic
S         0.1387891570       0.0142218294       0.0181116973   1.414757682500e-02   4.431712262661e-02  -2.726072600007e-02
O        -1.5739260566       0.0153798918      -0.0567478378   1.481303249968e-02   1.161137051168e-02   1.246870870059e-02
O         0.5532124564       1.4867281254       0.0127188981  -2.248105248625e-02  -4.961378678592e-02   1.067077613067e-03
O         0.5019870559      -0.7032803845       1.2552619804  -6.648415261381e-03  -2.541720397186e-03   6.916907563053e-04
O         0.4285560443      -0.7108860074      -1.2522973446   5.755668277916e-03   3.295910207244e-03   1.305682918473e-02
H        -1.7473844452      -0.9177716021       0.0837329354  -5.603789713036e-03  -6.985743547876e-03  -2.109025441088e-05
6
Properties=species:S:1:pos:R:3:forces:R:3 energy=-6.992809563340e+02 dipole="-9.7255766511e-02 -4.5306870113e-01 1.9093619825e-02" quadrupole="-3.1432981095e+01 1.9106631635e+00 6.9248751595e-01 1.9106631635e+00 -3.2214144411e+01 1.5609090388e-01 6.9248751595e-01 1.5609090388e-01 -3.3698831179e+01" polarizability="4.4945236668e+01 1.4270057147e+00 -7.1911289411e-01 1.4270057147e+00 4.3529586916e+01 2.4776991354e-01 -7.1911289411e-01 2.4776991354e-01 4.1549221273e+01" charge=-1 multiplicity=1 method=wB97M-V basis=def2-svpd config_type=hso4- sample_index=99 temperature=300.0 units=atomic
S         0.2226583267       0.0366360722       0.0025361830  -8.674213843787e-02   1.792261624524e-02  -4.303303437817e-02
O        -1.5934577625       0.0220846151       0.0674346449   2.311987769814e-02  -3.332837982515e-02  -2.114731907512e-02
O         0.4941618294       1.4614825053      -0.0296461129   1.547975751347e-02   1.542834035984e-02   4.393938219850e-03
O         0.3679546404      -0.7213123808       1.1898857236   4.039526386426e-02  -3.353319602590e-02   7.044228462106e-02
O         0.4680068454      -0.7155711522      -1.2269114380   1.468165481455e-02  -4.671771900478e-03  -1.803078609515e-02
H        -1.6565698707      -0.9717707591      -0.1022973373  -6.929820376401e-03   3.813527143945e-02   7.324796662544e-03
6
Properties=species:S:1:pos:R:3:forces:R:3 energy=-6.992872192824e+02 dipole="-6.0934995349e-01 -6.9858612295e-01 1.0548304585e-01" quadrupole="-3.0150099376e+01 2.2107009563e+00 3.0405213378e-01 2.2107009563e+00 -3.3108810285e+01 -1.1485599935e-01 3.0405213378e-01 -1.1485599935e-01 -3.4018497533e+01" polarizability="4.4429565851e+01 1.8890850883e+00 -3.8303432091e-01 1.8890850883e+00 4.5905541866e+01 4.1222538066e-01 -3.8303432091e-01 4.1222538066e-01 4.2183958937e+01" charge=-1 multiplicity=1 method=wB97M-V basis=def2-svpd config_type=hso4- sample_index=100 temperature=300.0 units=atomic
S         0.1783764389       0.0074881017       0.0100804510  -3.923126571125e-02   7.395284207771e-02  -5.491601846875e-02
O        -1.5568942649       0.0575251087       0.0194109129  -3.240510017402e-03  -6.026366802361e-02  -5.932712388805e-03
O         0.4858073873       1.5016132469      -0.0077417362  -3.539211169120e-03  -5.118323417554e-02   2.517886706530e-03
O         0.4353798122      -0.7215303192       1.2058472402   2.435203646534e-02  -2.850986015913e-02   5.675303655845e-02
O         0.4695274306      -0.7322938020      -1.2361677015   6.932459993041e-03   2.946511643319e-03  -1.141179698138e-03
H        -1.8021882719      -0.9644740179      -0.0264616781   1.474000759256e-02   6.311415375828e-02   2.697504385032e-03
6
Properties=species:S:1:pos:R:3:forces:R:3 energy=-6.992913456985e+02 dipole="-1.0647414115e+00 -5.0837701105e-01 4.0249254123e-02" quadrupole="-2.9201818406e+01 2.6145062261e+00 1.4571699582e-01 2.6145062261e+00 -3.2573830878e+01 -7.1643091056e-02 1.4571699582e-01 -7.1643091056e-02 -3.4591991170e+01" polarizability="4.3571756546e+01 1.5235148829e+00 -2.0898892857e-01 1.5235148829e+00 4.2994544128e+01 2.5355548365e-01 -2.0898892857e-01 2.5355548365e-01 4.2349577759e+01" charge=-1 multiplicity=1 method=wB97M-V basis=def2-svpd config_type=hso4- sample_index=101 temperature=300.0 units=atomic
S         0.1169600802       0.0145435285       0.0019816279   1.746371561186e-02  -2.767189719503e-02  -2.056237648735e-02
O        -1.5523329265       0.0651210371       0.0115133412  -2.570240441583e-02  -5.643374874316e-02  -3.493770747374e-03
O         0.5136493632       1.3950997964       0.0016776787  -4.295615137275e-04   4.965671540963e-02  -1.089530519192e-03
O         0.4912788635      -0.6794108992       1.2316471848  -2.794162408835e-03  -1.969056069668e-02   1.842784865975e-02
O         0.5096325449      -0.6919130635      -1.2480407221  -1.249434260149e-02  -4.898295722340e-03   5.299879001900e-03
H        -1.8871893591      -0.9275241392      -0.0127938704   2.387405996982e-02   5.900798596419e-02   1.393219545771e-03
6
Properties=species:S:1:pos:R:3:forces:R:3 energy=-6.992942473295e+02 dipole="-8.1607167412e-01 -6.1464950245e-01 -2.3032744351e-01" quadrupole="-2.9629920050e+01 2.2127665947e+00 2.7012882891e-01 2.2127665947e+00 -3.3115751278e+01 4.9423526728e-01 2.7012882891e-01 4.9423526728e-01 -3.3935352381e+01" polarizability="4.2805931697e+01 1.2602531860e+00 -5.0144707196e-02 1.2602531860e+00 4.3613240954e+01 -5.6303929722e-01 -5.0144707196e-02 -5.6303929722e-01 4.1216949897e+01" charge=-1 multiplicity=1 method=wB97M-V basis=def2-svpd config_type=hso4- sample_index=102 temperature=300.0 units=atomic
S         0.1474930404       0.0140810657      -0.0201891986  -1.554116718875e-02   5.773750326967e-02   7.264801982564e-02
O        -1.5477937715       0.0496081435       0.0440428887   3.116947966674e-03   1.194814608892e-02  -9.152426033810e-03
O         0.5018292194       1.4692661817      -0.0248280374  -8.877263111144e-03  -2.511072320843e-02   2.295311207996e-03
O         0.4449266496      -0.7360861432       1.2164736848   7.485724179731e-03   1.873884678123e-03   8.028429151992e-03
O         0.4975674844      -0.6970767200      -1.1909884852   1.470270746057e-02  -3.915816270340e-02  -7.401417472957e-02
H        -1.8203466663      -0.8612183771      -0.0760705505  -9.022288218543e-04  -7.240584261767e-03   2.448533425592e-04
6
Properties=species:S:1:pos:R:3:forces:R:3 energy=-6.992911249003e+02 dipole="-8.9216288113e-01 -2.3845331922e-01 6.3392366392e-02" quadrupole="-2.9665496863e+01 2.6345502477e+00 -2.7472875213e-01 2.6345502477e+00 -3.2432368607e+01 -7.9173174119e-02 -2.7472875213e-01 -7.9173174119e-02 -3.4977044175e+01" polarizability="4.2924211312e+01 1.1927079614e+00 2.8945053918e-01 1.1927079614e+00 4.3694243220e+01 -2.6461587265e-01 2.8945053918e-01 -2.6461587265e-01 4.3555977495e+01" charge=-1 multiplicity=1 method=wB97M-V basis=def2-svpd config_type=hso4- sample_index=103 temperature=300.0 units=atomic
S         0.1411174855       0.0561585433       0.0105252822  -2.485130712993e-04  -1.083572547575e-01  -3.204352152686e-03
O        -1.5255132035       0.0343512372      -0.0367360806  -2.210171277954e-02  -3.935975190693e-02   1.309609435432e-02
O         0.5062868459       1.4266031397      -0.0022991441   1.100725218466e-02   6.254248264119e-02   2.813997533457e-03
O         0.4870506761      -0.7340667516       1.2605584874  -8.239001204033e-03   2.211848634589e-02  -2.403774090211e-02
O         0.4382197050      -0.7193610553      -1.2453585394   5.259938973127e-03   1.247012980786e-02   1.598912905607e-02
H        -1.7647660695      -0.9630225331       0.0472279696   1.432457240376e-02   5.054708213011e-02  -4.657756481925e-03
6
Properties=species:S:1:pos:R:3:forces:R:3 energy=-6.992936579233e+02 dipole="-8.5693953113e-01 -5.5130063730e-01 -8.0048584524e-02" quadrupole="-2.9128399669e+01 2.4333755298e+00 -3.1716487914e-01 2.4333755298e+00 -3.2815972262e+01 1.5070350193e-01 -3.1716487914e-01 1.5070350193e-01 -3.4824602974e+01" polarizability="4.4054127466e+01 1.5894121323e+00 4.3702272471e-01 1.5894121323e+00 4.3975283645e+01 -5.6859953894e-01 4.3702272471e-01 -5.6859953894e-01 4.4261068056e+01" charge=-1 multiplicity=1 method=wB97M-V basis=def2-svpd config_type=hso4- sample_index=104 temperature=300.0 units=atomic
S         0.1615932175       0.0047516542      -0.0043461336  -1.517428128797e-02  -7.401852916176e-03   3.904119672384e-02
O        -1.5358400821       0.0420067271      -0.0249047615  -1.970254736490e-02  -2.126890193270e-02   6.421811259815e-03
O         0.4984504592       1.4327842439      -0.0041575768   3.572751049949e-04   4.171944518767e-03   2.125306016721e-03
O         0.4772188894      -0.6991068951       1.3108995689  -4.154932441079e-03   1.069766570098e-02  -4.269986356587e-02
O         0.4374527806      -0.6710787841      -1.2747729567   1.369409315448e-02  -1.686992118662e-02  -3.450274674321e-03
H        -1.9452347487      -0.8751388805       0.0273247303   2.495513347495e-02   3.070901604344e-02  -1.420025756719e-03
6
Properties=species:S:1:pos:R:3:forces:R:3 energy=-6.992893056250e+02 dipole="-1.1338868676e+00 -7.7606728328e-01 7.3842552962e-03" quadrupole="-2.8788857105e+01 2.1332909567e+00 -1.5785877293e-01 2.1332909567e+00 -3.3218940685e+01 -1.8653896018e-01 -1.5785877293e-01 -1.8653896018e-01 -3.4317083914e+01" polarizability="4.1500317585e+01 7.3374862672e-01 5.8043511910e-02 7.3374862672e-01 4.1991962748e+01 3.4342356376e-01 5.8043511910e-02 3.4342356376e-01 4.2227717831e+01" charge=-1 multiplicity=1 method=wB97M-V basis=def2-svpd config_type=hso4- sample_index=105 temperature=300.0 units=atomic
S         0.1134282166      -0.0336274954      -0.0057842818   3.728637538567e-02   6.989628332624e-02  -6.690665754996e-03
O        -1.5091730776       0.0941676253      -0.0091696880  -4.948437023213e-03   3.656762918788e-02  -1.885011098281e-03
O         0.4776094279       1.3997767396       0.0316207411  -1.765911667596e-03   7.042718528783e-03  -9.604593025992e-03
O         0.5066116057      -0.6383125346       1.2546567227  -2.268584359706e-03  -4.056258507525e-02   2.054746835258e-02
O         0.4915330368      -0.6803716319      -1.2671137793  -4.865777321819e-03  -2.200724067871e-02  -4.249800229935e-03
H        -1.8386922502      -0.7634539426       0.0299064880  -2.351507347541e-02  -5.097885495350e-02   1.876487589400e-03
6
Properties=species:S:1:pos:R:3:forces:R:3 energy=-6.992893602597e+02 dipole="-6.9300301132e-01 -3.0648440727e-01 -2.1878844335e-01" quadrupole="-2.9903493202e+01 2.2915974273e+00 1.8975211871e-01 2.2915974273e+00 -3.2236093118e+01 1.7579076892e-01 1.8975211871e-01 1.7579076892e-01 -3.4288802441e+01" polarizability="4.1045957895e+01 8.1732893982e-01 -1.8646825823e-01 8.1732893982e-01 4.1382428191e+01 2.5478591977e-01 -1.8646825823e-01 2.5478591977e-01 4.1198074436e+01" charge=-1 multiplicity=1 method=wB97M-V basis=def2-svpd config_type=hso4- sample_index=106 temperature=300.0 units=atomic
S         0.1564974365       0.0443890363      -0.0318314300  -3.094843804659e-02  -7.721538867387e-02   3.934510000562e-02
O        -1.5074852126       0.0393627340       0.0506122465  -1.423224907374e-02  -4.237375176080e-03  -1.746534866196e-02
O         0.4854081199       1.4035257910       0.0243989365   2.529607656893e-02   9.635343249800e-02  -9.406829198720e-03
O         0.4162272640      -0.6892412000       1.2161726357   1.963854094056e-02  -1.359835349845e-02   1.462346747530e-02
O         0.4749161638      -0.7257376584      -1.2240811404   7.401715944661e-03  -7.638504427703e-03  -2.947443945306e-02
H        -1.6631087564      -0.9136138504      -0.0562490878  -7.141343180268e-03   6.341185391830e-03   2.358946302065e-03
6
Properties=species:S:1:pos:R:3:forces:R:3 energy=-6.992944877553e+02 dipole="-8.0242956193e-01 -4.4401648031e-01 1.2633622086e-01" quadrupole="-3.0150720011e+01 2.1218807694e+00 5.1720630514e-01 2.1218807694e+00 -3.2449638692e+01 1.1020462056e-01 5.1720630514e-01 1.1020462056e-01 -3.4304764812e+01" polarizability="4.2214833532e+01 1.2898794236e+00 -5.2724027398e-01 1.2898794236e+00 4.2606400733e+01 -2.0538477255e-02 -5.2724027398e-01 -2.0538477255e-02 4.1550278179e+01" charge=-1 multiplicity=1 method=wB97M-V basis=def2-svpd config_type=hso4- sample_index=107 temperature=300.0 units=atomic
S         0.1354794613       0.0343624862       0.0201912593  -9.539884005947e-04  -1.125328724458e-02  -4.898377449177e-02
O        -1.5441247624       0.0296682033       0.0333744937  -2.296865080627e-03  -2.533032448712e-02  -7.403820852092e-03
O         0.5277783906       1.4228665486      -0.0490580254   4.402876412435e-04   3.452575311766e-02   1.234496050544e-02
O         0.4346438956      -0.7211158528       1.2108320287   1.406096980780e-02  -1.756172749439e-02   4.155870230602e-02
O         0.4928905295      -0.6811902086      -1.2318583403  -5.638899478092e-03  -7.355201886927e-03  -4.866871095963e-04
H        -1.6653555768      -0.9545936844      -0.0673359200  -5.632118042243e-03   2.699099503617e-02   2.968637593831e-03
6
Properties=species:S:1:pos:R:3:forces:R:3 energy=-6.992908997594e+02 dipole="-1.1180546951e+00 -4.6350711856e-01 2.2672277626e-01" quadrupole="-2.9516612203e+01 2.1818939380e+00 -1.1273320680e-01 2.1818939380e+00 -3.3016397921e+01 -1.9672643027e-01 -1.1273320680e-01 -1.9672643027e-01 -3.4646438989e+01" polarizability="4.2129202900e+01 1.9566208948e+00 5.7462320769e-02 1.9566208948e+00 4.4918676630e+01 -1.7557333698e-01 5.7462320769e-02 -1.7557333698e-01 4.2426324323e+01" charge=-1 multiplicity=1 method=wB97M-V basis=def2-svpd config_type=hso4- sample_index=108 temperature=300.0 units=atomic
S         0.1044825982       0.0475507680       0.0320564853   5.924450587692e-02  -1.109208199723e-03  -4.762065468861e-02
O        -1.5119949949      -0.0060681713      -0.0400021655  -3.578522694830e-02  -4.842611619297e-03   1.405708923904e-02
O         0.5672766299       1.4809856348      -0.0242152208  -2.714975504168e-02  -3.011209178688e-02   1.142298303200e-02
O         0.4816807024      -0.7398468644       1.2165067937  -3.949877695802e-03   5.935742144963e-03   1.935846965762e-02
O         0.4389182783      -0.7106245023      -1.2190732811   2.194171683590e-03   8.228712541326e-03   5.452973873609e-03
H        -1.7178003501      -0.9708452659       0.0431724004   5.503936589355e-03   2.194727535851e-02  -2.742812885145e-03
6
Properties=species:S:1:pos:R:3:forces:R:3 energy=-6.992856288264e+02 dipole="-1.1324557163e+00 -3.8701179419e-01 1.7466987117e-01" quadrupole="-2.9302297787e+01 2.4426612755e+00 -2.1978576718e-01 2.4426612755e+00 -3.3643177403e+01 -6.7465752043e-01 -2.1978576718e-01 -6.7465752043e-01 -3.4653809915e+01" polarizability="4.2182427910e+01 -5.5502771765e-02 -1.1355728316e-01 -5.5502771765e-02 4.4287763965e+01 1.3398082340e+00 -1.1355728316e-01 1.3398082340e+00 4.3533758183e+01" charge=-1 multiplicity=1 method=wB97M-V basis=def2-svpd config_type=hso4- sample_index=109 temperature=300.0 units=atomic
S         0.1074366311       0.0247128434       0.0027276810   6.096539853440e-02  -1.092938846660e-02  -4.415817079158e-02
O        -1.5190880611       0.1034730571      -0.0240992298   5.475871905229e-03   6.337125495305e-02  -4.703378784190e-03
O         0.4592081539       1.4616811849       0.0662030174  -1.806633501246e-03  -8.065120125281e-03  -1.405431399411e-02
O         0.5305021362      -0.7013098713       1.2115887125  -1.159664470765e-02  -8.929959596429e-03   1.118065256426e-02
O         0.5000530733      -0.8038069156      -1.2630342724  -2.293303598402e-02   4.178458674733e-02   4.497353797140e-02
H        -1.7354438896      -0.7678429046       0.0726771570  -3.007448222730e-02  -7.726845849925e-02   6.728968653005e-03
6
Properties=species:S:1:pos:R:3:forces:R:3 energy=-6.992841372819e+02 dipole="-9.2601693007e-01 -3.9860979783e-01 1.4933172378e-01" quadrupole="-2.9167022770e+01 2.4628154670e+00 -1.4820926619e-01 2.4628154670e+00 -3.3154217462e+01 -1.7801968398e-01 -1.4820926619e-01 -1.7801968398e-01 -3.4141427316e+01" polarizability="4.2433827519e+01 1.1319085292e-01 8.7521879639e-02 1.1319085292e-01 4.2419925728e+01 7.1697812944e-02 8.7521879639e-02 7.1697812944e-02 4.1744156393e+01" charge=-1 multiplicity=1 method=wB97M-V basis=def2-svpd config_type=hso4- sample_index=110 temperature=300.0 units=atomic
S         0.1366227838       0.0265844922       0.0180928714   1.186937608838e-03  -1.804912863827e-02  -3.271124718270e-02
O        -1.5548644165       0.0681752819      -0.0277638526   6.306704833549e-02   1.537896250450e-01  -5.361264244005e-03
O         0.4806299750       1.4445443852      -0.0049144425  -2.105874549117e-03   1.095692434418e-02   4.133158982200e-03
O         0.5141922018      -0.7324460950       1.2073662078  -3.789056687168e-03  -3.231872334283e-03   2.480115772711e-02
O         0.4828503391      -0.7278167202      -1.2130361554  -2.884614549597e-03   4.954073687895e-03  -2.601524795079e-03
H        -1.8965882153      -0.7159986328       0.0363780635  -5.547675080316e-02  -1.484389744827e-01   1.169628336516e-02
6
Properties=species:S:1:pos:R:3:forces:R:3 energy=-6.992870293225e+02 dipole="-1.0069080752e+00 -4.7768879953e-01 1.7159715987e-01" quadrupole="-2.8840190264e+01 2.8477106531e+00 3.0235048847e-01 2.8477106531e+00 -3.2749117114e+01 -2.5429896471e-01 3.0235048847e-01 -2.5429896471e-01 -3.4417857303e+01" polarizability="4.4035460560e+01 1.1778406741e+00 -4.7521282502e-01 1.1778406741e+00 4.2820264890e+01 5.6442144083e-01 -4.7521282502e-01 5.6442144083e-01 4.2093357004e+01" charge=-1 multiplicity=1 method=wB97M-V basis=def2-svpd config_type=hso4- sample_index=111 temperature=300.0 units=atomic
S         0.1336917781       0.0085988462       0.0150400091  -6.896116525027e-03  -3.516458829237e-02  -6.782199597844e-02
O        -1.5467777137       0.1034461881       0.0127465327  -3.355920926364e-02  -5.927120743731e-02  -2.453502616690e-03
O         0.4610142717       1.3928524874      -0.0020721581   1.239044763695e-02   6.584454011858e-02   3.369884759044e-04
O         0.4965223817      -0.6884534229       1.2105627320   7.930493464879e-03  -3.377537970874e-02   4.964873099144e-02
O         0.5238961707      -0.7106770812      -1.2505511866  -1.453538533804e-02   4.850999674929e-03   1.889246110247e-02
H        -1.9844431804      -0.8526786318      -0.0132359277   3.458853432851e-02   5.745657462931e-02   1.355363741009e-03
6
Properties=species:S:1:pos:R:3:forces:R:3 energy=-6.992840561967e+02 dipole="-8.2741324038e-01 -2.1417621521e-01 2.4420842801e-02" quadrupole="-2.9865763550e+01 2.2649186367e+00 -9.2060446605e-01 2.2649186367e+00 -3.2585204868e+01 -6.9801034814e-01 -9.2060446605e-01 -6.9801034814e-01 -3.4914806186e+01" polarizability="4.1910494060e+01 5.5366451340e-01 6.8430879605e-01 5.5366451340e-01 4.2491366107e+01 1.0433441504e+00 6.8430879605e-01 1.0433441504e+00 4.3981675126e+01" charge=-1 multiplicity=1 method=wB97M-V basis=def2-svpd config_type=hso4- sample_index=112 temperature=300.0 units=atomic
S         0.1438596409       0.0459926766      -0.0179535982   1.190357813467e-03  -1.037585699257e-01   3.042794496704e-04
O        -1.5155299856       0.0380935369      -0.0765123290  -1.852160687612e-03   3.427113977632e-02   3.812075987634e-03
O         0.4935137130       1.4055776578       0.1146330658   1.835581937914e-02   8.297015976303e-02  -2.224965445293e-02
O         0.5171281002      -0.6470589171       1.2690859164  -1.187298389220e-02  -9.698584250215e-03  -2.250477780886e-02
O         0.3997877163      -0.7758113446      -1.2802268071   9.296865290992e-03   3.076834117492e-02   3.331111629798e-02
H        -1.6686077544      -0.8514403371       0.1632662533  -1.516698222863e-02  -3.460313211866e-02   7.293593419942e-03
6
Properties=species:S:1:pos:R:3:forces:R:3 energy=-6.992885556544e+02 dipole="-7.5830394809e-01 -6.8549800638e-01 -3.2813438936e-03" quadrupole="-2.9047593412e+01 2.0508469851e+00 -2.1402377133e-02 2.0508469851e+00 -3.3366294893e+01 1.7772835184e-02 -2.1402377133e-02 1.7772835184e-02 -3.4660129519e+01" polarizability="4.2506383792e+01 1.4884705965e+00 3.2265035742e-02 1.4884705965e+00 4.5121645086e+01 -6.9687582659e-02 3.2265035742e-02 -6.9687582659e-02 4.4461499429e+01" charge=-1 multiplicity=1 method=wB97M-V basis=def2-svpd config_type=hso4- sample_index=113 temperature=300.0 units=atomic
S         0.1862489345      -0.0071487056       0.0003861765  -2.895773367315e-02   4.613363833836e-02   2.815896527299e-03
O        -1.4873118678       0.0258587126      -0.0023789909  -5.283667220308e-03   4.725478213218e-02   5.014242240487e-04
O         0.4796627132       1.4944115510      -0.0020746021  -3.706036194737e-04  -5.458287813823e-02   6.870807680709e-04
O         0.4174556265      -0.7001131503       1.3007408333   1.861460931754e-02  -4.788236256932e-04  -2.023504835362e-02
O         0.4140133059      -0.6954820222      -1.2971747220   2.030244495763e-02  -3.495759561627e-03   1.601072614296e-02
H        -1.8789101818      -0.8209097701       0.0017625905  -4.212474877883e-03  -3.480701378119e-02   2.213960263046e-04
6
Properties=species:S:1:pos:R:3:forces:R:3 energy=-6.992898910556e+02 dipole="-1.2176457262e+00 -4.5535518401e-01 -2.5011098461e-01" quadrupole="-2.8350842219e+01 2.6338271272e+00 2.7354906260e-02 2.6338271272e+00 -3.3634231621e+01 6.0954408727e-01 2.7354906260e-02 6.0954408727e-01 -3.4939269828e+01" polarizability="4.2399448442e+01 5.1379092413e-01 3.4343325471e-01 5.1379092413e-01 4.4360330809e+01 -1.1740091632e+00 3.4343325471e-01 -1.1740091632e+00 4.4216794925e+01" charge=-1 multiplicity=1 method=wB97M-V basis=def2-svpd config_type=hso4- sample_index=114 temperature=300.0 units=atomic
S         0.1213480129       0.0087711679      -0.0161724854   4.535228930744e-02  -1.276462092906e-02   6.418339818266e-02
O        -1.4866258805       0.1005303950       0.0159059020  -3.363097244308e-02   8.035419212638e-03  -1.736847397048e-03
O         0.4440823408       1.4487781540      -0.0382532436   4.005071138279e-03  -3.430873969435e-03   7.200611542240e-03
O         0.4923890851      -0.7668908758       1.3002131236  -1.712988704122e-02   3.381215304304e-02  -5.902384798072e-02
O         0.5046548498      -0.6916707769      -1.2429034471  -1.471223395859e-03  -1.484764459610e-02  -1.108071742723e-02
H        -1.9118198356      -0.7535297904      -0.0483457756   2.835442132367e-03  -1.082157983121e-02   4.900441578559e-04
6
Properties=species:S:1:pos:R:3:forces:R:3 energy=-6.992836203621e+02 dipole="-6.0177373375e-01 -6.7308384649e-01 2.4407851262e-02" quadrupole="-3.0579502253e+01 2.1897156215e+00 -3.5145850366e-01 2.1897156215e+00 -3.3061266136e+01 -2.6060337304e-01 -3.5145850366e-01 -2.6060337304e-01 -3.3545106926e+01" polarizability="4.3871564383e+01 7.1468318745e-01 2.8278621007e-01 7.1468318745e-01 4.3868454520e+01 2.2138068365e-01 2.8278621007e-01 2.2138068365e-01 4.0488445335e+01" charge=-1 multiplicity=1 method=wB97M-V basis=def2-svpd config_type=hso4- sample_index=115 temperature=300.0 units=atomic
S         0.1567618694       0.0012644209      -0.0026295917  -3.192479057126e-02   9.433027071232e-02  -2.590578660489e-03
O        -1.5811779024       0.1198879379      -0.0332024835   2.133092568013e-02  -7.437975152795e-02   1.093466911116e-02
O         0.4495493560       1.4607591946       0.0356403581   6.777014904015e-03  -1.537571750903e-02  -7.520533016442e-03
O         0.5245036001      -0.7137557276       1.1739186609   6.890342334455e-03  -3.229858706620e-02   6.507412246983e-02
O         0.4756870204      -0.7513375041      -1.1746092141   1.078105600267e-02  -2.326183196648e-02  -6.013545321452e-02
H        -1.6762911194      -0.9062715207       0.0633039129  -1.385620538320e-02   5.100670977297e-02  -5.805069000324e-03
6
Properties=species:S:1:pos:R:3:forces:R:3 energy=-6.992939813336e+02 dipole="-7.7111956291e-01 -3.9693977993e-01 -5.7644846756e-02" quadrupole="-3.0190439164e+01 2.1641614207e+00 -2.2752735385e-02 2.1641614207e+00 -3.2556337289e+01 -1.0908143105e-01 -2.2752735385e-02 -1.0908143105e-01 -3.4844450432e+01" polarizability="4.2650964505e+01 7.0878396920e-01 -9.0607220187e-02 7.0878396920e-01 4.2868385565e+01 4.6198911293e-01 -9.0607220187e-02 4.6198911293e-01 4.3923815551e+01" charge=-1 multiplicity=1 method=wB97M-V basis=def2-svpd config_type=hso4- sample_index=116 temperature=300.0 units=atomic
S         0.1459135892       0.0223964025      -0.0149858478   2.438855368685e-03  -4.292919935041e-02   5.949313113380e-03
O        -1.5371985993       0.0582365155       0.0119454940   6.965681607763e-03  -1.861018452291e-02  -5.545079517125e-03
O         0.4925947376       1.4123456238       0.0337952667   1.306659436628e-02   4.647650371841e-02  -9.887527625522e-03
O         0.4612274482      -0.6752482098       1.2766726195  -7.521774210515e-04  -5.266420155813e-03  -2.320171660348e-02
O         0.4724786822      -0.7235110922      -1.2923932990  -6.724239997747e-03   1.352710824489e-02   3.211771820816e-02
H        -1.6383589065      -0.9114854103       0.0024627798  -1.502730066091e-02   6.828308938184e-03   5.044853522910e-04
6
Properties=species:S:1:pos:R:3:forces:R:3 energy=-6.992720695327e+02 dipole="-1.1534981461e+00 -5.7733649959e-01 -2.9305450724e-01" quadrupole="-2.8214950408e+01 2.6650990079e+00 2.7217767103e-01 2.6650990079e+00 -3.3374181453e+01 2.1486011774e-01 2.7217767103e-01 2.1486011774e-01 -3.4836689504e+01" polarizability="4.4160854603e+01 3.0891064087e+00 -5.1217722130e-02 3.0891064087e+00 4.6836697789e+01 4.9997879681e-01 -5.1217722130e-02 4.9997879681e-01 4.3618944148e+01" charge=-1 multiplicity=1 method=wB97M-V basis=def2-svpd config_type=hso4- sample_index=117 temperature=300.0 units=atomic
S         0.1389677224       0.0217292711      -0.0441288011   2.675752462120e-02   6.009858755261e-03   5.261099524387e-02
O        -1.4703663215       0.0280541901       0.0656167475  -9.271172239189e-02  -5.327128991558e-02  -2.668155016123e-02
O         0.5021857308       1.4924787042       0.0367630847  -1.245136701723e-02  -4.094585811949e-02  -1.692232385243e-02
O         0.4089071667      -0.6963048698       1.2463773398   1.928480887040e-02   1.594449215572e-03  -1.462286005967e-02
O         0.4836725206      -0.7491131002      -1.2561565588   1.648514711455e-03   9.604356484825e-03  -4.364474602788e-03
H        -1.9909852618      -0.9445854213      -0.0704410347   5.753236233697e-02   7.707178865055e-02   9.938910813330e-03
6
Properties=species:S:1:pos:R:3:forces:R:3 energy=-6.992873947064e+02 dipole="-8.3595912708e-01 -7.6647916524e-01 1.4085604204e-01" quadrupole="-3.0476954836e+01 1.6492663228e+00 -4.0547527717e-02 1.6492663228e+00 -3.2931935363e+01 1.4877638453e-02 -4.0547527717e-02 1.4877638453e-02 -3.4142261489e+01" polarizability="4.3416950177e+01 2.2250523573e+00 1.0863400189e-01 2.2250523573e+00 4.4811314428e+01 -4.8610792829e-01 1.0863400189e-01 -4.8610792829e-01 4.1927980302e+01" charge=-1 multiplicity=1 method=wB97M-V basis=def2-svpd config_type=hso4- sample_index=118 temperature=300.0 units=atomic
S         0.1272334163       0.0047004862       0.0269542256   1.772801770059e-02   9.132934894363e-02  -2.598035070007e-02
O        -1.5635205336       0.0135958727      -0.0289649817   6.441787182279e-03  -4.794177731758e-02   1.279868500229e-02
O         0.5682801495       1.4730315345      -0.0400364125  -2.500999975049e-02  -4.537485607223e-02   1.550852378464e-02
O         0.4756660380      -0.7150221196       1.2362593553   1.673808687990e-03  -1.455652128933e-02   2.783301420312e-02
O         0.4455107202      -0.6593753456      -1.2224524829   9.278567621012e-03  -2.904101502536e-02  -2.700059203244e-02
H        -1.6350878552      -1.0081392639       0.0180293602  -1.015449264668e-02   4.567883314435e-02  -3.129972750993e-03
6
Properties=species:S:1:pos:R:3:forces:R:3 energy=-6.992914644681e+02 dipole="-9.9464439654e-01 -6.3828414041e-01 -7.0808791565e-02" quadrupole="-2.9791849182e+01 2.3536070151e+00 5.5788397626e-02 2.3536070151e+00 -3.3186025706e+01 -7.4051420278e-02 5.5788397626e-02 -7.4051420278e-02 -3.4557566369e+01" polarizability="4.4690902883e+01 1.7500823945e+00 -1.4916452276e-01 1.7500823945e+00 4.5821490465e+01 5.0151319606e-01 -1.4916452276e-01 5.0151319606e-01 4.3386595721e+01" charge=-1 multiplicity=1 method=wB97M-V basis=def2-svpd config_type=hso4- sample_index=119 temperature=300.0 units=atomic
S         0.1233460654       0.0095962748      -0.0170302677   2.972446786734e-02   3.453291953047e-02   8.091337502940e-03
O        -1.5671934187       0.0618330222       0.0203196725  -6.451554125888e-03  -6.238434413394e-02  -8.241831892585e-03
O         0.5218656508       1.4731217001       0.0309745342  -1.840666459049e-02  -3.822396986923e-02  -1.087054783393e-02
O         0.4835406103      -0.6939026483       1.2359750031  -4.663952705281e-03  -6.306254160149e-03  -2.541334307466e-03
O         0.5059291540      -0.7401535267      -1.2524261558  -1.291690677830e-02   1.092197334465e-02   1.149032589170e-02
H        -1.8083049216      -0.9605991576      -0.0103232996   1.268734039285e-02   6.148697439848e-02   2.055295761858e-03
6
Properties=species:S:1:pos:R:3:forces:R:3 energy=-6.992838237716e+02 dipole="-1.0852475582e+00 -3.8224590672e-01 -3.3487812118e-01" quadrupole="-2.9141666872e+01 2.4766736216e+00 3.1733431194e-01 2.4766736216e+00 -3.2832864665e+01 7.1343864372e-01 3.1733431194e-01 7.1343864372e-01 -3.4621250905e+01" polarizability="4.1024396437e+01 1.6217075082e+00 9.6048947062e-03 1.6217075082e+00 4.3930638628e+01 -6.7172116689e-01 9.6048947062e-03 -6.7172116689e-01 4.1855716669e+01" charge=-1 multiplicity=1 method=wB97M-V basis=def2-svpd config_type=hso4- sample_index=120 temperature=300.0 units=atomic
S         0.1185692108       0.0482979713      -0.0297078033   3.828722145929e-02  -3.019157204929e-02   8.300118474860e-02
O        -1.4687299439       0.0306022622       0.0616788550  -6.766252992627e-02  -4.584800303071e-02  -2.453983774132e-02
O         0.5075216205       1.4497175380      -0.0315982556  -1.854118398934e-03   1.963820340514e-02   2.021991051531e-03
O         0.4178637838      -0.7537711441       1.2296646926   8.037862348353e-03   2.175322728988e-02  -1.700319014451e-02
O         0.4909553238      -0.7029307299      -1.1943546762   8.912000578102e-03  -2.372341582146e-02  -5.515431520596e-02
H        -1.7167245588      -0.9698273687      -0.1049072884   1.427793022485e-02   5.836507262104e-02   1.176275211632e-02
6
Properties=species:S:1:pos:R:3:forces:R:3 energy=-6.992797076520e+02 dipole="-1.0338158127e+00 -4.3182463601e-01 -1.4709621702e-01" quadrupole="-2.8486268753e+01 2.9920598201e+00 3.8398156110e-01 2.9920598201e+00 -3.3653932316e+01 4.2897086843e-01 3.8398156110e-01 4.2897086843e-01 -3.4730113632e+01" polarizability="4.6686819916e+01 1.7917785152e+00 -2.2793835899e-02 1.7917785152e+00 4.7223448799e+01 -5.5062612899e-01 -2.2793835899e-02 -5.5062612899e-01 4.4396685838e+01" charge=-1 multiplicity=1 method=wB97M-V basis=def2-svpd config_type=hso4- sample_index=121 temperature=300.0 units=atomic
S         0.1510146553       0.0260070284      -0.0089817736   3.811842885311e-03  -2.431618523398e-02   2.665068469554e-02
O        -1.5456743595       0.0907070933       0.0408207504  -4.601057612541e-02  -5.281770178473e-02  -1.335481527539e-02
O         0.4537166458       1.4974068606      -0.0377821662  -4.352817632491e-03  -3.578333093412e-02   6.128332025037e-03
O         0.4727085886      -0.7883504003       1.2510452892  -4.747235128166e-03   3.589749651180e-02  -3.399487710314e-02
O         0.5261530527      -0.7381511566      -1.2318026722  -6.679761409052e-03   1.258992662112e-02   5.885087389885e-03
H        -2.1056024532      -0.8341103227      -0.0772579565   5.801147842738e-02   6.440783533821e-02   8.738027890169e-03
6
Properties=species:S:1:pos:R:3:forces:R:3 energy=-6.992768473764e+02 dipole="-9.1570470227e-01 -5.9494760423e-01 -3.6589197733e-01" quadrupole="-3.0047682895e+01 2.2618059108e+00 1.7942968429e-01 2.2618059108e+00 -3.2846011830e+01 7.1639016399e-01 1.7942968429e-01 7.1639016399e-01 -3.4260721451e+01" polarizability="4.4012244774e+01 2.2739982154e+00 1.4268253852e-01 2.2739982154e+00 4.5588280534e+01 -6.9366799985e-01 1.4268253852e-01 -6.9366799985e-01 4.1885559356e+01" charge=-1 multiplicity=1 method=wB97M-V basis=def2-svpd config_type=hso4- sample_index=122 temperature=300.0 units=atomic
S         0.1257363447       0.0281693870      -0.0354624962   6.956495855586e-03   4.585424065755e-02   1.147652969902e-01
O        -1.5579508801       0.0351497505       0.0528835838  -1.220258909384e-02  -7.797649623997e-02  -2.479048921220e-02
O         0.5416048582       1.4702343749      -0.0222005176  -1.847723424560e-02  -2.456328228397e-02  -5.045756479507e-04
O         0.4470458394      -0.7420202364       1.2262519427  -1.996950968922e-03   1.672582131603e-02  -1.562584141100e-02
O         0.5043355208      -0.6950843982      -1.1808854033   1.408278214461e-02  -4.427984893113e-02  -8.674259719483e-02
H        -1.7424455964      -1.0414250599      -0.0895092180   1.164057501851e-02   8.429555813848e-02   1.298388399776e-02
6
Properties=species:S:1:pos:R:3:forces:R:3 energy=-6.992765548828e+02 dipole="-1.0761814263e+00 -5.6044487534e-01 4.0206228709e-01" quadrupole="-2.8661743300e+01 1.9226930229e+00 -2.4256645389e-01 1.9226930229e+00 -3.3186536024e+01 -4.1433267087e-01 -2.4256645389e-01 -4.1433267087e-01 -3.4465304851e+01" polarizability="3.9684996291e+01 1.3180234835e+00 6.7848139614e-02 1.3180234835e+00 4.2604855159e+01 3.0334974399e-02 6.7848139614e-02 3.0334974399e-02 4.1900867883e+01" charge=-1 multiplicity=1 method=wB97M-V basis=def2-svpd config_type=hso4- sample_index=123 temperature=300.0 units=atomic
S         0.1295339990       0.0157870877       0.0511087282   3.960708932109e-02   3.362369529144e-02  -9.116108439939e-02
O        -1.4399049316       0.0023411463      -0.0707168513  -3.306183952079e-02   1.169023918822e-01   2.343059637900e-03
O         0.5151924096       1.4534648289      -0.0290813563  -8.207374738978e-03  -1.472857125819e-02   1.635067404127e-02
O         0.4658720687      -0.7063756939       1.2431404836   1.255928980573e-02  -2.345736226087e-02   4.604675410186e-02
O         0.3879234490      -0.6718801307      -1.2506257392   2.516434246509e-02  -1.068995381368e-02   8.179508469620e-03
H        -1.7581608822      -0.8065277762       0.0835216096  -3.602962131218e-02  -1.015713925623e-01   1.824913721022e-02
6
Properties=species:S:1:pos:R:3:forces:R:3 energy=-6.992914945642e+02 dipole="-4.4298054417e-01 -4.4155502185e-01 1.6690114214e-01" quadrupole="-3.0364966982e+01 2.4436838502e+00 1.6167854347e-01 2.4436838502e+00 -3.2666229468e+01 -4.2786306266e-01 1.6167854347e-01 -4.2786306266e-01 -3.4230044381e+01" polarizability="4.4595006849e+01 7.5881455267e-01 -4.4661556031e-01 7.5881455267e-01 4.3961935665e+01 1.0225483247e+00 -4.4661556031e-01 1.0225483247e+00 4.2993775209e+01" charge=-1 multiplicity=1 method=wB97M-V basis=def2-svpd config_type=hso4- sample_index=124 temperature=300.0 units=atomic
S         0.1979506282       0.0253887998       0.0079899292  -6.068732033403e-02  -1.321321598501e-02  -7.122313339049e-02
O        -1.5728438634       0.0697772064       0.0058978748   1.573372788967e-02  -2.008833283479e-02  -1.542808786736e-03
O         0.4563656691       1.4534418687       0.0302452625   1.580931337720e-02   1.647202129591e-02  -6.527481671114e-03
O         0.4482110555      -0.6962935599       1.2171592144   2.248217922347e-02  -2.899313142037e-02   4.599285186237e-02
O         0.4632830783      -0.7617490834      -1.2699226788   3.299679668289e-03   2.666910691287e-02   3.408147079922e-02
H        -1.8026700788      -0.8889840703       0.0138756324   3.393598072459e-03   1.914133291286e-02  -8.472279371045e-04
6
Properties=species:S:1:pos:R:3:forces:R:3 energy=-6.992931848421e+02 dipole="-9.6637523519e-01 -4.3548144453e-01 2.7635326766e-01" quadrupole="-2.9589968134e+01 2.3232689117e+00 -5.9837467867e-01 2.3232689117e+00 -3.3316794593e+01 -7.9400926793e-01 -5.9837467867e-01 -7.9400926793e-01 -3.4670123775e+01" polarizability="4.3409882670e+01 8.6953092003e-01 2.9734316288e-01 8.6953092003e-01 4.4748451908e+01 1.0454202207e+00 2.9734316288e-01 1.0454202207e+00 4.3865234566e+01" charge=-1 multiplicity=1 method=wB97M-V basis=def2-svpd config_type=hso4- sample_index=125 temperature=300.0 units=atomic
S         0.1316632834       0.0272601156       0.0185227373   2.311775783486e-02  -7.591739260325e-03  -5.724670047070e-02
O        -1.5413820360       0.0540283114      -0.0743574292   2.319298234713e-03   1.328100521957e-02   1.226675855709e-02
O         0.5010503232       1.4692131850       0.0640378519  -9.038381825718e-03  -1.836468077220e-02  -1.049182340531e-02
O         0.5314423726      -0.6895624915       1.2365219370  -8.545962729412e-03  -9.448742376296e-03   1.000953966642e-02
O         0.4350366702      -0.7752845522      -1.2709963761  -2.858258803005e-03   3.376697205939e-02   4.482208461827e-02
H        -1.7876721299      -0.8434816733       0.1382795840  -5.012234069569e-03  -1.164886586957e-02   5.877117199734e-04
6
Properties=species:S:1:pos:R:3:forces:R:3 energy=-6.992742032252e+02 dipole="-4.9541704319e-01 -7.8128267147e-01 -3.4136339072e-01" quadrupole="-3.0306376034e+01 2.2745518974e+00 5.1465549330e-01 2.2745518974e+00 -3.2917725650e+01 6.9019198960e-01 5.1465549330e-01 6.9019198960e-01 -3.3827860801e+01" polarizability="4.6507911313e+01 1.5825069070e+00 -1.6858729437e-01 1.5825069070e+00 4.4806591083e+01 -4.2423796420e-01 -1.6858729437e-01 -4.2423796420e-01 4.2451778137e+01" charge=-1 multiplicity=1 method=wB97M-V basis=def2-svpd config_type=hso4- sample_index=126 temperature=300.0 units=atomic
S         0.1880905946      -0.0247700688      -0.0360203476  -6.134292798307e-02   9.422084194765e-02   1.070136684594e-01
O        -1.5951320114       0.1096619591       0.0837252706   2.102034153829e-03  -8.941326717455e-02  -3.421501666795e-02
O         0.4506698509       1.4426871740      -0.0283652911   8.728832543470e-03  -1.589289437530e-02   1.230440767813e-04
O         0.4313355498      -0.7118723753       1.2509056990   1.322375176184e-02  -8.187106302538e-03  -8.641195644046e-03
O         0.5338423808      -0.6730663113      -1.2266370846   1.859995897405e-02  -5.674553730539e-02  -8.215771826828e-02
H        -1.8937109965      -0.9135916343      -0.1320776231   1.869041539062e-02   7.604799516495e-02   1.789292068326e-02
6
Properties=species:S:1:pos:R:3:forces:R:3 energy=-6.992909913003e+02 dipole="-8.3183631588e-01 -6.3355920111e-01 2.3478328520e-01" quadrupole="-2.9685116477e+01 2.6234975608e+00 4.4221589803e-01 2.6234975608e+00 -3.3195215411e+01 -1.3801967129e-01 4.4221589803e-01 -1.3801967129e-01 -3.4058462419e+01" polarizability="4.6177764902e+01 9.1368012125e-01 -5.6358974864e-01 9.1368012125e-01 4.4539044906e+01 2.1881198682e-01 -5.6358974864e-01 2.1881198682e-01 4.2445648125e+01" charge=-1 multiplicity=1 method=wB97M-V basis=def2-svpd config_type=hso4- sample_index=127 temperature=300.0 units=atomic
S         0.1457823972      -0.0024580082       0.0313884662  -1.147503303127e-02   4.842007663583e-02  -8.623714698254e-02
O        -1.6106859693       0.1075880796       0.0113764029   9.823815481450e-03  -3.989288042296e-02   6.328342620635e-04
O         0.4745220772       1.4519686860      -0.0398054301  -6.566281728794e-03  -1.917864330605e-02   1.310159247787e-02
O         0.5064300040      -0.7327944114       1.2006587229   6.391570821443e-03  -2.599659036102e-02   5.624294179625e-02
O         0.5388316779      -0.7082245092      -1.2334112665  -1.545745189942e-02   2.567929246048e-03   1.475383182933e-02
H        -1.9671638987      -0.8361022704      -0.0310354640   1.724908171009e-02   3.408571682660e-02   1.471955395083e-03
6
Properties=species:S:1:pos:R:3:forces:R:3 energy=-6.992898971938e+02 dipole="-9.4134558886e-01 -5.9060963974e-01 -2.6489575649e-02" quadrupole="-2.8899440792e+01 2.3620346353e+00 -6.0785109197e-01 2.3620346353e+00 -3.2974127292e+01 8.0075193986e-02 -6.0785109197e-01 8.0075193986e-02 -3.4099687867e+01" polarizability="4.3731789456e+01 1.8356898542e+00 6.2135627590e-01 1.8356898542e+00 4.3422426811e+01 -6.7402496196e-01 6.2135627590e-01 -6.7402496196e-01 4.1482976394e+01" charge=-1 multiplicity=1 method=wB97M-V basis=def2-svpd config_type=hso4- sample_index=128 temperature=300.0 units=atomic
S         0.1411475679       0.0157300640       0.0040529317  -9.968750472229e-03   3.457234059240e-02   5.601242395583e-02
O        -1.5545362148       0.0222725274      -0.0552408197  -1.718875669165e-02   6.962467977066e-03   1.110634842079e-02
O         0.5315458596       1.4495075538      -0.0024882898  -1.530824133600e-02  -1.161240272860e-02   3.550544719320e-03
O         0.5121555189      -0.7127184839       1.2366599586  -6.304418285141e-03   1.324991284202e-03   4.643444619248e-03
O         0.4321081599      -0.6783702591      -1.1910718077   2.543874057331e-02  -4.353719471292e-02  -7.440813919643e-02
H        -2.0074246916      -0.8422052128       0.0685026006   2.329050440561e-02   1.236041685494e-02  -8.588689600308e-04
6
Properties=species:S:1:pos:R:3:forces:R:3 energy=-6.992926137744e+02 dipole="-8.7465286516e-01 -4.6666969164e-01 1.4063581907e-02" quadrupole="-2.8896336187e+01 2.5853860704e+00 1.5382099180e-01 2.5853860704e+00 -3.3134124970e+01 2.0295360709e-01 1.5382099180e-01 2.0295360709e-01 -3.4632740533e+01" polarizability="4.4469962879e+01 1.7291074454e+00 -3.9429854914e-03 1.7291074454e+00 4.5210387539e+01 -5.3022099557e-01 -3.9429854914e-03 -5.3022099557e-01 4.3673758212e+01" charge=-1 multiplicity=1 method=wB97M-V basis=def2-svpd config_type=hso4- sample_index=129 temperature=300.0 units=atomic
S         0.1635312149       0.0278350939       0.0108890786  -1.461804557302e-02  -1.819533306378e-02  -3.761071346209e-04
O        -1.5381899467       0.0296890779       0.0040179481  -2.373526734110e-02  -4.863234820840e-03   6.987568448045e-04
O         0.5006785317       1.4786427406      -0.0389610494  -7.547585209241e-03  -2.377306175638e-02   1.070104764821e-02
O         0.4521802222      -0.7513817454       1.2615599678   5.186212111941e-03   2.010121557401e-02  -1.750131991232e-02
O         0.4620585790      -0.6994129513      -1.2470471256   7.815656925509e-03   9.755374148401e-04   5.181721939447e-03
H        -2.0106594241      -0.8547019406      -0.0267559294   3.290958564677e-02   2.579331788035e-02   1.357003379558e-03
6
Properties=species:S:1:pos:R:3:forces:R:3 energy=-6.992880805836e+02 dipole="-8.3414337895e-01 -7.3493643190e-01 -2.6595789052e-02" quadrupole="-2.9183874330e+01 2.2164862600e+00 -3.8582106641e-01 2.2164862600e+00 -3.3240190408e+01 -4.0611851622e-01 -3.8582106641e-01 -4.0611851622e-01 -3.4139665552e+01" polarizability="4.1380410972e+01 1.4851991395e+00 1.3631314544e-01 1.4851991395e+00 4.4155995650e+01 7.7528719589e-01 1.3631314544e-01 7.7528719589e-01 4.1705561556e+01" charge=-1 multiplicity=1 method=wB97M-V basis=def2-svpd config_type=hso4- sample_index=130 temperature=300.0 units=atomic
S         0.1611910876      -0.0099348823      -0.0190645365  -1.297079203303e-02   7.288101129678e-02  -1.570162062043e-03
O        -1.4693232349       0.0852455754      -0.0203592292  -4.662030502269e-02  -5.441311970574e-02   4.476168728281e-03
O         0.4407003610       1.4584890370       0.0746661729   1.149769881844e-02  -1.798941112924e-02  -2.064269814445e-02
O         0.4658130142      -0.6569953059       1.2271602810   1.933522578229e-02  -4.050300119954e-02   3.962871065933e-02
O         0.4290672223      -0.7507381386      -1.2468772875   1.763716118752e-02  -7.678641833058e-03  -1.678748526114e-02
H        -1.7682620913      -0.8935179373       0.0675669750   1.110254737315e-02   4.779867286213e-02  -5.211054557658e-03
6
Properties=species:S:1:pos:R:3:forces:R:3 energy=-6.992818918541e+02 dipole="-7.8432634001e-01 -7.1216108097e-01 -3.0080780982e-01" quadrupole="-2.9331291173e+01 2.1427353586e+00 -6.6818105421e-01 2.1427353586e+00 -3.3149758586e+01 3.4060031446e-01 -6.6818105421e-01 3.4060031446e-01 -3.4031866253e+01" polarizability="4.3013116141e+01 8.2769440829e-01 8.9590834955e-01 8.2769440829e-01 4.2889083801e+01 -8.1437816762e-01 8.9590834955e-01 -8.1437816762e-01 4.2143463603e+01" charge=-1 multiplicity=1 method=wB97M-V basis=def2-svpd config_type=hso4- sample_index=131 temperature=300.0 units=atomic
S         0.1603573457      -0.0144613332      -0.0317559235  -3.003771235180e-02   8.591581856051e-02   1.464525912988e-01
O        -1.5501499741       0.0631565622      -0.0307324953   3.293539271128e-02   7.383742725484e-02  -4.055806133317e-03
O         0.4833765657       1.4454156772       0.0241128079  -3.021917458454e-03  -2.171255095318e-02  -8.185461749153e-03
O         0.5030118439      -0.6935619506       1.2804100472  -8.382893596276e-03   2.882828000129e-03  -3.477820648271e-02
O         0.4406832861      -0.6783581020      -1.2127951994   3.332563144493e-02  -6.751288243471e-02  -1.066319506795e-01
H        -1.9062153947      -0.7630575056       0.0451944114  -2.486988624358e-02  -7.334870917348e-02   7.184962415312e-03
6
Properties=species:S:1:pos:R:3:forces:R:3 energy=-6.992701311236e+02 dipole="-9.9788263355e-01 -6.5638488866e-01 -3.5437283626e-01" quadrupole="-2.9520882161e+01 2.1499404062e+00 -2.3806702969e-01 2.1499404062e+00 -3.2680772026e+01 6.7238386951e-01 -2.3806702969e-01 6.7238386951e-01 -3.4282903661e+01" polarizability="4.1116489915e+01 2.2008101549e+00 5.5408202349e-01 2.2008101549e+00 4.3972774264e+01 -1.1236847688e+00 5.5408202349e-01 -1.1236847688e+00 4.0936045861e+01" charge=-1 multiplicity=1 method=wB97M-V basis=def2-svpd config_type=hso4- sample_index=132 temperature=300.0 units=atomic
S         0.1211702900       0.0168848396      -0.0281966283   1.600120026280e-02   6.995033779365e-02   1.553142207466e-01
O        -1.4844276642       0.0336385960       0.0045550135  -5.382585418134e-02  -7.559192094666e-02  -4.114325140810e-03
O         0.5230015009       1.4399652715      -0.0198194727  -7.858744421621e-03   3.691006797943e-04   2.702170827387e-03
O         0.4559445746      -0.7240743397       1.2492516823  -2.329025298925e-03   1.002007900628e-02  -1.929674322984e-02
O         0.4455784308      -0.6593644305      -1.1762002564   3.990614864160e-02  -8.460243336095e-02  -1.384504346242e-01
H        -1.6717788699      -1.0374902111      -0.0257087214   8.083545207875e-03   7.990766888273e-02   3.856223303470e-03
6
Properties=species:S:1:pos:R:3:forces:R:3 energy=-6.992952123351e+02 dipole="-8.6606188100e-01 -5.7277504697e-01 1.6339307121e-01" quadrupole="-2.9461475738e+01 2.5026259982e+00 4.0475776604e-01 2.5026259982e+00 -3.3223705432e+01 2.5566186961e-01 4.0475776604e-01 2.5566186961e-01 -3.4228952990e+01" polarizability="4.3929664706e+01 4.9690994260e-01 -2.1640905774e-01 4.9690994260e-01 4.3780392454e+01 -8.0779145091e-01 -2.1640905774e-01 -8.0779145091e-01 4.2711333526e+01" charge=-1 multiplicity=1 method=wB97M-V basis=def2-svpd config_type=hso4- sample_index=133 temperature=300.0 units=atomic
S         0.1468092665       0.0014282045       0.0374583767  -4.220330856260e-03   2.204755778101e-02  -3.837736820734e-02
O        -1.5626240597       0.1010116048       0.0035778549   1.286001345514e-02   4.465070316159e-03   5.994688613253e-03
O         0.4590150601       1.4425538596      -0.0882211790   1.655838192276e-03  -3.393636685722e-03   2.610090282264e-02
O         0.4921597315      -0.7708122045       1.2424081815  -3.470560262774e-03   7.246327873839e-03   6.204674193967e-03
O         0.5135720934      -0.6647806206      -1.2302333010  -4.212266442398e-03  -1.843179858560e-02   3.428692135969e-04
H        -1.8859001845      -0.7953358272      -0.0502889818  -2.635593292806e-03  -1.190202227714e-02  -2.458407688769e-04
6
Properties=species:S:1:pos:R:3:forces:R:3 energy=-6.992981904574e+02 dipole="-1.0411170110e+00 -5.0109273828e-01 2.2026947741e-02" quadrupole="-2.9169595969e+01 2.6606097656e+00 -1.1825501273e-01 2.6606097656e+00 -3.3083315223e+01 -2.4966881149e-02 -1.1825501273e-01 -2.4966881149e-02 -3.4401077742e+01" polarizability="4.3806385770e+01 9.8086283614e-01 1.2201285910e-01 9.8086283614e-01 4.3767607114e+01 -1.0679234157e-01 1.2201285910e-01 -1.0679234157e-01 4.2340293636e+01" charge=-1 multiplicity=1 method=wB97M-V basis=def2-svpd config_type=hso4- sample_index=134 temperature=300.0 units=atomic
S         0.1233258661       0.0163825780       0.0039237122   1.882771731876e-02  -6.621798118656e-03   4.627012153919e-04
O        -1.5568361095       0.0859729612      -0.0139837829  -1.276126444942e-02  -3.099668720532e-02   3.944793439004e-03
O         0.4860602891       1.4367251273      -0.0008535697  -4.755320720617e-03   8.080067864796e-03   1.245797104612e-03
O         0.5197763440      -0.7233895628       1.2246136401  -1.128151729291e-02   1.366521833329e-03   4.012692683769e-03
O         0.5011429570      -0.7177313354      -1.2186832605  -6.516238950530e-03  -3.021403116767e-03  -8.456461140348e-03
H        -1.9071327948      -0.8550791842       0.0179692448   1.644830843922e-02   3.114819888141e-02  -1.209125672596e-03
6
Properties=species:S:1:pos:R:3:forces:R:3 energy=-6.992840673639e+02 dipole="-7.2365169661e-01 -7.7018234885e-01 -1.1197494764e-01" quadrupole="-2.9699348120e+01 1.8726801450e+00 1.2310872429e-01 1.8726801450e+00 -3.2984460455e+01 3.2287119968e-01 1.2310872429e-01 3.2287119968e-01 -3.4104704257e+01" polarizability="4.2631864608e+01 8.6107836457e-01 3.2379536758e-02 8.6107836457e-01 4.2335783813e+01 -5.8074932658e-01 3.2379536758e-02 -5.8074932658e-01 4.2533043117e+01" charge=-1 multiplicity=1 method=wB97M-V basis=def2-svpd config_type=hso4- sample_index=135 temperature=300.0 units=atomic
S         0.1619755359      -0.0244505983      -0.0055789583  -2.290782735318e-02   8.159033893253e-02   4.509629840648e-02
O        -1.5504123057       0.0526048204       0.0162724870   4.600288732244e-02   1.137923843589e-01   4.898027064068e-03
O         0.4968823711       1.4333363294      -0.0279493493  -2.568171550931e-03  -1.825208810581e-02   7.049169389650e-03
O         0.4512165060      -0.6867454040       1.2827949472   6.117347898207e-03  -1.242686080849e-02  -9.790125418650e-03
O         0.4706355626      -0.6420884005      -1.2578035067   1.357220663342e-02  -4.502918137980e-02  -3.989014121992e-02
H        -1.8128554097      -0.7804307206      -0.0394758663  -4.027222903554e-02  -1.196427944867e-01  -7.315143368739e-03
6
Properties=species:S:1:pos:R:3:forces:R:3 energy=-6.992925191553e+02 dipole="-1.0332370732e+00 -4.3592986074e-01 -8.3991689324e-02" quadrupole="-2.9120134771e+01 2.4708320562e+00 -1.1674471080e-01 2.4708320562e+00 -3.2773033696e+01 1.7942368827e-01 -1.1674471080e-01 1.7942368827e-01 -3.5308346915e+01" polarizability="4.2679050673e+01 1.1891740803e+00 2.4809237177e-01 1.1891740803e+00 4.3658599259e+01 -4.4936201802e-01 2.4809237177e-01 -4.4936201802e-01 4.5153119854e+01" charge=-1 multiplicity=1 method=wB97M-V basis=def2-svpd config_type=hso4- sample_index=136 temperature=300.0 units=atomic
S         0.1349712465       0.0151488814      -0.0053902303   2.318515258575e-02  -4.673757462631e-02   2.444191063435e-02
O        -1.5046358457       0.0501733716      -0.0064515013  -2.922283505748e-02  -2.312541959695e-02   1.684803369270e-03
O         0.4961313559       1.4152755650      -0.0088401907   5.332457964104e-03   3.017268700022e-02   2.405863263765e-03
O         0.4720638165      -0.7030532911       1.3251681502  -9.803008594800e-03   1.635073127901e-02  -5.493040401230e-02
O         0.4588913736      -0.6773313237      -1.2992078750  -7.367643189280e-04  -2.120673185466e-03   2.634653002416e-02
H        -1.8185185110      -0.8941734178       0.0010379971   1.116626153164e-02   2.548480834707e-02   6.364863858654e-05
6
Properties=species:S:1:pos:R:3:forces:R:3 energy=-6.992946972755e+02 dipole="-7.2160357598e-01 -5.6539522831e-01 -9.5300879497e-02" quadrupole="-2.9749384473e+01 2.1617457414e+00 -3.4006767199e-01 2.1617457414e+00 -3.2694829918e+01 1.1640399975e-01 -3.4006767199e-01 1.1640399975e-01 -3.3964811596e+01" polarizability="4.2262364274e+01 1.3348125121e+00 4.1585729581e-01 1.3348125121e+00 4.2556681556e+01 -4.1417877095e-01 4.1585729581e-01 -4.1417877095e-01 4.0949485769e+01" charge=-1 multiplicity=1 method=wB97M-V basis=def2-svpd config_type=hso4- sample_index=137 temperature=300.0 units=atomic
S         0.1577658634       0.0201894631      -0.0075994057  -2.932887014999e-02   3.658869402201e-02   5.773509581431e-02
O        -1.5420097638       0.0290703790      -0.0243548752   1.954226846067e-03   2.323735100441e-02   3.786218776710e-03
O         0.5116880684       1.4459749110       0.0051216432  -2.682118295831e-03   2.529012412477e-03  -9.302103117768e-04
O         0.4728460008      -0.7080892160       1.2277279265   5.195949524001e-03  -6.219863945692e-03   1.355215272090e-02
O         0.4325954020      -0.6926089609      -1.1951241796   2.644797883707e-02  -4.217178295996e-02  -7.513265033607e-02
H        -1.8001167850      -0.8846700112       0.0316397007  -1.612205943607e-03  -1.390378289691e-02   1.005023581382e-03
6
Properties=species:S:1:pos:R:3:forces:R:3 energy=-6.992894802260e+02 dipole="-1.1767819013e+00 -7.6556444700e-01 5.7686944671e-02" quadrupole="-2.9364987622e+01 2.0856947379e+00 -2.6030616370e-01 2.0856947379e+00 -3.3968736005e+01 -2.1512445124e-01 -2.6030616370e-01 -2.1512445124e-01 -3.4390056740e+01" polarizability="4.2628521343e+01 1.0943663956e+00 2.2993461176e-01 1.0943663956e+00 4.5770590560e+01 1.5539832848e-01 2.2993461176e-01 1.5539832848e-01 4.3014658539e+01" charge=-1 multiplicity=1 method=wB97M-V basis=def2-svpd config_type=hso4- sample_index=138 temperature=300.0 units=atomic
S         0.1009961988      -0.0110989093       0.0041102399   7.207785031751e-02   8.132279949961e-02  -8.131585788002e-03
O        -1.5196594093       0.0871509079      -0.0296775575  -1.401802006007e-02  -7.725982466447e-03   5.961728910001e-03
O         0.4954647005       1.5008858106       0.0195966160  -2.033566402352e-02  -6.602903196357e-02  -3.236559490056e-03
O         0.5241675945      -0.7160692829       1.2358958802  -1.499506516749e-02  -3.750009314892e-03   1.878821264256e-05
O         0.4834809329      -0.7360953982      -1.2368900753  -9.037929859702e-03   2.051560252802e-03   5.908451497540e-03
H        -1.7296179717      -0.8482666544       0.0505491279  -1.371787658211e-02  -5.896624323850e-03  -5.130632535720e-04
6
Properties=species:S:1:pos:R:3:forces:R:3 energy=-6.992916626339e+02 dipole="-6.6847360138e-01 -4.5551652844e-01 1.3823280651e-01" quadrupole="-3.0485720626e+01 2.1701509431e+00 5.9154309032e-01 2.1701509431e+00 -3.2929895239e+01 -3.9089744176e-02 5.9154309032e-01 -3.9089744176e-02 -3.4678531224e+01" polarizability="4.5631477320e+01 1.1132216298e+00 -7.8588362496e-01 1.1132216298e+00 4.5034163551e+01 3.6701279915e-01 -7.8588362496e-01 3.6701279915e-01 4.4785970787e+01" charge=-1 multiplicity=1 method=wB97M-V basis=def2-svpd config_type=hso4- sample_index=139 temperature=300.0 units=atomic
S         0.1628184731       0.0269271253       0.0171242956  -9.225502742596e-03  -4.352348964580e-03  -5.227068222711e-02
O        -1.6009074148       0.0292037041       0.0408041111   3.298941277480e-02   3.563934633120e-02  -2.184224891731e-03
O         0.5275104177       1.4765798804      -0.0296095341  -1.021022693696e-02  -2.866997215490e-02   7.565145014268e-03
O         0.4344823976      -0.7250709573       1.2578929160   8.417960172785e-03   3.644022795902e-03  -3.326941900980e-03
O         0.5031808800      -0.7198350961      -1.2996812015  -1.431777420935e-02   2.486595784210e-02   5.389910237367e-02
H        -1.7846713114      -0.8838562772      -0.0651359844  -7.663459403891e-03  -3.106656724905e-02  -3.644639330209e-03
6
Properties=species:S:1:pos:R:3:forces:R:3 energy=-6.992963112519e+02 dipole="-7.2072153363e-01 -5.1958953705e-01 8.0560266557e-02" quadrupole="-3.0122589243e+01 2.2325568556e+00 2.9184221816e-01 2.2325568556e+00 -3.3152526821e+01 -8.1410535110e-02 2.9184221816e-01 -8.1410535110e-02 -3.4571924732e+01" polarizability="4.3652557005e+01 1.0641454838e+00 -3.9731277924e-01 1.0641454838e+00 4.5373074029e+01 3.7459587612e-01 -3.9731277924e-01 3.7459587612e-01 4.3846550611e+01" charge=-1 multiplicity=1 method=wB97M-V basis=def2-svpd config_type=hso4- sample_index=140 temperature=300.0 units=atomic
S         0.1638064056       0.0200740450       0.0074132221  -9.479253680216e-03   1.488519452302e-02  -3.296426376866e-02
O        -1.5418958926       0.0600703270       0.0218759840   6.304407023702e-03  -2.482608029475e-02  -5.346713745807e-03
O         0.4809489832       1.4876062957      -0.0070378233  -2.550715868743e-04  -3.351053768050e-02   1.688798259917e-03
O         0.4411800736      -0.7301533537       1.2473734003   1.041631037616e-02   1.158270079328e-03   3.540969158422e-05
O         0.4775245550      -0.7405372303      -1.2753283080  -4.208965215995e-03   2.071995037518e-02   3.538986990094e-02
H        -1.7181937997      -0.9128244681      -0.0298042204  -2.760583304164e-03   2.160578849179e-02   1.201687450145e-03
6
Properties=species:S:1:pos:R:3:forces:R:3 energy=-6.992781292538e+02 dipole="-6.2225105806e-01 -6.1520125743e-01 2.7555427813e-02" quadrupole="-3.0750125559e+01 1.9045825418e+00 2.6843516936e-01 1.9045825418e+00 -3.3103507291e+01 2.6874936367e-01 2.6843516936e-01 2.6874936367e-01 -3.4231369828e+01" polarizability="4.5983195549e+01 7.8215826109e-01 -1.7087320980e-01 7.8215826109e-01 4.4138230896e+01 -6.9707959194e-01 -1.7087320980e-01 -6.9707959194e-01 4.3912727817e+01" charge=-1 multiplicity=1 method=wB97M-V basis=def2-svpd config_type=hso4- sample_index=141 temperature=300.0 units=atomic
S         0.1575316688       0.0013998105       0.0152007578  -2.786631533327e-03   4.727406999741e-02  -5.221820687406e-03
O        -1.6329685647       0.0474154116       0.0122606234   6.431199755952e-02   1.484479636965e-01   1.084597607282e-02
O         0.5281568646       1.4714242688      -0.0549313451  -1.459878188375e-02  -4.129297699742e-02   1.569387765900e-02
O         0.4773729586      -0.7405650463       1.2746243988  -6.383601136347e-03   1.195404908480e-02  -2.146853416573e-02
O         0.5010290266      -0.6712738400      -1.2599689185  -6.677892814404e-03  -1.075760187283e-02   1.068941182304e-02
H        -1.7636663679      -0.8002374580      -0.0460020350  -3.389856286797e-02  -1.555583962091e-01  -1.048339161984e-02
6
Properties=species:S:1:pos:R:3:forces:R:3 energy=-6.992916130368e+02 dipole="-7.4809152305e-01 -5.2244616638e-01 -6.9931229790e-03" quadrupole="-2.9973825771e+01 2.4259204586e+00 5.1111518556e-01 2.4259204586e+00 -3.3446873955e+01 1.2780903332e-01 5.1111518556e-01 1.2780903332e-01 -3.4490336678e+01" polarizability="4.5674483430e+01 1.3332991346e+00 -5.3848906529e-01 1.3332991346e+00 4.6996300927e+01 1.6659235537e-01 -5.3848906529e-01 1.6659235537e-01 4.4230246685e+01" charge=-1 multiplicity=1 method=wB97M-V basis=def2-svpd config_type=hso4- sample_index=142 temperature=300.0 units=atomic
S         0.1657702892       0.0263110272      -0.0001487338  -1.037356423867e-02   1.242608816652e-02  -1.604413753467e-02
O        -1.5789687664       0.0520380385       0.0476346446   1.011738299615e-02  -1.332390224379e-02  -1.084526907286e-02
O         0.4963604899       1.5248396412      -0.0208998099  -1.148130382847e-02  -6.168375527907e-02   3.378924359855e-03
O         0.4379509062      -0.7599470209       1.2345427621   8.515898507416e-03   1.551555127140e-02  -7.250173308329e-03
O         0.5075283813      -0.7536713179      -1.2568295503  -8.729038495455e-03   2.562896799855e-02   2.773437580507e-02
H        -1.8685993191      -0.8882335119      -0.0727500883   1.196501336178e-02   2.142590910216e-02   3.044324067730e-03
6
Properties=species:S:1:pos:R:3:forces:R:3 energy=-6.992926373144e+02 dipole="-9.7180714338e-01 -7.3324967065e-01 -2.3366725468e-02" quadrupole="-2.8807432345e+01 2.3557192913e+00 2.3023389674e-01 2.3557192913e+00 -3.3286952231e+01 3.4311103882e-01 2.3023389674e-01 3.4311103882e-01 -3.4320262648e+01" polarizability="4.4026745954e+01 1.7958931680e+00 6.2730478960e-03 1.7958931680e+00 4.4414599243e+01 -7.2568892721e-01 6.2730478960e-03 -7.2568892721e-01 4.2721725222e+01" charge=-1 multiplicity=1 method=wB97M-V basis=def2-svpd config_type=hso4- sample_index=143 temperature=300.0 units=atomic
S         0.1457581733      -0.0130844606       0.0100241841  -3.283068357020e-03   5.818983798209e-02   1.673140911294e-02
O        -1.5386924586       0.0620135187       0.0115201569  -2.438933510727e-02  -2.404434301739e-02  -1.274980838609e-03
O         0.4942393549       1.4543143384      -0.0545262350  -1.009708398471e-02  -2.989495598639e-02   1.588555365059e-02
O         0.4680932287      -0.7265332889       1.2647292135   1.704191793866e-03   5.367523692001e-05  -5.439623872700e-03
O         0.4877360561      -0.6513598309      -1.2393718530   8.429284193692e-03  -3.431829089771e-02  -2.843769878506e-02
H        -1.9922298642      -0.8361428033      -0.0461961415   2.756613554065e-02   3.008328825028e-02   2.605344302696e-03
6
Properties=species:S:1:pos:R:3:forces:R:3 energy=-6.992770495088e+02 dipole="-8.5662708403e-01 -6.5247951906e-01 2.2612650493e-01" quadrupole="-2.8973251656e+01 1.7411135817e+00 -4.0965087964e-01 1.7411135817e+00 -3.2695521919e+01 -4.4321386082e-01 -4.0965087964e-01 -4.4321386082e-01 -3.4190253350e+01" polarizability="4.0392425003e+01 1.6012983245e+00 1.7622959944e-01 1.6012983245e+00 4.1396923324e+01 4.4472454348e-01 1.7622959944e-01 4.4472454348e-01 4.1361029534e+01" charge=-1 multiplicity=1 method=wB97M-V basis=def2-svpd config_type=hso4- sample_index=144 temperature=300.0 units=atomic
S         0.1531378806       0.0036402048       0.0201889561  -1.612396138305e-02   4.996142385128e-02  -6.128719683962e-02
O        -1.4855511053      -0.0240919612      -0.0558850632   1.049862229434e-02   1.336722046392e-01  -8.109620212972e-03
O         0.5442956274       1.4267702030       0.0232019453  -7.746650448400e-03   1.307554036600e-03  -2.617842958271e-03
O         0.4495705062      -0.6362698530       1.2469655435   2.285349986366e-02  -5.061608341210e-02   6.511168009273e-02
O         0.3792129794      -0.6649997972      -1.2597989548   2.965411493474e-02  -2.130063842885e-02  -1.416867321005e-02
H        -1.8355287989      -0.8131724853       0.0898340943  -3.914305967197e-02  -1.129512853928e-01   2.100391132491e-02
6
Properties=species:S:1:pos:R:3:forces:R:3 energy=-6.992919680295e+02 dipole="-6.5144887094e-01 -2.8492841266e-01 -1.1347123048e-01" quadrupole="-3.0465148248e+01 2.4218927617e+00 -6.2195894524e-01 2.4218927617e+00 -3.2481822656e+01 -7.3578119386e-02 -6.2195894524e-01 -7.3578119386e-02 -3.4641095897e+01" polarizability="4.4307128854e+01 3.4457736339e-01 7.2689392938e-01 3.4457736339e-01 4.2873833674e+01 -1.3559904438e-01 7.2689392938e-01 -1.3559904438e-01 4.3727802157e+01" charge=-1 multiplicity=1 method=wB97M-V basis=def2-svpd config_type=hso4- sample_index=145 temperature=300.0 units=atomic
S         0.1587153380       0.0368836592      -0.0166475585  -2.111331250836e-02  -8.075878309707e-02   4.060942413761e-02
O        -1.5828852849       0.0689055183      -0.0444428039   2.475286065703e-02  -3.978443306075e-03   6.407122573863e-03
O         0.4833903575       1.4140377067       0.0423468696   1.725227930884e-02   6.672935578428e-02  -7.940749632197e-03
O         0.5203833738      -0.7080286064       1.2771425067  -1.604437845551e-02   1.608548055045e-02  -4.104406003586e-02
O         0.4472841738      -0.7335571900      -1.2460800460   5.201347687700e-03   5.013218359748e-03   2.054047707574e-03
H        -1.7181402001      -0.8770448823       0.0778596633  -1.007482933718e-02  -3.119648896854e-03  -1.316091273310e-04
6
Properties=species:S:1:pos:R:3:forces:R:3 energy=-6.992713807803e+02 dipole="-4.4420837135e-01 -8.2280321237e-01 -2.5525560030e-03" quadrupole="-3.0329971157e+01 1.3134142827e+00 6.2112136601e-02 1.3134142827e+00 -3.2786167097e+01 2.6958932609e-01 6.2112136601e-02 2.6958932609e-01 -3.3539995456e+01" polarizability="4.0096678877e+01 1.2923653523e+00 6.7918886045e-02 1.2923653523e+00 4.1897026249e+01 -6.6844600075e-01 6.7918886045e-02 -6.6844600075e-01 4.0160322710e+01" charge=-1 multiplicity=1 method=wB97M-V basis=def2-svpd config_type=hso4- sample_index=146 temperature=300.0 units=atomic
S         0.1855699213      -0.0157427089       0.0111352995  -4.769855946222e-02   1.466800405146e-01   3.338749546458e-02
O        -1.4822743568       0.0346889777      -0.0035791057  -8.453479026930e-03   3.817695158787e-02   5.255179712103e-03
O         0.4784615013       1.4520937789      -0.0447500763   1.260265990477e-02  -1.861623328216e-02   1.402093743004e-02
O         0.4039730202      -0.7037842291       1.2397256785   3.124719350367e-02  -3.682042307251e-02   5.212949667517e-02
O         0.4023483327      -0.6373059694      -1.2126982695   4.306234451851e-02  -7.633862339157e-02  -1.036726815464e-01
H        -1.5181603993      -0.8870814520      -0.0208609820  -3.070280641097e-02  -5.301957642629e-02  -1.088611037136e-03
6
Properties=species:S:1:pos:R:3:forces:R:3 energy=-6.992798136362e+02 dipole="-6.3637369004e-01 -2.5918194140e-01 -4.2632197658e-01" quadrupole="-3.0274821720e+01 2.5024329035e+00 -3.0590734719e-01 2.5024329035e+00 -3.2189084368e+01 2.4971124442e-01 -3.0590734719e-01 2.4971124442e-01 -3.4423014753e+01" polarizability="4.4448386377e+01 2.6812315123e-01 4.0613673228e-01 2.6812315123e-01 4.1482176056e+01 2.9924670610e-02 4.0613673228e-01 2.9924670610e-02 4.2844011681e+01" charge=-1 multiplicity=1 method=wB97M-V basis=def2-svpd config_type=hso4- sample_index=147 temperature=300.0 units=atomic
S         0.1584650888       0.0384454196      -0.0589306118  -3.988077966015e-02  -1.037923447559e-01   1.029674290551e-01
O        -1.6017486984       0.0552537473       0.0256700786   3.908216010813e-02   6.287285900291e-02  -1.029294880441e-02
O         0.4992631664       1.3814748411       0.0648668242   2.158638430320e-02   1.125513959487e-01  -1.705703363984e-02
O         0.4843485091      -0.6713935814       1.2596041071  -8.357248183740e-03   2.321163415159e-03  -3.750940396715e-02
O         0.4929201417      -0.7301185692      -1.2315176425   3.560125531155e-03  -1.185585891534e-02  -3.697350057704e-02
H        -1.8124996611      -0.8322757565      -0.0067110187  -1.598154302200e-02  -6.204738521525e-02  -1.153305483989e-03
6
Properties=species:S:1:pos:R:3:forces:R:3 energy=-6.992958870371e+02 dipole="-6.2929840578e-01 -5.1594501908e-01 1.0510305171e-01" quadrupole="-3.0033387004e+01 2.1539382733e+00 2.1532746701e-01 2.1539382733e+00 -3.2843996060e+01 -9.1944932816e-02 2.1532746701e-01 -9.1944932816e-02 -3.4280322602e+01" polarizability="4.2551869688e+01 5.9389294710e-01 -2.8147334466e-01 5.9389294710e-01 4.2835753381e+01 2.1159061109e-01 -2.8147334466e-01 2.1159061109e-01 4.2647388181e+01" charge=-1 multiplicity=1 method=wB97M-V basis=def2-svpd config_type=hso4- sample_index=148 temperature=300.0 units=atomic
S         0.1718977672       0.0114984336       0.0121565644  -2.882252774434e-02   1.168927028863e-02  -3.919600751834e-02
O        -1.5384924201       0.0645242911       0.0090505956   2.047528761671e-02   4.648427415171e-02   7.193540703666e-04
O         0.4675759341       1.4438831496      -0.0118699806   1.104348190218e-02   7.240344460346e-03   3.574050186487e-03
O         0.4467439158      -0.7097965752       1.2450195837   1.379703227605e-02  -1.427651344950e-02   1.797411461345e-02
O         0.4664111295      -0.7093416730      -1.2656660446   3.017465090472e-03   2.654113639343e-03   1.858598227734e-02
H        -1.7228525061      -0.8354763328      -0.0155792779  -1.949566651907e-02  -5.374811454025e-02  -1.650483378528e-03
6
Properties=species:S:1:pos:R:3:forces:R:3 energy=-6.992866235348e+02 dipole="-8.7357195050e-01 -6.5429763467e-01 -6.2002820970e-02" quadrupole="-3.0192621977e+01 2.2247762026e+00 3.5582616568e-01 2.2247762026e+00 -3.3710533191e+01 3.7577932357e-01 3.5582616568e-01 3.7577932357e-01 -3.3941479056e+01" polarizability="4.5205230544e+01 1.4054277683e+00 -2.4134489949e-01 1.4054277683e+00 4.6817190782e+01 -5.4991047522e-01 -2.4134489949e-01 -5.4991047522e-01 4.2132002079e+01" charge=-1 multiplicity=1 method=wB97M-V basis=def2-svpd config_type=hso4- sample_index=149 temperature=300.0 units=atomic
S         0.1309159851       0.0197045981       0.0017405319   1.410433464251e-02   6.772178329364e-02   1.427244215443e-02
O        -1.5981023752       0.0646429982       0.0333177657   1.948237234447e-02  -1.708682857959e-02  -7.078429111710e-03
O         0.5179942840       1.5372070320      -0.0441590327  -2.430447094881e-02  -7.472984018872e-02   9.529652751024e-03
O         0.4794095762      -0.7888487616       1.1852035075  -4.006970583642e-03   1.378801611586e-02   1.958201761401e-02
O         0.5273966086      -0.7355598124      -1.1740421893  -4.430284399954e-03  -6.152424166510e-03  -3.889005028480e-02
H        -1.7874287953      -0.8968868440      -0.0690692850  -8.129218576443e-04   1.647640326582e-02   2.657112880825e-03
6
Properties=species:S:1:pos:R:3:forces:R:3 energy=-6.992848760920e+02 dipole="-7.5705365154e-01 -6.9571408408e-01 -1.9255900976e-01" quadrupole="-3.0324832948e+01 2.0787290194e+00 -6.0111844114e-01 2.0787290194e+00 -3.2659934014e+01 9.1772512331e-02 -6.0111844114e-01 9.1772512331e-02 -3.4755085792e+01" polarizability="4.5138324460e+01 1.2119327463e+00 8.5601713589e-01 1.2119327463e+00 4.3936029403e+01 -4.8903369659e-01 8.5601713589e-01 -4.8903369659e-01 4.4932285117e+01" charge=-1 multiplicity=1 method=wB97M-V basis=def2-svpd config_type=hso4- sample_index=150 temperature=300.0 units=atomic
S         0.1502035475      -0.0229434931      -0.0233407690  -2.882543890261e-03   4.452335470299e-02   7.349567175605e-02
O        -1.5819353768       0.0775903362      -0.0378065418   1.483978109205e-02  -6.520993463917e-02   9.854010787525e-03
O         0.5027916580       1.4067628174       0.0356664221   9.124099452009e-04   4.727561363552e-03  -9.291064753036e-03
O         0.5174873086      -0.6552062148       1.3342575611  -1.830205948283e-02  -4.217212134691e-03  -5.634510847514e-02
O         0.4500779772      -0.6654607848      -1.2889643521   8.302255117247e-03  -2.860162130970e-02  -1.283027333653e-02
H        -1.7536637423      -0.9319393807       0.0635694761  -2.937422328224e-03   4.875413200484e-02  -4.809471252151e-03
6
Properties=species:S:1:pos:R:3:forces:R:3 energy=-6.992754356541e+02 dipole="-6.8524461994e-01 -6.9679051071e-01 1.2101954074e-01" quadrupole="-3.0435044385e+01 2.3203395563e+00 -2.3356779058e-01 2.3203395563e+00 -3.3050148592e+01 -1.4434878010e-03 -2.3356779058e-01 -1.4434878010e-03 -3.4281581465e+01" polarizability="4.5317771625e+01 1.3009599307e+00 4.0537392192e-01 1.3009599307e+00 4.6024357402e+01 -7.4535576005e-01 4.0537392192e-01 -7.4535576005e-01 4.3242820546e+01" charge=-1 multiplicity=1 method=wB97M-V basis=def2-svpd config_type=hso4- sample_index=151 temperature=300.0 units=atomic
S         0.1592528945      -0.0112405051       0.0264095998  -1.436555419131e-02   5.808168210022e-02  -1.031988602332e-02
O        -1.5669946279       0.1263264241      -0.0490744893   6.906888808164e-03  -1.149362225403e-01   2.179197620886e-02
O         0.4459430626       1.4562505455      -0.0342888285   8.571753995583e-03  -2.042888246671e-02   1.389056930139e-02
O         0.5242295613      -0.7481138134       1.2621872057  -8.975088871107e-03   5.342190492570e-03  -8.242082053915e-03
O         0.4641774392      -0.6890809626      -1.2345756760   7.740646382206e-03  -2.008984238473e-02  -7.921453074438e-03
H        -1.7258257863      -0.9887828516       0.0466360561   1.017734077240e-04   9.207671025574e-02  -9.118354708147e-03
6
Properties=species:S:1:pos:R:3:forces:R:3 energy=-6.992889495244e+02 dipole="-8.7794858974e-01 -4.0404259627e-01 -7.1703773777e-02" quadrupole="-2.9348422520e+01 2.6293437222e+00 -5.4855411617e-01 2.6293437222e+00 -3.2524366253e+01 2.2212253509e-01 -5.4855411617e-01 2.2212253509e-01 -3.4804989117e+01" polarizability="4.4188875885e+01 6.8717797968e-01 8.2054915275e-01 6.8717797968e-01 4.2382589131e+01 -9.8614822313e-01 8.2054915275e-01 -9.8614822313e-01 4.3882202684e+01" charge=-1 multiplicity=1 method=wB97M-V basis=def2-svpd config_type=hso4- sample_index=152 temperature=300.0 units=atomic
S         0.1465221703       0.0127635211       0.0025796680  -1.461762910157e-02  -6.905956329185e-02   5.010644265862e-02
O        -1.5632159918       0.0731585431      -0.0511178693  -1.843568534913e-03  -1.517692635735e-02   1.196637490831e-02
O         0.4845236913       1.3834075333      -0.0176297938   1.533307416918e-02   7.953639489709e-02   7.917809344250e-03
O         0.5300774633      -0.7146427236       1.3111758132  -2.079613990139e-02   1.882753545793e-02  -5.039842394682e-02
O         0.4544458553      -0.6549727459      -1.2508224308   9.960956083439e-03  -2.945651190326e-02  -1.788013624487e-02
H        -1.9226606217      -0.8366578220       0.0533895108   1.186914915507e-02   1.531146040849e-02  -1.624378154320e-03
6
Properties=species:S:1:pos:R:3:forces:R:3 energy=-6.992799534374e+02 dipole="-8.9813370364e-01 -5.1505973093e-01 -4.4935215136e-01" quadrupole="-2.9516815170e+01 2.7463691303e+00 2.5803522383e-01 2.7463691303e+00 -3.2868559087e+01 6.1772265847e-01 2.5803522383e-01 6.1772265847e-01 -3.4490370008e+01" polarizability="4.5779656448e+01 1.1987275341e+00 7.5697601438e-02 1.1987275341e+00 4.4320713211e+01 -2.1619990365e-01 7.5697601438e-02 -2.1619990365e-01 4.3374247993e+01" charge=-1 multiplicity=1 method=wB97M-V basis=def2-svpd config_type=hso4- sample_index=153 temperature=300.0 units=atomic
S         0.1410625899       0.0033106290      -0.0547637063  -8.916686978720e-03  -9.272312823424e-03   1.088396956352e-01
O        -1.5735268757       0.1131041067       0.0737874949  -1.567689809484e-02  -8.287855637187e-02  -3.120235175601e-02
O         0.4615061477       1.4114884633       0.0113757902   7.967829342945e-03   3.348946828883e-02  -1.047880016536e-02
O         0.4746023600      -0.7062569785       1.2633044535  -7.866689005223e-03   8.231906440583e-03  -4.122293360882e-02
O         0.5540141924      -0.7077561593      -1.2330368749  -2.602347246886e-03  -2.358673866691e-02  -4.030536780646e-02
H        -1.9303522077      -0.8967205603      -0.0995207612   2.704849778222e-02   7.399286079251e-02   1.435644785757e-02
6
Properties=species:S:1:pos:R:3:forces:R:3 energy=-6.992936508109e+02 dipole="-1.0562015165e+00 -5.6453126219e-01 1.1073740139e-01" quadrupole="-2.9539195173e+01 2.5202523998e+00 -6.4353434487e-01 2.5202523998e+00 -3.3448669691e+01 -3.8489589151e-01 -6.4353434487e-01 -3.8489589151e-01 -3.4283649907e+01" polarizability="4.4038225537e+01 6.2697064669e-01 5.7333409028e-01 6.2697064669e-01 4.4578148800e+01 6.1408434221e-02 5.7333409028e-01 6.1408434221e-02 4.2567963905e+01" charge=-1 multiplicity=1 method=wB97M-V basis=def2-svpd config_type=hso4- sample_index=154 temperature=300.0 units=atomic
S         0.1132444327       0.0064728310       0.0100855616   3.728390610477e-02   2.721162674329e-02  -9.609679930047e-03
O        -1.5600488434       0.1154266148      -0.0695504753  -4.916054822939e-03  -4.922426925994e-02   2.032607237404e-02
O         0.4694410599       1.4547303035       0.0361150157  -6.337932449830e-03  -1.638139285075e-02  -4.627483106524e-03
O         0.5751786858      -0.7190851378       1.2178244698  -2.168936394096e-02  -1.048195420355e-03   6.032905276530e-03
O         0.4795121604      -0.7495892960      -1.2109493992  -6.674917055809e-03   3.901768037167e-03  -3.519150732991e-03
H        -1.8136198823      -0.8463902633       0.1123823481   2.329672484639e-03   3.548863126760e-02  -8.616959345800e-03
6
Properties=species:S:1:pos:R:3:forces:R:3 energy=-6.992813280737e+02 dipole="-1.2190945908e+00 -4.4579846457e-01 1.1699304270e-01" quadrupole="-2.8837019533e+01 2.6886492185e+00 4.6040596524e-01 2.6886492185e+00 -3.3175847220e+01 5.4061640108e-01 4.6040596524e-01 5.4061640108e-01 -3.4792325324e+01" polarizability="4.2791804430e+01 1.9586279667e+00 -1.2493954981e-01 1.9586279667e+00 4.5769054294e+01 -1.3205062872e+00 -1.2493954981e-01 -1.3205062872e+00 4.3075981937e+01" charge=-1 multiplicity=1 method=wB97M-V basis=def2-svpd config_type=hso4- sample_index=155 temperature=300.0 units=atomic
S         0.1093186068       0.0413918572       0.0399177196   5.651615287774e-02  -2.595707018555e-02  -2.236025467682e-02
O        -1.4973598377       0.0407151520       0.0091908872  -6.243567816490e-02  -4.839387010260e-02  -4.340230121899e-06
O         0.5153518902       1.4660560672      -0.1159277093  -1.505842471014e-02  -9.181080745527e-03   3.239057493909e-02
O         0.4633096820      -0.8086991269       1.2384043150  -7.199148578653e-03   3.342287878141e-02  -9.611764919040e-03
O         0.4928514315      -0.6612054756      -1.2078119041  -2.343282635318e-03  -1.366521159974e-02  -6.624381158261e-03
H        -1.8470101130      -0.9548459627      -0.0741617976   3.056940834037e-02   6.376226875930e-02   6.247530857975e-03
6
Properties=species:S:1:pos:R:3:forces:R:3 energy=-6.992972244377e+02 dipole="-8.9809077287e-01 -5.0447698885e-01 4.7660752023e-02" quadrupole="-2.9357388977e+01 2.6837767502e+00 8.6856210071e-03 2.6837767502e+00 -3.3236186318e+01 -8.9161280201e-02 8.6856210071e-03 -8.9161280201e-02 -3.3964664910e+01" polarizability="4.3621614756e+01 5.1980337213e-01 -5.9155107770e-02 5.1980337213e-01 4.3634416561e+01 1.3859362953e-01 -5.9155107770e-02 1.3859362953e-01 4.1295909059e+01" charge=-1 multiplicity=1 method=wB97M-V basis=def2-svpd config_type=hso4- sample_index=156 temperature=300.0 units=atomic
S         0.1397951248       0.0181881762       0.0041439965  -6.720069442085e-03   1.594302453502e-02  -1.670493261985e-02
O        -1.5634206515       0.1069995268      -0.0030402610   2.602425043801e-03  -1.330718431922e-02   9.832594359680e-04
O         0.4541355987       1.4560522018       0.0026970708   1.244744268019e-03  -1.800943662861e-03  -6.843690641697e-05
O         0.5137685064      -0.7397398224       1.1808145289   1.854323308415e-04  -1.010619633005e-02   4.070979601643e-02
O         0.5117516817      -0.7473820674      -1.1891313839  -3.959533307001e-03  -6.442784286520e-06  -2.465323297492e-02
H        -1.8990692981      -0.8102507340       0.0066032548   6.662041031891e-03   9.260739870682e-03  -2.851729642473e-04
6
Properties=species:S:1:pos:R:3:forces:R:3 energy=-6.992898156171e+02 dipole="-8.1772557416e-01 -4.9785851055e-01 2.0258210194e-01" quadrupole="-2.9808536313e+01 2.3834336566e+00 -2.1329294202e-01 2.3834336566e+00 -3.3552391270e+01 1.1838137181e-01 -2.1329294202e-01 1.1838137181e-01 -3.4420158701e+01" polarizability="4.3260509439e+01 1.5031316918e-01 5.0208341763e-01 1.5031316918e-01 4.5190152283e+01 -1.2218606551e+00 5.0208341763e-01 -1.2218606551e+00 4.3669229496e+01" charge=-1 multiplicity=1 method=wB97M-V basis=def2-svpd config_type=hso4- sample_index=157 temperature=300.0 units=atomic
S         0.1527190894       0.0132038947       0.0446286434   6.716980332720e-03   1.560932171617e-02  -2.642481345666e-02
O        -1.5268786238       0.1119464421      -0.0617542386   6.894216748105e-03  -6.205732785900e-04   1.853773157962e-02
O         0.4299903978       1.4809129093      -0.0706157861   9.988301661582e-03  -2.453325237221e-02   2.401147271287e-02
O         0.5237372685      -0.8076984928       1.2660533356  -1.557734949206e-02   3.274090558490e-02  -2.453174604318e-02
O         0.4530266511      -0.6993820284      -1.2259461020   7.871179489408e-03  -6.508300459133e-03   8.491779861455e-03
H        -1.7257833030      -0.8117724136       0.0443488132  -1.584556309931e-02  -1.661828822493e-02  -4.703016779467e-05
6
Properties=species:S:1:pos:R:3:forces:R:3 energy=-6.992959927401e+02 dipole="-6.9396205818e-01 -5.6733355786e-01 4.2385510073e-02" quadrupole="-2.9974840164e+01 2.2507737105e+00 1.5002973925e-01 2.2507737105e+00 -3.2460501752e+01 6.6022481145e-02 1.5002973925e-01 6.6022481145e-02 -3.4443744332e+01" polarizability="4.3844885148e+01 1.6274423735e+00 -1.1226807130e-01 1.6274423735e+00 4.3391880575e+01 -1.3390509259e-01 -1.1226807130e-01 -1.3390509259e-01 4.2807739268e+01" charge=-1 multiplicity=1 method=wB97M-V basis=def2-svpd config_type=hso4- sample_index=158 temperature=300.0 units=atomic
S         0.1639500915       0.0113327478       0.0088760487  -2.781536488722e-02   2.953235623821e-03  -1.247322525808e-02
O        -1.5601906699       0.0374382052       0.0061477397  -2.704474432512e-03  -4.141753678731e-02  -9.794404672365e-04
O         0.5134612834       1.4250440971      -0.0225005503   2.008162323661e-03   1.794793348699e-02   6.431083093685e-03
O         0.4490991440      -0.6954952525       1.2611153067   9.270940128024e-03  -1.053576597034e-02   6.043644780146e-03
O         0.4619661830      -0.6709528942      -1.2614956443   6.356184359027e-03  -1.472995677615e-02  -2.400112783967e-04
H        -1.8155439860      -0.9518870141      -0.0195451434   1.285690892789e-02   4.583857169029e-02   1.252476474819e-03
6
Properties=species:S:1:pos:R:3:forces:R:3 energy=-6.992856905262e+02 dipole="-1.1978399622e+00 -6.3956816722e-01 6.8670972562e-02" quadrupole="-2.8287759374e+01 2.6743988901e+00 3.6191075761e-01 2.6743988901e+00 -3.3845959831e+01 -9.7694143887e-02 3.6191075761e-01 -9.7694143887e-02 -3.4942452426e+01" polarizability="4.5893245346e+01 1.3632198057e+00 -4.5962516189e-01 1.3632198057e+00 4.6258202687e+01 4.8343437771e-01 -4.5962516189e-01 4.8343437771e-01 4.5361367215e+01" charge=-1 multiplicity=1 method=wB97M-V basis=def2-svpd config_type=hso4- sample_index=159 temperature=300.0 units=atomic
S         0.1284254205      -0.0171935493       0.0051813578   3.464044526499e-02   2.744631256745e-02  -2.989880781353e-02
O        -1.5370636033       0.1094305413       0.0272279661  -3.761645582589e-02  -4.195228322975e-02  -6.515201935063e-03
O         0.4577416969       1.4699339839      -0.0047086622  -8.101912656715e-03  -4.492865715857e-02   5.468853359546e-04
O         0.4934904400      -0.7102228837       1.2757256721  -6.473714157073e-03   4.174169438027e-04  -1.995484651649e-02
O         0.5366693419      -0.7253721691      -1.3065441800  -2.244376589097e-02   1.846174426468e-02   5.284957367617e-02
H        -2.0745963722      -0.7698372011      -0.0356096089   3.991463141415e-02   4.052971865624e-02   2.946899611954e-03
6
Properties=species:S:1:pos:R:3:forces:R:3 energy=-6.992853624170e+02 dipole="-7.3462386217e-01 -2.4448051869e-01 1.2197426063e-01" quadrupole="-2.9211215274e+01 2.5604386748e+00 2.0446678788e-01 2.5604386748e+00 -3.2978203373e+01 7.9467926663e-02 2.0446678788e-01 7.9467926663e-02 -3.4453163058e+01" polarizability="3.9958155033e+01 8.0848588566e-02 -1.0316468941e-01 8.0848588566e-02 4.2595505283e+01 -3.5047178238e-01 -1.0316468941e-01 -3.5047178238e-01 4.2216267878e+01" charge=-1 multiplicity=1 method=wB97M-V basis=def2-svpd config_type=hso4- sample_index=160 temperature=300.0 units=atomic
S         0.1758323717       0.0442637733       0.0228683731  -2.185875165212e-02  -8.168778843641e-02  -2.575461454050e-02
O        -1.4422900392       0.0884424853      -0.0023419043  -2.817452786953e-02   4.377716643327e-02   5.230524063161e-03
O         0.3952303090       1.4429710851      -0.0430831147   3.848240509234e-02   6.661988054391e-02   1.001602311967e-02
O         0.4356802758      -0.7789843632       1.2304862394   1.578389708286e-02   1.501947058779e-02   4.587981341842e-03
O         0.4426465254      -0.7300305163      -1.2299731086   1.561014748065e-02   7.040600287478e-03   6.870202849598e-03
H        -1.6860288121      -0.7980834420      -0.0182357877  -1.985332018182e-02  -5.083794929443e-02  -9.539866460076e-04
6
Properties=species:S:1:pos:R:3:forces:R:3 energy=-6.992945088101e+02 dipole="-1.0475496862e+00 -4.8367846342e-01 -1.9444466745e-01" quadrupole="-2.9572631966e+01 2.3314923176e+00 -3.1913025393e-01 2.3314923176e+00 -3.3063027067e+01 4.9110535270e-02 -3.1913025393e-01 4.9110535270e-02 -3.4339315553e+01" polarizability="4.2528664237e+01 5.6126413286e-01 3.7299539307e-01 5.6126413286e-01 4.2841543267e+01 2.8760744583e-02 3.7299539307e-01 2.8760744583e-02 4.2052578816e+01" charge=-1 multiplicity=1 method=wB97M-V basis=def2-svpd config_type=hso4- sample_index=161 temperature=300.0 units=atomic
S         0.1088058023       0.0185599227      -0.0282358980   3.812913321903e-02   5.867729433534e-03   5.733013040641e-02
O        -1.5518840452       0.0752254374      -0.0053916514   8.754167478113e-03   3.149921023079e-02  -4.099278105841e-03
O         0.5025741440       1.4289294713       0.0421762637  -7.299786510067e-03   1.159574362253e-02  -1.312391528981e-02
O         0.5203378546      -0.6962571257       1.2286552453  -1.808810248206e-02  -2.567250723029e-04  -1.165861787039e-02
O         0.4987676583      -0.7324249049      -1.2102482017  -4.894327032523e-03  -9.832884371406e-03  -3.010175663096e-02
H        -1.7573882768      -0.8324840724       0.0258963567  -1.661300103180e-02  -3.890779073636e-02   1.721394711535e-03
6
Properties=species:S:1:pos:R:3:forces:R:3 energy=-6.992797773773e+02 dipole="-5.8492967694e-01 -1.7565196714e-01 -2.0556561895e-01" quadrupole="-3.0059135188e+01 2.5146677397e+00 -2.2023919584e-01 2.5146677397e+00 -3.2443083318e+01 2.9905967023e-01 -2.2023919584e-01 2.9905967023e-01 -3.4834138226e+01" polarizability="4.3265451646e+01 4.2830609430e-02 4.0992782286e-01 4.2830609430e-02 4.2263034394e+01 -6.0052554170e-01 4.0992782286e-01 -6.0052554170e-01 4.4392984974e+01" charge=-1 multiplicity=1 method=wB97M-V basis=def2-svpd config_type=hso4- sample_index=162 temperature=300.0 units=atomic
S         0.1803027804       0.0459721421      -0.0200091767  -4.558913208748e-02  -1.289172041735e-01   5.324578936172e-02
O        -1.5501712157       0.0552547394      -0.0012875005   3.849144884876e-02   1.037772685848e-01  -1.060140220761e-03
O         0.4619190884       1.4134451481       0.0006654406   2.807114825853e-02   9.404374515954e-02  -7.427922182598e-04
O         0.4647226670      -0.7367531052       1.3033733334  -2.809700161760e-03   3.114743326664e-02  -5.787436161652e-02
O         0.4515006449      -0.7134522298      -1.2625374338   8.942156344443e-03   3.207252264399e-03   6.004768113247e-03
H        -1.7615970936      -0.8047578177      -0.0032863431  -2.708074817987e-02  -1.032946218841e-01   4.078401168140e-04
6
Properties=species:S:1:pos:R:3:forces:R:3 energy=-6.992824636976e+02 dipole="-7.2534926563e-01 -8.1039608810e-01 -2.3529363184e-01" quadrupole="-2.9601717552e+01 2.1258686691e+00 -9.2457944959e-02 2.1258686691e+00 -3.3571081736e+01 1.4980543058e-01 -9.2457944959e-02 1.4980543058e-01 -3.4160483881e+01" polarizability="4.4113563692e+01 1.8793399762e-01 1.1527482337e-01 1.8793399762e-01 4.4211086875e+01 8.1595897720e-02 1.1527482337e-01 8.1595897720e-02 4.3799025204e+01" charge=-1 multiplicity=1 method=wB97M-V basis=def2-svpd config_type=hso4- sample_index=163 temperature=300.0 units=atomic
S         0.1709405476      -0.0385758295      -0.0348383020  -2.236075327209e-02   9.351824864814e-02   6.597597106043e-02
O        -1.5569791050       0.1145054441       0.0225582114   5.103619064438e-02   8.028183058500e-02  -4.582757122959e-03
O         0.4354145371       1.4658808432       0.0382924401   6.191253102787e-03  -4.736384268010e-02  -1.514784201120e-02
O         0.4793240589      -0.6790699109       1.2842729657   5.222553208410e-04  -1.038033216976e-02  -2.892701836969e-02
O         0.4953738072      -0.7183466188      -1.2744534830   4.455909509497e-03  -1.729226927013e-02  -1.381432539409e-02
H        -1.8640496288      -0.7169833038      -0.0132237101  -3.989633698662e-02  -9.870957477262e-02  -3.509522819675e-03
6
Properties=species:S:1:pos:R:3:forces:R:3 energy=-6.992744473851e+02 dipole="-1.1070347746e+00 -4.9214110592e-01 -3.2989947462e-01" quadrupole="-2.8980558872e+01 2.4356762308e+00 2.2446881711e-01 2.4356762308e+00 -3.3182783247e+01 7.5085316854e-01 2.2446881711e-01 7.5085316854e-01 -3.3873783113e+01" polarizability="4.0108081266e+01 1.3697784344e+00 1.0684832535e-01 1.3697784344e+00 4.3349425316e+01 -8.4675578562e-01 1.0684832535e-01 -8.4675578562e-01 3.9662897209e+01" charge=-1 multiplicity=1 method=wB97M-V basis=def2-svpd config_type=hso4- sample_index=164 temperature=300.0 units=atomic
S         0.1111539946       0.0394140428      -0.0260947633   2.969348670676e-02   4.709804883213e-02   1.148297626755e-01
O        -1.4675622725       0.0594684362       0.0483550386  -6.821438936586e-02  -3.493447192437e-02  -1.755214404586e-02
O         0.4843123373       1.4653936295      -0.0366584043  -4.697982936429e-03   2.822624875414e-04   3.657953075812e-03
O         0.4449699727      -0.7747929083       1.1654664367   6.191031058887e-03   1.011918701207e-02   2.989602974246e-02
O         0.4999885496      -0.7110698501      -1.1198729210   2.943206408545e-02  -6.415904199662e-02  -1.390886878701e-01
H        -1.7175590474      -0.9165338597      -0.0905041593   7.607278793838e-03   4.160722092326e-02   8.362628223749e-03
6
Properties=species:S:1:pos:R:3:forces:R:3 energy=-6.992888599729e+02 dipole="-6.1705203056e-01 -3.0608710392e-01 9.1899757448e-02" quadrupole="-2.9409456743e+01 2.6091519792e+00 -1.2443587236e-01 2.6091519792e+00 -3.2763454417e+01 -2.3737435134e-01 -1.2443587236e-01 -2.3737435134e-01 -3.4166518724e+01" polarizability="4.2845872572e+01 2.7066239347e-01 -1.3141976671e-02 2.7066239347e-01 4.2439750041e+01 4.1062286080e-01 -1.3141976671e-02 4.1062286080e-01 4.2098197262e+01" charge=-1 multiplicity=1 method=wB97M-V basis=def2-svpd config_type=hso4- sample_index=165 temperature=300.0 units=atomic
S         0.1845707568       0.0393287977       0.0050913033  -5.222896178503e-02  -6.372656022708e-02  -2.743241130098e-02
O        -1.5458944415       0.0571642941      -0.0155619488   3.693076727329e-02   9.377207359563e-02  -2.423403599936e-03
O         0.4538895790       1.4421142605       0.0195048474   1.605823872710e-02   4.395057016495e-02  -3.279782935071e-03
O         0.4699099387      -0.7200415733       1.2143897370   1.323027474563e-02  -6.720106112443e-03   2.471121796015e-02
O         0.4507786414      -0.7499691634      -1.2303472172   1.033195833501e-02   1.480945034382e-02   3.920116528185e-03
H        -1.9181846157      -0.7571670710       0.0331205038  -2.431769541053e-02  -8.215274971574e-02   4.463986756120e-03
6
Properties=species:S:1:pos:R:3:forces:R:3 energy=-6.992836443184e+02 dipole="-8.7362971924e-01 -4.1325534704e-01 4.7889034256e-02" quadrupole="-2.9897988166e+01 2.6323281984e+00 3.6436986325e-01 2.6323281984e+00 -3.2663393967e+01 -9.2357514667e-02 3.6436986325e-01 -9.2357514667e-02 -3.4886842581e+01" polarizability="4.5263460604e+01 2.0389832334e+00 -4.9209297750e-01 2.0389832334e+00 4.6056769412e+01 6.2480474786e-01 -4.9209297750e-01 6.2480474786e-01 4.4110678075e+01" charge=-1 multiplicity=1 method=wB97M-V basis=def2-svpd config_type=hso4- sample_index=166 temperature=300.0 units=atomic
S         0.1442434382       0.0418617296      -0.0003266518   2.907513365535e-03  -4.139266447379e-02  -2.737835218151e-02
O        -1.5645717210       0.0367805218       0.0351380764  -1.480712872999e-02  -7.245276225065e-02  -1.299485950825e-02
O         0.5245392214       1.4624351119       0.0039688828  -7.622110901476e-03  -2.444035712909e-03  -2.359548021264e-03
O         0.4459363226      -0.7151837312       1.2362447051   6.278690878089e-03   3.168244475450e-03  -3.570752646880e-04
O         0.4982693412      -0.7438179065      -1.2722414041  -1.290146389655e-02   2.863021967510e-02   3.712210723045e-02
H        -1.8351267040      -1.0285281418      -0.0414672859   2.614410440862e-02   8.450601995798e-02   5.963702636904e-03
6
Properties=species:S:1:pos:R:3:forces:R:3 energy=-6.992922732706e+02 dipole="-8.6948534485e-01 -4.7596825356e-01 7.4029579465e-02" quadrupole="-2.9635182114e+01 2.4891365754e+00 4.6442981994e-01 2.4891365754e+00 -3.2680980692e+01 2.9500999762e-01 4.6442981994e-01 2.9500999762e-01 -3.4673592621e+01" polarizability="4.4927100092e+01 1.9075991961e+00 -2.8982177711e-01 1.9075991961e+00 4.4688626402e+01 -5.6348022917e-01 -2.8982177711e-01 -5.6348022917e-01 4.3551387113e+01" charge=-1 multiplicity=1 method=wB97M-V basis=def2-svpd config_type=hso4- sample_index=167 temperature=300.0 units=atomic
S         0.1457101773       0.0295444444       0.0219850649  -2.293316390053e-03  -2.408456653976e-02  -2.191773030023e-02
O        -1.5722852353       0.0237662049       0.0235964581  -1.125067706098e-02  -3.523553205201e-02  -4.872538342742e-03
O         0.5367679381       1.4453103461      -0.0699697773  -1.068030254685e-02   1.980376799033e-03   1.911278146820e-02
O         0.4490243975      -0.7448208466       1.2578939154   2.114588687911e-03   1.393740001971e-02  -8.697832103756e-03
O         0.4925172715      -0.6646902573      -1.2519067867  -4.424178704908e-03  -6.687872024774e-03   1.138106130568e-02
H        -1.9058844596      -0.9493157204      -0.0678657642   2.651942047014e-02   5.011747048473e-02   5.053434091730e-03
6
Properties=species:S:1:pos:R:3:forces:R:3 energy=-6.992908612655e+02 dipole="-1.0284092544e+00 -4.2164183979e-01 -1.3083682600e-01" quadrupole="-2.9016616197e+01 2.5418737694e+00 -3.8802947577e-01 2.5418737694e+00 -3.2964377565e+01 6.1662551247e-02 -3.8802947577e-01 6.1662551247e-02 -3.5029148539e+01" polarizability="4.3703641104e+01 2.0083066723e+00 4.2431926540e-01 2.0083066723e+00 4.5374391024e+01 -2.5319679392e-01 4.2431926540e-01 -2.5319679392e-01 4.4260989824e+01" charge=-1 multiplicity=1 method=wB97M-V basis=def2-svpd config_type=hso4- sample_index=168 temperature=300.0 units=atomic
S         0.1384433811       0.0396900741      -0.0163061704   1.822002514802e-02  -3.520697982508e-02   4.281409895550e-02
O        -1.5195636729       0.0052312721      -0.0214798375  -3.657131554407e-02  -1.398753737317e-02   4.505560710883e-03
O         0.5354902911       1.4728755652       0.0234582231  -1.476294546814e-02  -1.929435068503e-02  -6.764076091057e-03
O         0.4722530302      -0.7162645830       1.2825495534  -6.415643313930e-03   2.297160669504e-02  -4.149169784903e-02
O         0.4324143104      -0.7240163894      -1.2539731116   9.425379380543e-03   7.997210241580e-03   3.042229694586e-03
H        -1.9094858821      -0.9300532628       0.0373275211   3.010536062814e-02   3.757657863412e-02  -2.125340161314e-03
6
Properties=species:S:1:pos:R:3:forces:R:3 energy=-6.992919933543e+02 dipole="-8.7624454601e-01 -5.4237966481e-01 2.5596324849e-01" quadrupole="-2.9693487105e+01 2.2779416065e+00 -1.0710874337e-01 2.2779416065e+00 -3.3263119912e+01 -4.6921191744e-01 -1.0710874337e-01 -4.6921191744e-01 -3.4538508032e+01" polarizability="4.4267885350e+01 6.9657008812e-01 -1.1875032806e-01 6.9657008812e-01 4.4297793056e+01 6.8801796224e-01 -1.1875032806e-01 6.8801796224e-01 4.3926745609e+01" charge=-1 multiplicity=1 method=wB97M-V basis=def2-svpd config_type=hso4- sample_index=169 temperature=300.0 units=atomic
S         0.1425896018       0.0086161314       0.0244280014   7.435912907603e-03   1.974057145933e-02  -6.724834227818e-02
O        -1.5742144240       0.0602130451      -0.0308838479   3.494849998557e-02   6.537093883214e-02   1.206624401710e-03
O         0.5025722168       1.4648538608       0.0147636833  -1.067243304089e-02  -2.888718252193e-02   7.388350457015e-05
O         0.5057763975      -0.6985209715       1.2480128990  -2.371725298451e-03  -1.224049945307e-02   1.334815497703e-02
O         0.4745324590      -0.7334339827      -1.2838556384  -9.919389287866e-03   2.173623367625e-02   4.719907088253e-02
H        -1.8515833074      -0.8022087216       0.0543977899  -1.947077203024e-02  -6.567285991039e-02   5.409978360474e-03
6
Properties=species:S:1:pos:R:3:forces:R:3 energy=-6.992861369524e+02 dipole="-8.0966700964e-01 -5.7531930129e-01 -2.3382643607e-01" quadrupole="-3.0346372207e+01 2.3710799725e+00 -6.0478566345e-02 2.3710799725e+00 -3.3508788598e+01 1.8005177972e-01 -6.0478566345e-02 1.8005177972e-01 -3.4407014614e+01" polarizability="4.7212271612e+01 3.2180933333e-01 1.3672986405e-01 3.2180933333e-01 4.5813267503e+01 2.7831160769e-02 1.3672986405e-01 2.7831160769e-02 4.4598440142e+01" charge=-1 multiplicity=1 method=wB97M-V basis=def2-svpd config_type=hso4- sample_index=170 temperature=300.0 units=atomic
S         0.1403175863       0.0044025849      -0.0338561175   1.741473464433e-02   3.284031889831e-02   5.695654052117e-02
O        -1.6397568487       0.0931884265       0.0227169772   5.156564271572e-02   4.716743041715e-02  -5.506382117202e-03
O         0.4980864856       1.4903282966       0.0310564455  -1.574982928682e-02  -5.272804166687e-02  -1.267654675495e-02
O         0.5191348286      -0.7266310533       1.2622001447  -1.973888276591e-02   1.851799249956e-02  -4.287396393603e-02
O         0.5355554031      -0.7546565951      -1.2470444851  -1.536494542326e-02   1.096309770287e-02   5.803484682080e-03
H        -1.8557686480      -0.7980801900      -0.0177354577  -1.814184241307e-02  -5.675767233809e-02  -1.698713218817e-03
6
Properties=species:S:1:pos:R:3:forces:R:3 energy=-6.992853592491e+02 dipole="-1.1647798353e+00 -4.2861562662e-01 3.0290213991e-01" quadrupole="-2.8503279321e+01 2.5246424202e+00 -6.0029268707e-02 2.5246424202e+00 -3.3138002728e+01 -2.0226089151e-01 -6.0029268707e-02 -2.0226089151e-01 -3.4286093803e+01" polarizability="4.0151677335e+01 1.8666235561e-01 2.2845171157e-02 1.8666235561e-01 4.1395702089e+01 -2.0724506955e-01 2.2845171157e-02 -2.0724506955e-01 4.1131112938e+01" charge=-1 multiplicity=1 method=wB97M-V basis=def2-svpd config_type=hso4- sample_index=171 temperature=300.0 units=atomic
S         0.1128973556       0.0128507375       0.0429111841   4.027903798413e-02  -2.642202322828e-02  -6.378441193950e-02
O        -1.4698654311       0.1063672326      -0.0442486032  -3.326478510416e-02   4.128967199709e-02   9.407626617781e-03
O         0.4366752411       1.3993140337      -0.0411110000   1.937737893920e-02   6.419768369338e-02   1.523647040903e-02
O         0.5209080130      -0.7359723704       1.2121709451  -3.379830902996e-03  -1.374679985917e-02   3.834865982876e-02
O         0.4769949507      -0.6876820919      -1.2152546829  -3.347039711592e-04  -1.385872372813e-02  -2.843129044098e-03
H        -1.8080260796      -0.7433995658       0.0406789327  -2.271551532053e-02  -5.148943310177e-02   3.601622506336e-03
6
Properties=species:S:1:pos:R:3:forces:R:3 energy=-6.992941629351e+02 dipole="-9.0077720001e-01 -5.9325844185e-01 2.7846598314e-02" quadrupole="-2.9236557200e+01 2.3626901528e+00 -2.3223471142e-01 2.3626901528e+00 -3.2656528086e+01 -1.0275437288e-01 -2.3223471142e-01 -1.0275437288e-01 -3.4148671548e+01" polarizability="4.3984275065e+01 1.2350061037e+00 1.8073729706e-01 1.2350061037e+00 4.1998937643e+01 3.1087106110e-02 1.8073729706e-01 3.1087106110e-02 4.1689642899e+01" charge=-1 multiplicity=1 method=wB97M-V basis=def2-svpd config_type=hso4- sample_index=172 temperature=300.0 units=atomic
S         0.1365692246       0.0026069843       0.0018411672  -1.185696739618e-02   1.436368162660e-02   3.071170878363e-04
O        -1.5870054518       0.0452801550      -0.0212935019   1.306026636164e-02   2.192407132068e-02   2.375778802959e-03
O         0.5277044215       1.4014940154       0.0126019119  -7.679511157059e-03   2.948595132678e-02  -2.389028430134e-03
O         0.5091935443      -0.6652202958       1.2342146285  -1.910326792257e-03  -2.682920930052e-02   2.647489206531e-02
O         0.4792876856      -0.6757580057      -1.2311905628   3.137197076174e-03  -2.497692154706e-02  -2.759837300357e-02
H        -1.9805845173      -0.8208636276       0.0350523967   5.132888123144e-03  -1.394402955027e-02   8.459761509631e-04
6
Properties=species:S:1:pos:R:3:forces:R:3 energy=-6.992824738959e+02 dipole="-1.0905983048e+00 -5.4711196379e-01 -1.9404978130e-01" quadrupole="-2.8408693424e+01 2.3608579684e+00 -6.4024573360e-02 2.3608579684e+00 -3.3121511476e+01 3.9701666248e-01 -6.4024573360e-02 3.9701666248e-01 -3.3931076292e+01" polarizability="3.9836723243e+01 5.0692846519e-01 2.6304205486e-01 5.0692846519e-01 4.0999806869e+01 -6.6431551226e-01 2.6304205486e-01 -6.6431551226e-01 4.0011277482e+01" charge=-1 multiplicity=1 method=wB97M-V basis=def2-svpd config_type=hso4- sample_index=173 temperature=300.0 units=atomic
S         0.1236362965       0.0064984619      -0.0139547553   9.455061106522e-03   3.052531560774e-02   8.404404652803e-02
O        -1.4797446450       0.0797240782       0.0068674595  -9.970499919579e-03   8.009644590902e-02   1.269548180669e-03
O         0.4588932228       1.4130252031      -0.0173592756   8.190629731711e-03   3.636206993030e-02   3.355236988633e-03
O         0.4830641403      -0.7207036106       1.2157999933  -2.386754504338e-04  -6.393860450840e-03   1.421163573119e-02
O         0.4843576363      -0.6785317013      -1.1761339103   2.385975698379e-02  -6.078705066326e-02  -1.007523271519e-01
H        -1.8588731911      -0.7328757912      -0.0232586843  -3.134569843013e-02  -7.983185822635e-02  -2.104161643358e-03
6
Properties=species:S:1:pos:R:3:forces:R:3 energy=-6.992778557790e+02 dipole="-1.0821747208e+00 -6.4202431646e-01 -4.0471995199e-02" quadrupole="-2.9467338731e+01 2.3775884874e+00 -5.1921296867e-01 2.3775884874e+00 -3.3352071599e+01 2.1052512026e-01 -5.1921296867e-01 2.1052512026e-01 -3.4229543580e+01" polarizability="4.2250425632e+01 1.6342460865e+00 7.2514049226e-01 1.6342460865e+00 4.5455088059e+01 -1.1784645878e+00 7.2514049226e-01 -1.1784645878e+00 4.1545578683e+01" charge=-1 multiplicity=1 method=wB97M-V basis=def2-svpd config_type=hso4- sample_index=174 temperature=300.0 units=atomic
S         0.1119078579       0.0144876617       0.0102546352   4.266164241535e-02   5.986537924096e-02   5.825345702403e-02
O        -1.5016926147       0.0853433098      -0.0610205694  -4.340303548017e-02  -8.269172104674e-02   2.450489667227e-02
O         0.4836193205       1.4766588200      -0.0245271526  -8.934614310864e-03  -3.009766478594e-02   1.000379317446e-02
O         0.5322775616      -0.7691156492       1.2263355951  -1.934583833737e-02   1.959689498540e-02  -6.581308359529e-03
O         0.4458595799      -0.7003425449      -1.1651609968   2.240852085094e-02  -4.329380585478e-02  -7.630884389130e-02
H        -1.7086038715      -0.9734556189       0.0634370436   6.627142205089e-03   7.665040406570e-02  -9.855106877076e-03
6
Properties=species:S:1:pos:R:3:forces:R:3 energy=-6.992885088071e+02 dipole="-6.9460862799e-01 -7.9938455527e-01 -5.0857147462e-02" quadrupole="-2.9575563455e+01 2.0533399587e+00 1.6519991455e-01 2.0533399587e+00 -3.3136976570e+01 1.2105571833e-01 1.6519991455e-01 1.2105571833e-01 -3.3713176367e+01" polarizability="4.1264936213e+01 1.0470846431e+00 -1.2699926256e-01 1.0470846431e+00 4.2940124236e+01 -2.1433794946e-02 -1.2699926256e-01 -2.1433794946e-02 4.0545188598e+01" charge=-1 multiplicity=1 method=wB97M-V basis=def2-svpd config_type=hso4- sample_index=175 temperature=300.0 units=atomic
S         0.1676451817      -0.0192078263      -0.0054373294  -3.548536582043e-02   1.121909788956e-01   9.379072039779e-03
O        -1.4940423921       0.0980938749       0.0218319559  -1.864341459087e-02  -3.599198989110e-02  -6.848181052412e-03
O         0.4341099888       1.4500579507      -0.0069940478   1.511608205930e-02  -1.533971811713e-02   1.715896778548e-04
O         0.4408477214      -0.7000868684       1.2147048257   2.458858967128e-02  -3.931579457351e-02   5.557865120456e-02
O         0.4698431692      -0.6953365608      -1.2167634930   2.037402403500e-02  -4.143415443975e-02  -6.013052205501e-02
H        -1.7271440029      -0.8603655449      -0.0331351337  -5.966886119772e-03   2.000818540826e-02   1.851244648620e-03
6
Properties=species:S:1:pos:R:3:forces:R:3 energy=-6.992886480036e+02 dipole="-8.8532876833e-01 -5.3824905163e-01 5.7806668457e-02" quadrupole="-3.0002383982e+01 2.5219215172e+00 -2.7150424867e-02 2.5219215172e+00 -3.3475811381e+01 1.9020843785e-01 -2.7150424867e-02 1.9020843785e-01 -3.4355416938e+01" polarizability="4.5054640814e+01 -5.9068281731e-01 2.5092653414e-01 -5.9068281731e-01 4.4107991901e+01 -7.9106802740e-01 2.5092653414e-01 -7.9106802740e-01 4.3807753392e+01" charge=-1 multiplicity=1 method=wB97M-V basis=def2-svpd config_type=hso4- sample_index=176 temperature=300.0 units=atomic
S         0.1306294076      -0.0063958371       0.0197128107   2.438609450690e-02   2.101117556415e-02  -2.825110528938e-03
O        -1.5900182961       0.1551593836      -0.0195013476   3.579937279406e-02   1.735947515543e-02   5.991120720174e-03
O         0.4291996798       1.4425977836      -0.0473238775   7.230620746142e-03  -7.046821466428e-03   1.446566750795e-02
O         0.5545255588      -0.7733098127       1.2614238081  -2.587032253088e-02   2.238156844865e-02  -2.889089002906e-02
O         0.5339213144      -0.7024747347      -1.2342757253  -1.495291557554e-02  -6.095848351796e-03   1.079190245879e-02
H        -1.7825561998      -0.7495899902      -0.0003217397  -2.661455562328e-02  -4.767340650397e-02   4.614559229536e-04
6
Properties=species:S:1:pos:R:3:forces:R:3 energy=-6.992901512130e+02 dipole="-8.1496792127e-01 -4.5112987916e-01 1.9770977259e-01" quadrupole="-2.9145090288e+01 2.7403749359e+00 -6.0718401298e-01 2.7403749359e+00 -3.3237246856e+01 -7.0910951460e-01 -6.0718401298e-01 -7.0910951460e-01 -3.4545195162e+01" polarizability="4.4319336177e+01 5.5036492460e-01 1.4511687859e-01 5.5036492460e-01 4.4384989531e+01 1.0493824426e+00 1.4511687859e-01 1.0493824426e+00 4.3866869028e+01" charge=-1 multiplicity=1 method=wB97M-V basis=def2-svpd config_type=hso4- sample_index=177 temperature=300.0 units=atomic
S         0.1684247542       0.0083954535       0.0067299243  -2.441220968438e-02  -2.507358037788e-02  -4.529069711406e-02
O        -1.5325893667       0.1181285946      -0.0609171836  -1.850488096149e-02  -4.407816107346e-02   1.645231689487e-02
O         0.4150057372       1.4388141072       0.0752066618   1.878979301922e-02   2.080912465742e-02  -1.406980040151e-02
O         0.5312246315      -0.6815352636       1.2443402426   5.914044466238e-04  -1.752068402440e-02   1.011767736334e-02
O         0.4487840531      -0.7811119675      -1.2790200566   1.645332674275e-03   2.960925230235e-02   4.210683083047e-02
H        -1.9404458678      -0.7928189189       0.1254198607   2.186525214031e-02   3.624413472261e-02  -9.378664562506e-03
6
Properties=species:S:1:pos:R:3:forces:R:3 energy=-6.992901879163e+02 dipole="-1.2644540745e+00 -4.6477143274e-01 -9.1303369952e-02" quadrupole="-2.7727102063e+01 2.7205192784e+00 8.8443644286e-02 2.7205192784e+00 -3.3945787651e+01 4.0651986646e-01 8.8443644286e-02 4.0651986646e-01 -3.4652265007e+01" polarizability="4.2808113409e+01 4.9289603167e-01 1.9747853779e-01 4.9289603167e-01 4.4533924280e+01 -9.3144272892e-01 1.9747853779e-01 -9.3144272892e-01 4.3329184500e+01" charge=-1 multiplicity=1 method=wB97M-V basis=def2-svpd config_type=hso4- sample_index=178 temperature=300.0 units=atomic
S         0.1259526043       0.0049876631       0.0023483256   3.861747655819e-02  -7.550770724733e-03   2.960561933822e-02
O        -1.4819981382       0.1201881232       0.0049414563  -4.490317016837e-02   4.539715763342e-03   1.304733259359e-03
O         0.4161675577       1.4605973242      -0.0455084710   7.122145340225e-03  -1.258780700188e-02   1.102081112713e-02
O         0.5062063889      -0.7797894944       1.2622904810  -1.448625144593e-02   2.929862603852e-02  -3.406590808005e-02
O         0.5122343200      -0.7069916262      -1.2246667249  -1.882623899703e-03  -8.819272025610e-03  -8.669255831990e-03
H        -2.0351648441      -0.6718312627      -0.0343172365   1.553546996023e-02  -4.905031542760e-03   8.310974029756e-04
6
Properties=species:S:1:pos:R:3:forces:R:3 energy=-6.992931522248e+02 dipole="-1.0765225798e+00 -3.4070976445e-01 1.2472621225e-01" quadrupole="-2.8826684683e+01 2.5014451164e+00 -6.5634564735e-01 2.5014451164e+00 -3.3045399641e+01 -3.9998212937e-01 -6.5634564735e-01 -3.9998212937e-01 -3.4619422711e+01" polarizability="4.2395906281e+01 1.4131703553e+00 4.1622418958e-01 1.4131703553e+00 4.3922975511e+01 2.6491839007e-01 4.1622418958e-01 2.6491839007e-01 4.2537963222e+01" charge=-1 multiplicity=1 method=wB97M-V basis=def2-svpd config_type=hso4- sample_index=179 temperature=300.0 units=atomic
S         0.1270805198       0.0498273831       0.0082173069   2.431790117912e-02  -4.639762676088e-02  -1.092028274265e-02
O        -1.5101432417       0.0107283415      -0.0665897726  -3.021533978514e-02   2.712657850446e-02   1.051939049340e-02
O         0.5264520823       1.4629702087       0.0401786423  -1.179752339914e-02   7.087263762457e-04  -6.306491616186e-03
O         0.5088686655      -0.7116197602       1.2237798189  -6.471929216884e-03   5.847972336296e-03   5.835037211877e-03
O         0.4167856351      -0.7488100214      -1.2200737056   1.135356986879e-02   1.572922682109e-02   2.435734873991e-04
H        -1.8963561341      -0.8539343085       0.1107568645   1.282636640530e-02  -3.038781941825e-03   5.914412289427e-04
6
Properties=species:S:1:pos:R:3:forces:R:3 energy=-6.992907654749e+02 dipole="-1.1918918332e+00 -4.1913230227e-01 2.1424219945e-01" quadrupole="-2.8856064606e+01 2.4914175326e+00 2.7319119958e-01 2.4914175326e+00 -3.3294793051e+01 -4.0204717076e-01 2.7319119958e-01 -4.0204717076e-01 -3.5169788997e+01" polarizability="4.2578253683e+01 1.0783993232e+00 -5.3809027307e-01 1.0783993232e+00 4.4711814000e+01 9.4951434028e-01 -5.3809027307e-01 9.4951434028e-01 4.4687677174e+01" charge=-1 multiplicity=1 method=wB97M-V basis=def2-svpd config_type=hso4- sample_index=180 temperature=300.0 units=atomic
S         0.1145198337       0.0267593237       0.0166696112   5.413834310701e-02  -2.405950030426e-02  -5.873322848958e-02
O        -1.5031765701       0.0452826552       0.0114152463  -2.735164224344e-02   1.669433418545e-02  -1.569509826914e-03
O         0.5074302679       1.4575852693       0.0114030910  -1.117651472566e-02  -1.294736852507e-02  -1.740145512510e-03
O         0.4663052513      -0.6983606112       1.2527280022   6.939805746313e-04  -4.818082047640e-03   1.181977081082e-03
O         0.4934085728      -0.7449699640      -1.3086651244  -1.967901670862e-02   3.353683760856e-02   6.160013935244e-02
H        -1.8412131280      -0.8507679817      -0.0026216072   3.335027447217e-03  -8.357773129394e-03  -7.449746458241e-04
6
Properties=species:S:1:pos:R:3:forces:R:3 energy=-6.992893317410e+02 dipole="-9.3163463599e-01 -4.9778713656e-01 -1.0258421491e-01" quadrupole="-3.0079558070e+01 1.8754655553e+00 5.9344805265e-01 1.8754655553e+00 -3.3170318513e+01 2.5099167825e-01 5.9344805265e-01 2.5099167825e-01 -3.4962375472e+01" polarizability="4.2545403544e+01 1.2690945697e+00 -7.5216659321e-01 1.2690945697e+00 4.4947726542e+01 3.3526456366e-01 -7.5216659321e-01 3.3526456366e-01 4.4712968761e+01" charge=-1 multiplicity=1 method=wB97M-V basis=def2-svpd config_type=hso4- sample_index=181 temperature=300.0 units=atomic
S         0.1273945517       0.0210177163      -0.0152710216   4.657015719674e-02   1.410380240400e-02   4.571250706571e-03
O        -1.5145103714       0.0283573385       0.0794692091  -8.838776603778e-03  -7.775620589999e-03  -2.216249214646e-02
O         0.5260474300       1.4719867312      -0.0128638664  -1.172396169241e-02  -3.155282489194e-02  -1.961981792148e-03
O         0.4014698323      -0.7079569993       1.2749808223   1.110764824000e-02   5.132806655896e-03  -2.608907152663e-02
O         0.5103129658      -0.7177845052      -1.3045765735  -1.947177091896e-02   1.851568120158e-02   4.290802964255e-02
H        -1.5980821634      -0.9207761234      -0.1114503068  -1.764595253828e-02   1.637281519203e-03   2.715186300064e-03
6
Properties=species:S:1:pos:R:3:forces:R:3 energy=-6.992892478980e+02 dipole="-1.0013340535e+00 -5.4370976176e-01 3.5716421148e-01" quadrupole="-2.9642754740e+01 2.5069445371e+00 -3.3746449867e-01 2.5069445371e+00 -3.3264349078e+01 -7.4399469043e-01 -3.3746449867e-01 -7.4399469043e-01 -3.4480824556e+01" polarizability="4.5399410983e+01 2.6409750425e-01 -4.8869642045e-02 2.6409750425e-01 4.3881424891e+01 9.3316554622e-01 -4.8869642045e-02 9.3316554622e-01 4.3785692610e+01" charge=-1 multiplicity=1 method=wB97M-V basis=def2-svpd config_type=hso4- sample_index=182 temperature=300.0 units=atomic
S         0.1187707159      -0.0024397101       0.0328523896   2.331560142006e-02   1.757132485858e-02  -9.029902926906e-02
O        -1.5986872878       0.1100738234      -0.0580865262   2.266285853394e-02  -4.426024886244e-03   1.156108042797e-02
O         0.4835651588       1.4266940240       0.0355225486  -6.803104898503e-03   1.123531146440e-03  -3.682003901001e-03
O         0.5693679215      -0.6787910770       1.2277020742  -1.048849804570e-02  -2.793700035278e-02   3.230479080538e-02
O         0.5036339541      -0.7423973638      -1.2767265133  -2.220535019296e-02   2.237149199926e-02   5.065537683883e-02
H        -1.8807945210      -0.7911577757       0.1037363796  -6.532106331653e-03  -8.732923640177e-03  -5.602297656364e-04
6
Properties=species:S:1:pos:R:3:forces:R:3 energy=-6.992861043662e+02 dipole="-9.1022846499e-01 -4.8502477832e-01 -1.9489356798e-01" quadrupole="-2.9694701358e+01 2.6174643775e+00 -6.5338534458e-01 2.6174643775e+00 -3.3154300705e+01 -6.9897782785e-02 -6.5338534458e-01 -6.9897782785e-02 -3.4488149042e+01" polarizability="4.4393756749e+01 1.7245759157e+00 6.3167371377e-01 1.7245759157e+00 4.6356234161e+01 -4.4573336964e-02 6.3167371377e-01 -4.4573336964e-02 4.3027452220e+01" charge=-1 multiplicity=1 method=wB97M-V basis=def2-svpd config_type=hso4- sample_index=183 temperature=300.0 units=atomic
S         0.1420472231       0.0351019210      -0.0303292739   6.821310793253e-03   1.777952446101e-03   6.815549868366e-02
O        -1.5471953601       0.0611588264      -0.0350393892  -1.905208532580e-02  -6.459884401780e-02   9.995883910542e-03
O         0.4951661143       1.4911964760       0.0599722357  -9.281128560373e-03  -3.060890164734e-02  -1.656577114153e-02
O         0.5126674810      -0.7278651870       1.2334022663  -1.176075282629e-02   1.894214506629e-02  -2.330540651693e-02
O         0.4468324995      -0.7736352159      -1.2016562271   1.029376686416e-02   2.181274088327e-03  -3.047452378917e-02
H        -1.8276326824      -0.9695456589       0.0736220248   2.300002917895e-02   7.232987816999e-02  -7.812986971267e-03
6
Properties=species:S:1:pos:R:3:forces:R:3 energy=-6.992829684963e+02 dipole="-9.3095551709e-01 -2.3257269101e-01 1.5190855399e-01" quadrupole="-2.9134031536e+01 2.8461477579e+00 9.8631946902e-02 2.8461477579e+00 -3.2770860523e+01 -6.0925098232e-01 9.8631946902e-02 -6.0925098232e-01 -3.5096235805e+01" polarizability="4.3425616365e+01 1.3151099242e+00 -5.0746976699e-01 1.3151099242e+00 4.4939244039e+01 1.5504535062e+00 -5.0746976699e-01 1.5504535062e+00 4.4377710440e+01" charge=-1 multiplicity=1 method=wB97M-V basis=def2-svpd config_type=hso4- sample_index=184 temperature=300.0 units=atomic
S         0.1522394236       0.0579180692      -0.0022537209  -6.867686194644e-03  -9.817711172944e-02  -4.888278183218e-02
O        -1.5094063289       0.0376659629       0.0106217141  -3.820936249468e-02  -3.167892729903e-02  -4.432436995753e-03
O         0.4865238696       1.4515933111       0.0624387874   7.929234588748e-03   3.863288507142e-02  -1.389394960017e-02
O         0.4476167199      -0.6875690842       1.2250312107   1.422365638922e-02  -9.917705655155e-03   1.427347095629e-02
O         0.4657892808      -0.7995666932      -1.2947292720  -7.333806683458e-03   5.128400022295e-02   5.469865061410e-02
H        -1.8743273756      -0.9278247671       0.0256058165   3.025259998343e-02   4.983713212925e-02  -1.821704812930e-03
6
Properties=species:S:1:pos:R:3:forces:R:3 energy=-6.992898790227e+02 dipole="-9.1266049426e-01 -5.5799935060e-01 1.0058222216e-01" quadrupole="-2.9011887867e+01 2.1930161261e+00 4.5945971844e-01 2.1930161261e+00 -3.3079244941e+01 3.9185974777e-01 4.5945971844e-01 3.9185974777e-01 -3.4365625295e+01" polarizability="4.0114760614e+01 8.1881908505e-01 -2.2039283790e-01 8.1881908505e-01 4.2549531904e+01 -9.0685221041e-01 -2.2039283790e-01 -9.0685221041e-01 4.1974769166e+01" charge=-1 multiplicity=1 method=wB97M-V basis=def2-svpd config_type=hso4- sample_index=185 temperature=300.0 units=atomic
S         0.1494512456       0.0064760391       0.0309599377   7.843016485753e-03   1.758510601563e-02  -1.857927510895e-02
O        -1.4578087705       0.0656509289       0.0157573381  -3.284814717043e-02   3.204356952718e-02   5.816870510476e-03
O         0.4529347443       1.4323803699      -0.0929386607   1.348052688081e-02   1.739937373051e-02   2.595231564984e-02
O         0.4285251743      -0.7569808696       1.2579404192   1.327783185255e-02   1.949373136824e-03   5.952162437772e-03
O         0.4641009874      -0.6427950060      -1.2390885625   1.301912940038e-02  -3.334057355548e-02  -1.637549369629e-02
H        -1.7350845986      -0.8195552205      -0.0702103181  -1.478771954484e-02  -3.559184108027e-02  -2.668136351237e-03
6
Properties=species:S:1:pos:R:3:forces:R:3 energy=-6.992965681796e+02 dipole="-6.7069869759e-01 -5.7942014002e-01 4.5637851402e-02" quadrupole="-3.0229776759e+01 2.1593909264e+00 1.6887798079e-01 2.1593909264e+00 -3.3256592040e+01 -4.0262016442e-02 1.6887798079e-01 -4.0262016442e-02 -3.4329305681e+01" polarizability="4.4123442282e+01 1.1384167319e+00 -2.2340229022e-01 1.1384167319e+00 4.5538476242e+01 1.8794099777e-01 -2.2340229022e-01 1.8794099777e-01 4.3347849643e+01" charge=-1 multiplicity=1 method=wB97M-V basis=def2-svpd config_type=hso4- sample_index=186 temperature=300.0 units=atomic
S         0.1681822183       0.0162239338       0.0045147761  -1.640709307432e-02   3.630515068049e-02  -2.045399577030e-02
O        -1.5605113740       0.0553444652       0.0121447557   1.665379428881e-02  -2.557879731693e-03  -2.182377315905e-03
O         0.4889499632       1.5032458854      -0.0050769821  -5.061260237039e-03  -4.979983950054e-02   1.359788839430e-03
O         0.4509184637      -0.7354340449       1.2387476948   8.905429944622e-03   1.586258094866e-03   3.857376587764e-03
O         0.4712536828      -0.7396477020      -1.2538653450   6.479900689422e-04   1.313899973152e-02   1.736055584244e-02
H        -1.7453592230      -0.8938119171      -0.0171797079  -4.719957455773e-03   1.362250325818e-03   5.597533504349e-05
6
Properties=species:S:1:pos:R:3:forces:R:3 energy=-6.992891316686e+02 dipole="-6.9794386408e-01 -3.4908189361e-01 4.5119350671e-02" quadrupole="-3.0157283933e+01 2.0496371810e+00 -1.0849113196e-01 2.0496371810e+00 -3.2952974997e+01 -7.1096716777e-02 -1.0849113196e-01 -7.1096716777e-02 -3.4295896594e+01" polarizability="4.1366027879e+01 4.0380468746e-01 1.2128053562e-01 4.0380468746e-01 4.2742311218e+01 -2.2753736808e-02 1.2128053562e-01 -2.2753736808e-02 4.2155257839e+01" charge=-1 multiplicity=1 method=wB97M-V basis=def2-svpd config_type=hso4- sample_index=187 temperature=300.0 units=atomic
S         0.1534192343       0.0377101477       0.0059527775  -5.791516104594e-04  -1.728600247719e-02  -6.927287887637e-03
O        -1.5174655514       0.0554571612      -0.0170716770   1.192126333132e-02   9.719983250731e-02   3.439409724814e-04
O         0.4727794587       1.4580582868       0.0005786148   1.027168133564e-02   1.277586089486e-02   1.226005631313e-03
O         0.4683846522      -0.7398990253       1.2319704446   1.604850064875e-03   8.188851294188e-03  -5.094753607047e-04
O         0.4463904168      -0.7371671959      -1.2287451713   6.570941163561e-03   7.000695249552e-03   1.754765800424e-03
H        -1.5880522119      -0.8269798300       0.0232705765  -2.977471803401e-02  -1.079221022154e-01   4.115147759711e-03
6
Properties=species:S:1:pos:R:3:forces:R:3 energy=-6.992876322229e+02 dipole="-9.7808579751e-01 -6.7796707935e-01 2.7728952064e-01" quadrupole="-2.9500180418e+01 2.1895608210e+00 -1.5181802368e-02 2.1895608210e+00 -3.3389963029e+01 -3.2642816130e-01 -1.5181802368e-02 -3.2642816130e-01 -3.4622318238e+01" polarizability="4.2143360373e+01 5.8691056418e-01 -6.1977092272e-02 5.8691056418e-01 4.4094908886e+01 1.2586881188e-01 -6.1977092272e-02 1.2586881188e-01 4.3765516464e+01" charge=-1 multiplicity=1 method=wB97M-V basis=def2-svpd config_type=hso4- sample_index=188 temperature=300.0 units=atomic
S         0.1309687997      -0.0212600240       0.0359541186   3.584792798484e-02   5.472487437494e-02  -6.852141964614e-02
O        -1.4921284238       0.1246852308      -0.0364857144  -2.302732616314e-02  -5.499817227838e-02   1.469442861911e-02
O         0.4337556284       1.4354783316      -0.0203545617   1.283495029238e-02  -9.365604688622e-03   1.062668508183e-02
O         0.5074464377      -0.7096027557       1.2722933165  -4.700467355107e-03  -1.411074001640e-02   5.384394149058e-03
O         0.4723517976      -0.6938780499      -1.2899561705  -6.384552907027e-03  -1.432182175849e-03   4.213381201657e-02
H        -1.6831868460      -0.8515764057       0.0422560773  -1.462915138032e-02   2.517163282217e-02  -4.269867827284e-03
6
Properties=species:S:1:pos:R:3:forces:R:3 energy=-6.992861689231e+02 dipole="-8.1389677336e-01 -6.9717674179e-01 1.7070635956e-01" quadrupole="-2.8813219233e+01 2.4534113641e+00 -1.0990133072e-01 2.4534113641e+00 -3.3162318972e+01 -2.2053937371e-01 -1.0990133072e-01 -2.2053937371e-01 -3.4127727854e+01" polarizability="4.4491055464e+01 2.2801251251e+00 -4.4365444367e-02 2.2801251251e+00 4.4815898077e+01 9.4210425699e-02 -4.4365444367e-02 9.4210425699e-02 4.2099705132e+01" charge=-1 multiplicity=1 method=wB97M-V basis=def2-svpd config_type=hso4- sample_index=189 temperature=300.0 units=atomic
S         0.1706183580      -0.0033455532       0.0204998480  -3.472531026406e-02   5.762405194453e-02  -4.879633393557e-02
O        -1.5301261972       0.0568920892      -0.0284047616  -4.175325815386e-02  -4.348285894862e-02   1.041950747178e-02
O         0.4780818891       1.4670301594      -0.0052052085  -2.721978981362e-03  -2.976818552423e-02   4.810732526031e-03
O         0.4735175621      -0.7027693666       1.2286673457   1.765236249841e-02  -2.805930633367e-02   4.795955821717e-02
O         0.4425696632      -0.7000767512      -1.2382946893   1.606894530067e-02  -1.183358901051e-02  -1.048816308232e-02
H        -2.0318359054      -0.8694450361       0.0376341661   4.547983504734e-02   5.561867887079e-02  -3.904464745309e-03
6
Properties=species:S:1:pos:R:3:forces:R:3 energy=-6.992823060842e+02 dipole="-6.0070385211e-01 -4.3365463264e-01 -3.4991611276e-01" quadrupole="-2.9908597775e+01 2.9308522289e+00 -1.8134484007e-01 2.9308522289e+00 -3.2632814110e+01 2.8954587644e-01 -1.8134484007e-01 2.8954587644e-01 -3.4252860763e+01" polarizability="4.6686960852e+01 3.6255359066e-01 3.2016169306e-01 3.6255359066e-01 4.3445311933e+01 -9.3924610563e-02 3.2016169306e-01 -9.3924610563e-02 4.3152495964e+01" charge=-1 multiplicity=1 method=wB97M-V basis=def2-svpd config_type=hso4- sample_index=190 temperature=300.0 units=atomic
S         0.1786704304       0.0071388530      -0.0470604989  -4.848283275841e-02  -4.656943930284e-02   9.353921044624e-02
O        -1.6067050594       0.1357305602       0.0275028890   2.620993809440e-03  -6.582792036410e-02  -1.273502598828e-02
O         0.4213587011       1.3994501349       0.0412200216   2.376345285802e-02   7.057883115298e-02  -1.314881244896e-02
O         0.5067057292      -0.7012430500       1.2561708079  -6.558614068533e-03   4.853910256294e-03  -3.338305511357e-02
O         0.5233544764      -0.7342601164      -1.2293188257   4.828439586269e-03  -1.670842022942e-02  -3.750802892499e-02
H        -1.9819373027      -0.8336559719      -0.0207958519   2.381351487245e-02   5.369438292044e-02   3.231895325254e-03
6
Properties=species:S:1:pos:R:3:forces:R:3 energy=-6.992913380406e+02 dipole="-9.4261012271e-01 -4.8592553829e-01 -2.8150509712e-01" quadrupole="-2.8722876711e+01 2.4863198220e+00 -6.8676591770e-01 2.4863198220e+00 -3.3199068130e+01 -3.3013362764e-02 -6.8676591770e-01 -3.3013362764e-02 -3.4514239314e+01" polarizability="4.1610041306e+01 7.7372236262e-01 5.8675780585e-01 7.7372236262e-01 4.3339536561e+01 1.8966840283e-01 5.8675780585e-01 1.8966840283e-01 4.2814200857e+01" charge=-1 multiplicity=1 method=wB97M-V basis=def2-svpd config_type=hso4- sample_index=191 temperature=300.0 units=atomic
S         0.1552144447       0.0119574531      -0.0450274389  -4.136945250032e-03  -4.221091010857e-03   8.731619067279e-02
O        -1.4804487012       0.0748235308      -0.0212472524  -2.586484300596e-02   1.960201860130e-02  -3.448889574036e-03
O         0.4440722523       1.4405668539       0.0816191830   1.204621720378e-02   1.199751573379e-02  -2.324050348423e-02
O         0.4868042722      -0.6776319701       1.2664554869  -1.181120409337e-03  -1.021625152612e-03  -3.099079812588e-02
O         0.4344223177      -0.7521636763      -1.2401918077   1.810602399338e-02  -9.837789282189e-03  -3.076235457280e-02
H        -1.8750454036      -0.7842588796       0.0661749147   1.002562925095e-03  -1.647831581939e-02   1.083641600593e-03
6
Properties=species:S:1:pos:R:3:forces:R:3 energy=-6.992891861424e+02 dipole="-1.1939598388e+00 -5.6278988004e-01 1.9821143665e-01" quadrupole="-2.9197957761e+01 2.5096660381e+00 7.7918555861e-03 2.5096660381e+00 -3.3042505979e+01 -4.2522417845e-01 7.7918555861e-03 -4.2522417845e-01 -3.4985209639e+01" polarizability="4.3830577243e+01 1.4964038926e+00 -2.7207394592e-01 1.4964038926e+00 4.4621654005e+01 6.9498029007e-01 -2.7207394592e-01 6.9498029007e-01 4.4158242586e+01" charge=-1 multiplicity=1 method=wB97M-V basis=def2-svpd config_type=hso4- sample_index=192 temperature=300.0 units=atomic
S         0.1030622045       0.0064215943       0.0157568794   5.531407698943e-02   2.657397853799e-03  -5.387540240524e-02
O        -1.5395242879       0.0699666280      -0.0131377097  -2.777598447902e-02  -5.737302921040e-02   5.822249611655e-03
O         0.5165818504       1.4264484621       0.0197889130  -1.261670491748e-02  -4.872845565700e-04  -3.571586745420e-03
O         0.5096306925      -0.6734018481       1.2532311917  -9.581845710710e-03  -1.705484343657e-02   6.414827865331e-03
O         0.5001704748      -0.7179499955      -1.2932249215  -2.163223660400e-02   1.728683643708e-02   4.861440394308e-02
H        -1.8376212847      -0.9260135355       0.0331052350   1.622689177403e-02   5.495103911699e-02  -3.402963146164e-03
6
Properties=species:S:1:pos:R:3:forces:R:3 energy=-6.992917402167e+02 dipole="-1.1615232860e+00 -6.1341730823e-01 -5.4726629674e-02" quadrupole="-2.8253230118e+01 2.6093627602e+00 -4.3308505606e-01 2.6093627602e+00 -3.4062443781e+01 2.7157059936e-02 -4.3308505606e-01 2.7157059936e-02 -3.4529310306e+01" polarizability="4.3547266673e+01 1.5330902130e-01 4.7967185451e-01 1.5330902130e-01 4.4905725631e+01 -3.0963209834e-01 4.7967185451e-01 -3.0963209834e-01 4.3789515678e+01" charge=-1 multiplicity=1 method=wB97M-V basis=def2-svpd config_type=hso4- sample_index=193 temperature=300.0 units=atomic
S         0.1314951772      -0.0189602125      -0.0057547468   3.007702112782e-02   3.533940293423e-02   3.081277756002e-02
O        -1.5063278714       0.1485106076      -0.0324392546  -1.689595928207e-02   1.233759815407e-03   3.145942960024e-03
O         0.4020363027       1.4663328560       0.0150139262   8.829830504919e-03  -3.353972359322e-02  -2.837772702382e-03
O         0.5470596644      -0.7371142779       1.2710247346  -2.001708032104e-02   1.397877829711e-02  -3.488763070594e-02
O         0.4964026635      -0.7358201650      -1.2448502518  -3.037460792403e-03  -1.930350046928e-03   2.957352567552e-03
H        -1.9947121837      -0.6662695156       0.0484811271   1.016258364202e-03  -1.510028234469e-02   8.256851900175e-04
6
Properties=species:S:1:pos:R:3:forces:R:3 energy=-6.992915208117e+02 dipole="-7.3356934939e-01 -4.6346252706e-01 -1.1428994100e-01" quadrupole="-2.9974790809e+01 1.9575870488e+00 -1.8378027116e-01 1.9575870488e+00 -3.3161562811e+01 1.8669167705e-02 -1.8378027116e-01 1.8669167705e-02 -3.4675694654e+01" polarizability="4.1101142284e+01 7.6306082742e-01 1.8798098887e-01 7.6306082742e-01 4.4198755219e+01 5.1088566890e-02 1.8798098887e-01 5.1088566890e-02 4.3659641748e+01" charge=-1 multiplicity=1 method=wB97M-V basis=def2-svpd config_type=hso4- sample_index=194 temperature=300.0 units=atomic
S         0.1613377531       0.0221248590      -0.0174163101   6.780084435007e-03   1.055628254003e-02   3.065337131543e-02
O        -1.4786211608       0.0536986086      -0.0023179989  -1.064717597037e-02   2.216817219634e-02  -2.252546556175e-03
O         0.4634505888       1.4759901576       0.0259406184   1.013097910921e-02  -1.707589934874e-02  -7.896446371716e-03
O         0.4400571652      -0.7182105504       1.2790796331   6.212746427433e-03   1.100979634627e-02  -3.282747178597e-02
O         0.4282473378      -0.7410262506      -1.2685828412   1.142408791685e-02   7.597700836794e-03   1.118310579667e-02
H        -1.5633876279      -0.8793399730       0.0146676580  -2.386207032778e-02  -3.423248515360e-02   1.098581961047e-03
6
Properties=species:S:1:pos:R:3:forces:R:3 energy=-6.992917384318e+02 dipole="-1.0183721119e+00 -5.8119030861e-01 -2.2869488240e-02" quadrupole="-2.9246174371e+01 2.4182216824e+00 1.1979596974e-02 2.4182216824e+00 -3.2874771566e+01 1.2900219296e-01 1.1979596974e-02 1.2900219296e-01 -3.4889368929e+01" polarizability="4.5151681031e+01 2.2877853197e+00 7.7512568920e-02 2.2877853197e+00 4.5137263311e+01 -3.1707470250e-01 7.7512568920e-02 -3.1707470250e-01 4.4265530401e+01" charge=-1 multiplicity=1 method=wB97M-V basis=def2-svpd config_type=hso4- sample_index=195 temperature=300.0 units=atomic
S         0.1318005108       0.0141986098       0.0018771515   1.964410386498e-02   1.505927789725e-03   9.730191074926e-03
O        -1.5657755431       0.0155711399      -0.0005508410  -2.001305602618e-02  -3.188927504773e-02   3.748744307932e-04
O         0.5554658552       1.4509082476      -0.0164373935  -2.100082744430e-02  -2.205802303181e-02   4.762771922457e-03
O         0.4740813166      -0.7018510906       1.2854044163  -7.218862150034e-03   9.337706301919e-03  -2.828790761535e-02
O         0.4733663039      -0.6752996990      -1.2717242279  -3.096247564578e-03  -4.519776907244e-03   1.279782347962e-02
H        -1.9545591699      -0.9402112033      -0.0092044741   3.162348943387e-02   4.771064381033e-02   6.335372693535e-04
6
Properties=species:S:1:pos:R:3:forces:R:3 energy=-6.992878966631e+02 dipole="-1.0431726522e+00 -6.7288417577e-01 -5.1530047812e-02" quadrupole="-2.8917747277e+01 2.2558950662e+00 -4.5323552830e-03 2.2558950662e+00 -3.4107767597e+01 1.3391036961e-02 -4.5323552830e-03 1.3391036961e-02 -3.4114371676e+01" polarizability="4.2002908624e+01 1.0942784300e+00 5.9698919697e-04 1.0942784300e+00 4.6159293906e+01 9.4671856790e-02 5.9698919697e-04 9.4671856790e-02 4.2062335833e+01" charge=-1 multiplicity=1 method=wB97M-V basis=def2-svpd config_type=hso4- sample_index=196 temperature=300.0 units=atomic
S         0.1352735752       0.0098888092      -0.0084635547   2.304858252505e-02   6.550134675939e-02   1.209161881753e-02
O        -1.4994947966       0.0652358990       0.0068654763  -5.718229767499e-03   5.465816540949e-02  -1.782832414168e-03
O         0.4746622890       1.5428625030       0.0105610418  -1.422446387995e-02  -7.844078297066e-02  -3.949758367354e-03
O         0.4701569888      -0.7525096271       1.2023846900   5.324453002189e-03   3.013220445936e-03   1.738953390685e-02
O         0.4761909192      -0.7651007573      -1.2025806704   4.604378849916e-03   3.146688932459e-03  -2.321015779494e-02
H        -1.8416426468      -0.7915887221      -0.0041472896  -1.300371446435e-02  -4.785910374939e-02  -5.348632526452e-04
6
Properties=species:S:1:pos:R:3:forces:R:3 energy=-6.992902843999e+02 dipole="-7.6370590981e-01 -4.3348378291e-01 2.0188184947e-01" quadrupole="-3.0242412485e+01 2.1882102683e+00 2.1914366743e-01 2.1882102683e+00 -3.2865293644e+01 -5.1011246975e-01 2.1914366743e-01 -5.1011246975e-01 -3.4923144683e+01" polarizability="4.3988681040e+01 1.3950581450e+00 -5.6709099037e-01 1.3950581450e+00 4.5379172243e+01 1.3014539427e+00 -5.6709099037e-01 1.3014539427e+00 4.4747070128e+01" charge=-1 multiplicity=1 method=wB97M-V basis=def2-svpd config_type=hso4- sample_index=197 temperature=300.0 units=atomic
S         0.1543656003       0.0342027129       0.0102496865  -2.093335974112e-03  -1.082659801659e-02  -6.407984980763e-02
O        -1.5497654630       0.0249195307       0.0114920640   5.431231353505e-03  -2.286875553071e-02  -3.193205200926e-03
O         0.5218414848       1.4743995192       0.0340506296  -6.594790097092e-03  -1.919365096023e-02  -7.617371992544e-03
O         0.4395164342      -0.6851266861       1.2482714954   1.245053867847e-02  -1.378357041342e-02   1.295085805577e-02
O         0.4644161126      -0.7633593899      -1.3146982252  -9.013543895790e-03   3.917810601892e-02   6.266762670405e-02
H        -1.7033799734      -0.9602504921       0.0098940600  -1.805991849566e-04   2.756396575249e-02  -7.721235912405e-04
6
Properties=species:S:1:pos:R:3:forces:R:3 energy=-6.992903007734e+02 dipole="-9.0087217901e-01 -4.3341787690e-01 2.3291265574e-01" quadrupole="-2.9363762476e+01 2.3961063186e+00 -1.2995225948e-01 2.3961063186e+00 -3.3073470508e+01 -2.6909692990e-01 -1.2995225948e-01 -2.6909692990e-01 -3.5014044149e+01" polarizability="4.2467962382e+01 2.2003289858e-01 8.4521815315e-02 2.2003289858e-01 4.3302125354e+01 5.8982334426e-02 8.4521815315e-02 5.8982334426e-02 4.5061217330e+01" charge=-1 multiplicity=1 method=wB97M-V basis=def2-svpd config_type=hso4- sample_index=198 temperature=300.0 units=atomic
S         0.1498535065       0.0051944698       0.0300169980   8.694200892308e-03  -3.122122497690e-02  -4.510534132907e-02
O        -1.5065529874       0.0923332740      -0.0406632270   2.731953759124e-03   2.760524749792e-02   7.948751822809e-03
O         0.4439827496       1.4221888510      -0.0138772097   1.745966721662e-02   2.706523287985e-02   7.615461396131e-03
O         0.4981492735      -0.7145027921       1.3040579731  -8.268532428175e-03   7.129345388643e-03  -2.861844240249e-02
O         0.4538501695      -0.7003293940      -1.3125636774  -1.905855803271e-03   1.070398192015e-02   5.549565268730e-02
H        -1.7700378380      -0.7928425390       0.0499916726  -1.873109698106e-02  -4.128083988386e-02   2.724756204644e-03
6
Properties=species:S:1:pos:R:3:forces:R:3 energy=-6.992960700075e+02 dipole="-9.0151945025e-01 -4.0602510604e-01 1.0177588415e-01" quadrupole="-2.9389263875e+01 2.5325680757e+00 -4.0971872720e-01 2.5325680757e+00 -3.3251044329e+01 -3.1669621166e-01 -4.0971872720e-01 -3.1669621166e-01 -3.4040303466e+01" polarizability="4.1803700683e+01 4.6218255612e-01 2.8708842510e-01 4.6218255612e-01 4.3450820180e+01 2.4343271060e-01 2.8708842510e-01 2.4343271060e-01 4.1147193381e+01" charge=-1 multiplicity=1 method=wB97M-V basis=def2-svpd config_type=hso4- sample_index=199 temperature=300.0 units=atomic
S         0.1395844834       0.0356849200       0.0072826760   2.409199276748e-03  -4.246928883148e-03  -1.690499256601e-02
O        -1.5194269889       0.0850534619      -0.0453556441  -6.308250629221e-03   1.580751267372e-02   7.233875231994e-03
O         0.4544785981       1.4679879171       0.0280788524   4.846389930644e-03   1.764996410866e-03  -3.680043372626e-03
O         0.5178755274      -0.7417043200       1.1803269038  -7.026986882801e-04  -3.563950368896e-03   3.646147723181e-02
O         0.4561533902      -0.7702586855      -1.1819350382   6.517309402512e-03   7.128513184853e-03  -2.405503281122e-02
H        -1.7807128951      -0.8191033848       0.0763368617  -6.729635506141e-03  -1.691400003971e-02   8.615315304588e-04
6
Properties=species:S:1:pos:R:3:forces:R:3 energy=-6.992806607460e+02 dipole="-9.8139776638e-01 -4.8636392143e-01 2.8738903467e-01" quadrupole="-2.8955462613e+01 2.5335739019e+00 -2.4507852550e-01 2.5335739019e+00 -3.3265420549e+01 -9.7273224741e-01 -2.4507852550e-01 -9.7273224741e-01 -3.4228853927e+01" polarizability="4.3951693408e+01 6.0086110309e-01 -3.9969540161e-01 6.0086110309e-01 4.3490454090e+01 1.9795332866e+00 -3.9969540161e-01 1.9795332866e+00 4.2424810168e+01" charge=-1 multiplicity=1 method=wB97M-V basis=def2-svpd config_type=hso4- sample_index=200 temperature=300.0 units=atomic
S         0.1338012433       0.0155857318       0.0057541410  -8.644180603545e-03   1.368098520139e-02  -1.127888955078e-01
O        -1.5722787306       0.0700649888      -0.0253550371   2.268744858020e-02   4.856179060977e-02  -4.232793828918e-03
O         0.4922349758       1.4390729410       0.0961525295  -8.406862310599e-03   7.320963456532e-03  -2.355844779881e-02
O         0.5218179447      -0.6378504412       1.1777607206   1.860080478400e-02  -6.690825368362e-02   9.548190719892e-02
O         0.4929644916      -0.7949165941      -1.2650315272  -1.687193775634e-02   3.899290676106e-02   4.069249901158e-02
H        -1.9933368796      -0.7482009892       0.0939827119  -7.370669954929e-03  -4.165485233857e-02   4.356440027833e-03
6
Properties=species:S:1:pos:R:3:forces:R:3 energy=-6.992743985045e+02 dipole="-8.1686585345e-01 -9.6895876184e-02 -2.3020937879e-01" quadrupole="-2.9665402949e+01 2.4064487031e+00 -4.2144195989e-02 2.4064487031e+00 -3.2517716375e+01 2.4106339026e-01 -4.2144195989e-02 2.4106339026e-01 -3.4536436541e+01" polarizability="4.2079256866e+01 6.8078808479e-01 1.4390130547e-01 6.8078808479e-01 4.2348420896e+01 -2.0661571168e-01 1.4390130547e-01 -2.0661571168e-01 4.2275965872e+01" charge=-1 multiplicity=1 method=wB97M-V basis=def2-svpd config_type=hso4- sample_index=201 temperature=300.0 units=atomic
S         0.1429502107       0.0792158721      -0.0269932234  -1.018720298417e-02  -1.184892751190e-01   5.364366490964e-02
O        -1.5373496972      -0.0077694276       0.0201070525   3.894390349119e-02   1.850500305528e-01   1.904955756970e-03
O         0.5321455881       1.4449380657       0.0139533833   2.920033144600e-03   5.542363656593e-02  -5.788220487739e-03
O         0.4466041328      -0.7399081173       1.2216746376   1.401752316790e-03   2.757809759640e-02  -1.707459589629e-02
O         0.4620338307      -0.7448231942      -1.2002928820   5.432638799458e-03   9.701557300730e-03  -2.453449329047e-02
H        -1.7881264485      -0.8237070883      -0.0234644321  -3.849674178137e-02  -1.593248679494e-01  -8.120040697676e-03
6
Properties=species:S:1:pos:R:3:forces:R:3 energy=-6.992943564345e+02 dipole="-1.0184457500e+00 -5.8400277126e-01 3.3627854391e-02" quadrupole="-2.9952536742e+01 2.2763846673e+00 -8.5557930843e-02 2.2763846673e+00 -3.2885584757e+01 5.0192774707e-03 -8.5557930843e-02 5.0192774707e-03 -3.4666140563e+01" polarizability="4.5246228481e+01 1.0549254312e+00 1.3872640255e-01 1.0549254312e+00 4.3746498067e+01 -2.0192629749e-01 1.3872640255e-01 -2.0192629749e-01 4.3866730548e+01" charge=-1 multiplicity=1 method=wB97M-V basis=def2-svpd config_type=hso4- sample_index=202 temperature=300.0 units=atomic
S         0.1088940212       0.0022215376       0.0073018274   4.040621738309e-02   1.462125421548e-02  -2.428934487074e-03
O        -1.6075913659       0.0633525744      -0.0142329137   2.026615335981e-02  -1.371141441095e-02   3.836885132241e-03
O         0.5422790247       1.4178312528      -0.0099453649  -1.774273192060e-02  -3.126778361171e-04   4.190552994231e-03
O         0.5285958151      -0.6938976521       1.2698341287  -2.227610408624e-02   4.648301209542e-05  -1.988261661582e-02
O         0.5109762074      -0.6763527928      -1.2611044755  -1.728573104771e-02  -7.888617031860e-03   1.471647004840e-02
H        -1.8196875831      -0.8875199190       0.0134302599  -3.415629684401e-03   7.208532513948e-03  -4.310404641144e-04
6
Properties=species:S:1:pos:R:3:forces:R:3 energy=-6.992684827340e+02 dipole="-8.9410905113e-01 -6.3437629713e-01 -2.6664665753e-02" quadrupole="-3.0166110454e+01 2.0551113665e+00 7.3265878722e-01 2.0551113665e+00 -3.2874722413e+01 4.9372224306e-01 7.3265878722e-01 4.9372224306e-01 -3.4690484453e+01" polarizability="4.2845935472e+01 2.4298203554e+00 -6.6884059733e-01 2.4298203554e+00 4.6742564051e+01 -1.0071985407e-01 -6.6884059733e-01 -1.0071985407e-01 4.3303124543e+01" charge=-1 multiplicity=1 method=wB97M-V basis=def2-svpd config_type=hso4- sample_index=203 temperature=300.0 units=atomic
S         0.1341580811       0.0200281131       0.0049120454   2.657468477918e-02   3.560476899007e-02  -1.290547551711e-02
O        -1.5014378282       0.0345378576       0.0782539112  -2.864067911628e-02  -9.760755661906e-02  -3.560432085218e-02
O         0.5233137199       1.4794502576      -0.0658916306  -1.109898919456e-02  -3.406369408296e-02   1.396379550394e-02
O         0.3862064327      -0.7424093162       1.2449402316   2.109252800838e-02   7.781174039945e-04   3.649785738329e-03
O         0.5015891808      -0.6836256730      -1.2593979279  -6.816617720261e-03  -3.805026552897e-03   1.075197882542e-02
H        -1.5994468161      -1.1038154758      -0.1380932689  -1.123541018053e-03   9.912489394153e-02   2.017030964612e-02
6
Properties=species:S:1:pos:R:3:forces:R:3 energy=-6.992785652141e+02 dipole="-6.8142663874e-01 -6.2592141439e-01 -1.3272568699e-01" quadrupole="-3.0070229457e+01 2.1590164776e+00 1.2651729106e-01 2.1590164776e+00 -3.2123873007e+01 2.9584913253e-01 1.2651729106e-01 2.9584913253e-01 -3.4264587994e+01" polarizability="4.2714306156e+01 2.1082588398e+00 1.6370344618e-02 2.1082588398e+00 4.3190310213e+01 -2.5028503149e-01 1.6370344618e-02 -2.5028503149e-01 4.1525205007e+01" charge=-1 multiplicity=1 method=wB97M-V basis=def2-svpd config_type=hso4- sample_index=204 temperature=300.0 units=atomic
S         0.1596571546       0.0076570494      -0.0117144326  -3.637330460796e-02   1.784251229017e-02   4.563763784108e-02
O        -1.5323038362       0.0422941563       0.0255432157  -1.863020532733e-02  -8.873832013669e-02  -1.205326907843e-02
O         0.5096369772       1.4019595867      -0.0150899118   1.017569446097e-02   4.666855038258e-02   2.209083469348e-03
O         0.4298515289      -0.6794195041       1.2501389157   1.518291626021e-02  -1.993337396645e-02   1.290684899323e-02
O         0.4603377068      -0.6555949463      -1.2346350659   1.813526125570e-02  -4.503096675733e-02  -5.514487345506e-02
H        -1.7284338145      -1.0493342437      -0.0445560661   1.146434286686e-02   8.926112797301e-02   6.484232444369e-03
6
Properties=species:S:1:pos:R:3:forces:R:3 energy=-6.992778605415e+02 dipole="-8.6615637773e-01 -2.8546053798e-01 1.5663494942e-01" quadrupole="-2.8686496903e+01 2.5995988997e+00 -2.6192647775e-01 2.5995988997e+00 -3.3326720067e+01 -2.3323029136e-01 -2.6192647775e-01 -2.3323029136e-01 -3.4179668847e+01" polarizability="3.9749452598e+01 -3.6444621571e-01 1.8101671117e-01 -3.6444621571e-01 4.2096875863e+01 1.1405676987e-01 1.8101671117e-01 1.1405676987e-01 4.1427241168e+01" charge=-1 multiplicity=1 method=wB97M-V basis=def2-svpd config_type=hso4- sample_index=205 temperature=300.0 units=atomic
S         0.1631449149       0.0332617386       0.0174210391  -1.101737971042e-02  -5.585259879165e-02  -2.882424586600e-02
O        -1.4482562389       0.1107616440      -0.0403286691   7.830579513023e-03   1.229666847427e-01  -5.542076517282e-03
O         0.3802838450       1.4441986025       0.0038722574   3.581436937879e-02   5.191892049059e-02   2.566453810657e-03
O         0.4902521968      -0.7576629663       1.2079945831   7.083771053773e-03   2.968873317105e-03   2.143680085632e-02
O         0.4403455369      -0.7595096890      -1.2097292305   1.495831186219e-02   9.188574427666e-03  -4.223224900546e-03
H        -1.7873345413      -0.6796714922       0.0574484333  -5.463499702435e-02  -1.312558214905e-01   1.456353596234e-02
6
Properties=species:S:1:pos:R:3:forces:R:3 energy=-6.992909278039e+02 dipole="-7.2525651772e-01 -4.5466866617e-01 3.7192086608e-01" quadrupole="-3.0434499211e+01 2.3091485305e+00 2.6278117606e-02 2.3091485305e+00 -3.2709190701e+01 -4.6588844435e-01 2.6278117606e-02 -4.6588844435e-01 -3.4676228699e+01" polarizability="4.6101590291e+01 1.0051223265e+00 -2.6010716511e-01 1.0051223265e+00 4.4268577134e+01 4.3960338512e-01 -2.6010716511e-01 4.3960338512e-01 4.4484607033e+01" charge=-1 multiplicity=1 method=wB97M-V basis=def2-svpd config_type=hso4- sample_index=206 temperature=300.0 units=atomic
S         0.1508695724       0.0211007217       0.0446320228  -6.992330154086e-03  -1.246193040556e-02  -9.286031716547e-02
O        -1.6151515937       0.0489728738      -0.0377848068   2.851161706553e-02  -8.002168721419e-03   1.253472075651e-02
O         0.5251715236       1.4385665077      -0.0162917954  -5.963814662564e-03   3.337622927862e-03   9.620508760513e-03
O         0.5058102934      -0.7064408823       1.2560434175  -2.941189247333e-03  -9.560840510451e-03   1.520683432958e-02
O         0.4739400004      -0.7071742776      -1.2941831359  -1.125401563825e-02   1.944289738773e-02   5.758891248179e-02
H        -1.8088830673      -0.9017030916       0.0487522303  -1.388110256507e-03   7.297150353130e-03  -2.069705653688e-03
6
Properties=species:S:1:pos:R:3:forces:R:3 energy=-6.992829177318e+02 dipole="-1.0394321828e+00 -2.4540624124e-01 -2.3129993630e-01" quadrupole="-2.9459404904e+01 2.7765375217e+00 -2.0008975501e-01 2.7765375217e+00 -3.2585246171e+01 1.0823693542e-01 -2.0008975501e-01 1.0823693542e-01 -3.5419704151e+01" polarizability="4.3485757773e+01 9.3403703383e-01 2.3079269672e-01 9.3403703383e-01 4.4167098904e+01 9.2786366226e-02 2.3079269672e-01 9.2786366226e-02 4.5267944899e+01" charge=-1 multiplicity=1 method=wB97M-V basis=def2-svpd config_type=hso4- sample_index=207 temperature=300.0 units=atomic
S         0.1262411836       0.0422632870      -0.0334224202   2.312158353996e-02  -1.132659919559e-01   4.465633371940e-02
O        -1.5235575848       0.0680549243       0.0118547582  -2.632902106459e-02  -5.951011297974e-02  -7.087072189523e-03
O         0.4873667918       1.4078032941       0.0407249170   1.484009236599e-02   7.175682451138e-02  -1.106548287276e-02
O         0.4860515237      -0.7013335801       1.2988407581  -1.463401518460e-02   1.934488979754e-02  -5.748433787281e-02
O         0.4871189878      -0.7397395968      -1.2844650494  -1.177004629202e-02   2.195495291395e-02   2.984747205389e-02
H        -1.7809826815      -0.9461956174       0.0020593644   1.474888447873e-02   5.970841609145e-02   1.088307132485e-03
6
Properties=species:S:1:pos:R:3:forces:R:3 energy=-6.992947137331e+02 dipole="-8.1337988427e-01 -6.2843904729e-01 1.7221906775e-01" quadrupole="-3.0164502607e+01 2.1397120119e+00 3.0489314109e-01 2.1397120119e+00 -3.2907115727e+01 -1.1098959826e-01 3.0489314109e-01 -1.1098959826e-01 -3.4415943840e+01" polarizability="4.3779024528e+01 7.6895857848e-01 -4.2578683108e-01 7.6895857848e-01 4.3407326640e+01 2.0695029623e-01 -4.2578683108e-01 2.0695029623e-01 4.3177366282e+01" charge=-1 multiplicity=1 method=wB97M-V basis=def2-svpd config_type=hso4- sample_index=208 temperature=300.0 units=atomic
S         0.1386641002      -0.0068332571       0.0221248276   7.573829707591e-03   4.007026015599e-02  -5.794629178151e-02
O        -1.5680820427       0.0875114089       0.0093743823   1.594668101866e-02  -3.264611817967e-02   3.571095664542e-04
O         0.4883002917       1.4254518303      -0.0268431639   5.185655209416e-04   1.211758543771e-03   8.489104736073e-03
O         0.4815343168      -0.6990643284       1.2512574405   1.755817138211e-03  -2.025603681620e-02   1.896838621624e-02
O         0.5064611232      -0.6847004833      -1.2768524055  -1.340345729369e-02  -2.967125366531e-03   3.009449338218e-02
H        -1.7147172463      -0.8844809356      -0.0228012934  -1.248278469659e-02   1.460064038717e-02   2.697200048953e-05
6
Properties=species:S:1:pos:R:3:forces:R:3 energy=-6.992915634364e+02 dipole="-7.6005637231e-01 -4.7734877301e-01 -1.8804263059e-01" quadrupole="-3.0240109477e+01 2.0597621906e+00 2.6064080046e-01 2.0597621906e+00 -3.2597788837e+01 4.5296576849e-01 2.6064080046e-01 4.5296576849e-01 -3.4181817080e+01" polarizability="4.2114762789e+01 1.5518656223e+00 -1.1535570724e-01 1.5518656223e+00 4.3535988957e+01 -4.0978046527e-01 -1.1535570724e-01 -4.0978046527e-01 4.1246902316e+01" charge=-1 multiplicity=1 method=wB97M-V basis=def2-svpd config_type=hso4- sample_index=209 temperature=300.0 units=atomic
S         0.1417123833       0.0382713684      -0.0162388013  -5.722599566616e-03   1.306767559952e-02   5.378742084438e-02
O        -1.5325921534       0.0245178565       0.0444764353  -7.719867826250e-03  -4.478217443556e-02  -1.735683885938e-02
O         0.5255262806       1.4529808882      -0.0256586080  -3.841604781238e-03   6.166319606642e-03   2.814940759938e-03
O         0.4239839573      -0.7341631056       1.2148828648   1.126531550143e-02   3.764111455915e-03   8.645743625895e-03
O         0.4794612452      -0.6986580760      -1.1969048312   1.102246284764e-02  -2.683820076558e-02  -5.526588209697e-02
H        -1.6322151384      -0.9912182207      -0.0760877619  -5.013243414733e-03   4.864126062093e-02   7.432437344976e-03
6
Properties=species:S:1:pos:R:3:forces:R:3 energy=-6.992846890817e+02 dipole="-1.0111667106e+00 -3.1442214972e-01 9.7126856477e-02" quadrupole="-2.8817840729e+01 2.4431639169e+00 -1.7790317619e-01 2.4431639169e+00 -3.3036832339e+01 -3.8589559831e-01 -1.7790317619e-01 -3.8589559831e-01 -3.4630548919e+01" polarizability="4.2558492978e+01 7.3236413299e-01 -4.9271335937e-02 7.3236413299e-01 4.3078225145e+01 8.1413913113e-01 -4.9271335937e-02 8.1413913113e-01 4.2986987759e+01" charge=-1 multiplicity=1 method=wB97M-V basis=def2-svpd config_type=hso4- sample_index=210 temperature=300.0 units=atomic
S         0.1341919221       0.0415038761      -0.0005887556   1.040184320830e-02  -5.493449594827e-02  -2.812841229926e-02
O        -1.5380392600       0.0186984419      -0.0144681203   4.178667909802e-02   1.308600932286e-01  -7.872427584886e-03
O         0.5201085071       1.4474445458       0.0438025201  -9.112242894049e-03   1.168559875307e-02  -1.033463789687e-02
O         0.4843518680      -0.6881550927       1.2266477769   1.001744469256e-03  -6.783945201176e-03   1.120804772363e-02
O         0.4650460730      -0.7540746819      -1.2572304801  -5.608736490961e-03   2.847545309488e-02   2.714812960134e-02
H        -1.9510293450      -0.7545642106       0.0456055584  -3.847281529148e-02  -1.092917031199e-01   7.931394108623e-03
6
Properties=species:S:1:pos:R:3:forces:R:3 energy=-6.992939493938e+02 dipole="-1.1159705660e+00 -3.5604524443e-01 2.2553479324e-02" quadrupole="-2.8819072343e+01 2.3970991771e+00 -3.6411004279e-02 2.3970991771e+00 -3.3035828892e+01 -1.0554281177e-01 -3.6411004279e-02 -1.0554281177e-01 -3.4898556939e+01" polarizability="4.0593291310e+01 9.3622661621e-01 -1.7763101903e-02 9.3622661621e-01 4.3090576587e+01 2.1347199997e-01 -1.7763101903e-02 2.1347199997e-01 4.2982967557e+01" charge=-1 multiplicity=1 method=wB97M-V basis=def2-svpd config_type=hso4- sample_index=211 temperature=300.0 units=atomic
S         0.1227118618       0.0372401727      -0.0005753928   4.714094301607e-02  -4.712442373371e-02  -6.763111122177e-03
O        -1.4664961880       0.0343685721      -0.0030436390  -3.856628676629e-02   4.919581411660e-02  -5.369862822282e-04
O         0.4954016010       1.4433915640       0.0118920606   3.359362878017e-04   1.741880669993e-02  -2.819182779075e-03
O         0.4590417185      -0.7109069710       1.2501257664   1.210592231658e-03   5.203335967440e-03  -9.569140410743e-03
O         0.4548806315      -0.7288703525      -1.2584106140  -5.545486053888e-04   1.436689640855e-02   1.926272768333e-02
H        -1.7663378304      -0.8447359355       0.0111665839  -9.575679354882e-03  -3.905037680564e-02   4.121869360566e-04
6
Properties=species:S:1:pos:R:3:forces:R:3 energy=-6.992842194157e+02 dipole="-1.3694611516e+00 -6.8049965460e-01 -2.3075396041e-01" quadrupole="-2.8166931792e+01 2.3767151970e+00 -2.0015225461e-01 2.3767151970e+00 -3.4103971772e+01 4.1151087314e-01 -2.0015225461e-01 4.1151087314e-01 -3.4403451488e+01" polarizability="4.1809405839e+01 1.4078795659e+00 4.0545034467e-01 1.4078795659e+00 4.5519138048e+01 -7.9435936865e-01 4.0545034467e-01 -7.9435936865e-01 4.2225515297e+01" charge=-1 multiplicity=1 method=wB97M-V basis=def2-svpd config_type=hso4- sample_index=212 temperature=300.0 units=atomic
S         0.0972914807       0.0034060833      -0.0197776338   7.571299984341e-02   6.240500028189e-02   8.188417676030e-02
O        -1.4785726998       0.0682939876      -0.0016767237  -5.297825660355e-02   1.702938123572e-02  -5.149537539279e-04
O         0.4917341983       1.5043180090      -0.0065187899  -2.195212338869e-02  -6.121794540379e-02  -9.513462949712e-04
O         0.5010708586      -0.7524706081       1.2366217448  -1.571212813042e-02   1.952240426226e-02  -2.127547245069e-02
O         0.4869816919      -0.7167756913      -1.1884823584   9.939082168275e-03  -2.843973282494e-02  -5.965558398906e-02
H        -1.8998612128      -0.7919172298      -0.0072802953   4.967968864332e-03  -9.297291889792e-03   5.667057415123e-04
6
Properties=species:S:1:pos:R:3:forces:R:3 energy=-6.992939093856e+02 dipole="-9.1969315598e-01 -5.1272447675e-01 -5.4818110362e-02" quadrupole="-2.9083798615e+01 2.6420677016e+00 4.6461938913e-01 2.6420677016e+00 -3.3671871075e+01 3.8026329295e-01 4.6461938913e-01 3.8026329295e-01 -3.4154277946e+01" polarizability="4.2220113017e+01 5.5658410894e-01 -2.6103551459e-01 5.5658410894e-01 4.5000827935e+01 -4.7774476413e-01 -2.6103551459e-01 -4.7774476413e-01 4.1958519586e+01" charge=-1 multiplicity=1 method=wB97M-V basis=def2-svpd config_type=hso4- sample_index=213 temperature=300.0 units=atomic
S         0.1511459850       0.0166865101       0.0031679756   8.957269075567e-04   2.107380814502e-02   7.104545925480e-03
O        -1.4922889338       0.1240759879       0.0414237413  -3.084461313796e-02  -3.850799687285e-02  -1.040531001853e-02
O         0.4058047511       1.4871525710      -0.0494292312   1.419669737244e-02  -2.236283161810e-02   9.714126680700e-03
O         0.4571355254      -0.7936813757       1.2045841686   6.389952875467e-03   1.384881895494e-02   9.506213855886e-03
O         0.5176861631      -0.7380777114      -1.1983760435   6.516414702391e-04  -2.591899128451e-03  -2.117427480178e-02
H        -1.8190418249      -0.8136734482      -0.0821465755   8.744703565340e-03   2.853641639374e-02   5.323072111319e-03
6
Properties=species:S:1:pos:R:3:forces:R:3 energy=-6.992879339948e+02 dipole="-7.0778597123e-01 -7.3226340097e-01 -2.2994284055e-01" quadrupole="-3.0072882458e+01 2.1519276833e+00 -9.0699337441e-02 2.1519276833e+00 -3.2929143254e+01 3.7484691044e-01 -9.0699337441e-02 3.7484691044e-01 -3.3716178548e+01" polarizability="4.3169798149e+01 9.2623860866e-01 2.8280930027e-01 9.2623860866e-01 4.2828670669e+01 -5.2772473697e-01 2.8280930027e-01 -5.2772473697e-01 4.0749848692e+01" charge=-1 multiplicity=1 method=wB97M-V basis=def2-svpd config_type=hso4- sample_index=214 temperature=300.0 units=atomic
S         0.1511274712      -0.0108273522      -0.0226864709  -3.070832335948e-02   9.731591751694e-02   9.939526264628e-02
O        -1.5650296182       0.0973334470       0.0134234415   1.113804390202e-02  -4.005343910392e-02  -6.114791789719e-03
O         0.4701046097       1.4346782948      -0.0027825983   3.225542342884e-03  -3.470446428580e-03  -1.996764383352e-03
O         0.4866137677      -0.7090090642       1.2233661157   1.935144678207e-04  -1.292318381254e-02   1.180047266917e-02
O         0.4935629177      -0.6858596854      -1.1872103143   2.307773429547e-02  -6.448648928388e-02  -1.051762292224e-01
H        -1.7524943901      -0.8771447451      -0.0245520855  -6.992171331737e-03   2.364011024184e-02   2.079345294789e-03
6
Properties=species:S:1:pos:R:3:forces:R:3 energy=-6.992542289075e+02 dipole="-5.6349192028e-01 -4.7801203737e-01 -2.2711187154e-01" quadrupole="-3.0458045111e+01 1.9639188898e+00 -2.1549131149e-01 1.9639188898e+00 -3.2952437372e+01 1.6906509214e-01 -2.1549131149e-01 1.6906509214e-01 -3.4087020469e+01" polarizability="4.2596062219e+01 -3.3686286549e-01 2.9027789214e-01 -3.3686286549e-01 4.1602858288e+01 -1.1479323978e-01 2.9027789214e-01 -1.1479323978e-01 4.2702102338e+01" charge=-1 multiplicity=1 method=wB97M-V basis=def2-svpd config_type=hso4- sample_index=215 temperature=300.0 units=atomic
S         0.1638080628       0.0007089342      -0.0305576618  -1.237017041973e-02   1.934874043458e-02   6.550583144392e-02
O        -1.5562317653       0.1048240950       0.0079287413   4.455200521799e-02   2.468853937043e-01  -4.216292658365e-03
O         0.4370336654       1.4222757524       0.0310883333   2.159165299537e-02   2.694037177010e-02  -1.026766781789e-02
O         0.4867766485      -0.7004598127       1.2710604353  -6.357501353254e-03   1.354708216342e-03  -3.293564556286e-02
O         0.4830638502      -0.7231121550      -1.2488817323   3.515520858952e-03  -1.416693685418e-02  -1.772286214323e-02
H        -1.6003877102      -0.7041913968       0.0016322607  -5.095585280140e-02  -2.803224673958e-01  -3.953753216342e-04
6
Properties=species:S:1:pos:R:3:forces:R:3 energy=-6.992796211404e+02 dipole="-6.0451991586e-01 -7.1207410947e-01 1.4100829434e-01" quadrupole="-3.0395065848e+01 1.6020242031e+00 -2.3835643127e-01 1.6020242031e+00 -3.3449077010e+01 -3.4858040370e-01 -2.3835643127e-01 -3.4858040370e-01 -3.3807685201e+01" polarizability="4.1832881824e+01 6.9779964712e-01 1.9360951119e-01 6.9779964712e-01 4.3691494783e+01 3.9345035050e-01 1.9360951119e-01 3.9345035050e-01 4.1666728348e+01" charge=-1 multiplicity=1 method=wB97M-V basis=def2-svpd config_type=hso4- sample_index=216 temperature=300.0 units=atomic
S         0.1633458767      -0.0067990938       0.0126066621  -9.252515474267e-03   1.082998646357e-01  -4.169829737368e-02
O        -1.5249266298       0.0730857052      -0.0385925013   1.780740649729e-02   8.455447551605e-02  -8.777915638638e-04
O         0.4649810906       1.4914704130       0.0204398690   3.661320215531e-03  -4.930748923483e-02  -1.815116796510e-03
O         0.4786705986      -0.7071938721       1.2245800651   1.100588867119e-02  -2.743289867493e-02   4.088859580386e-02
O         0.4295847869      -0.7330943982      -1.2353073270   1.329271553500e-02  -7.129723428342e-03  -7.000804853671e-03
H        -1.5536577501      -0.8076954587       0.0644744506  -3.650728944323e-02  -1.088980390215e-01   1.045473200434e-02
6
Properties=species:S:1:pos:R:3:forces:R:3 energy=-6.992904269413e+02 dipole="-8.1354206226e-01 -5.1335757083e-01 8.0798591504e-02" quadrupole="-2.9782453489e+01 2.5318887318e+00 6.5974195838e-01 2.5318887318e+00 -3.3293119013e+01 1.8023495333e-01 6.5974195838e-01 1.8023495333e-01 -3.4472104258e+01" polarizability="4.3516343629e+01 8.7583344548e-01 -6.3299382757e-01 8.7583344548e-01 4.5555787372e+01 5.0091255487e-02 -6.3299382757e-01 5.0091255487e-02 4.3314813881e+01" charge=-1 multiplicity=1 method=wB97M-V basis=def2-svpd config_type=hso4- sample_index=217 temperature=300.0 units=atomic
S         0.1561952666       0.0156827279       0.0150004717  -3.282116300350e-03   1.016602533016e-02  -3.883298707914e-02
O        -1.5235015224       0.1081666447       0.0510059110  -1.426862590614e-02  -7.333183263067e-02  -1.668911590545e-02
O         0.4354318381       1.4745867084      -0.0504180393   1.045824540857e-02  -1.689882140449e-02   1.107335701038e-02
O         0.4407180639      -0.7667027002       1.2280589108   1.064583239427e-02   4.368893817110e-03   8.228683883871e-03
O         0.5221783376      -0.7294110006      -1.2535592016  -1.091620449095e-02   1.401383316930e-02   2.660545209514e-02
H        -1.7548609109      -0.9084326309      -0.0915972061   7.361658623724e-03   6.168783847843e-02   9.648656887697e-03
6
Properties=species:S:1:pos:R:3:forces:R:3 energy=-6.992894996402e+02 dipole="-1.1025529491e+00 -3.5419175210e-01 -6.0912075416e-02" quadrupole="-2.9283517957e+01 2.6266054360e+00 -3.7179852041e-01 2.6266054360e+00 -3.3069054682e+01 1.3887725715e-01 -3.7179852041e-01 1.3887725715e-01 -3.4944595986e+01" polarizability="4.3271240964e+01 1.6813227548e+00 4.9198558830e-01 1.6813227548e+00 4.5800252995e+01 -6.9277628722e-01 4.9198558830e-01 -6.9277628722e-01 4.3680631395e+01" charge=-1 multiplicity=1 method=wB97M-V basis=def2-svpd config_type=hso4- sample_index=218 temperature=300.0 units=atomic
S         0.1192931341       0.0540410191      -0.0001696756   4.193984152986e-02  -4.431266229891e-02   2.959319320310e-02
O        -1.5181874410       0.0250502152      -0.0352780995  -3.780277524401e-02  -3.282253732654e-02   1.115447023466e-02
O         0.5273971494       1.4831761811      -0.0067873415  -1.561502134788e-02  -1.804015443873e-02   2.739313753825e-03
O         0.4979252290      -0.7653477172       1.2549382873  -1.615577266562e-02   3.672363520221e-02  -3.375062990166e-02
O         0.4449379198      -0.7311654888      -1.2149044664   5.620669455626e-03   7.945863196980e-03  -6.084185795828e-03
H        -1.8126245225      -0.9606874607       0.0397286088   2.206289542105e-02   5.051868572422e-02  -3.668516685313e-03
6
Properties=species:S:1:pos:R:3:forces:R:3 energy=-6.992889537717e+02 dipole="-1.1288354784e+00 -5.6837611534e-01 -5.2960698478e-02" quadrupole="-2.9488515559e+01 2.4803247113e+00 -2.8955759244e-01 2.4803247113e+00 -3.2704015232e+01 -9.8408567456e-04 -2.8955759244e-01 -9.8408567456e-04 -3.4775753696e+01" polarizability="4.4520042511e+01 1.8628954579e+00 3.4576227400e-01 1.8628954579e+00 4.4240519356e+01 -2.1631992572e-01 3.4576227400e-01 -2.1631992572e-01 4.3295111963e+01" charge=-1 multiplicity=1 method=wB97M-V basis=def2-svpd config_type=hso4- sample_index=219 temperature=300.0 units=atomic
S         0.1031960121       0.0124871506      -0.0056365447   4.294800183495e-02  -2.242449390150e-03   2.464955241498e-02
O        -1.5713884513       0.0512095414      -0.0224051757  -1.699638383251e-02  -6.435265584421e-02   7.031855855823e-03
O         0.5465669781       1.4133184452       0.0136225536  -1.627877947846e-02   1.236694706348e-02  -2.982024062294e-03
O         0.5240912040      -0.6832020318       1.2621015360  -2.122637212701e-02  -1.033960396409e-03  -1.934497572273e-02
O         0.4883509435      -0.6859690702      -1.2440284299  -8.291642937499e-03  -1.162269114404e-02  -5.488272203301e-03
H        -1.8527634358      -0.9714449161       0.0350998004   1.979641356317e-02   6.685720545028e-02  -3.828621595626e-03
6
Properties=species:S:1:pos:R:3:forces:R:3 energy=-6.992875330548e+02 dipole="-1.0489243404e+00 -5.0198987291e-01 -1.9804840870e-01" quadrupole="-2.9770108518e+01 2.3360902034e+00 3.3872356710e-01 2.3360902034e+00 -3.2846211611e+01 4.9140828042e-01 3.3872356710e-01 4.9140828042e-01 -3.4461032977e+01" polarizability="4.2860466933e+01 1.7551425657e+00 -1.6243401228e-01 1.7551425657e+00 4.4613169347e+01 -3.5124105837e-01 -1.6243401228e-01 -3.5124105837e-01 4.1986266357e+01" charge=-1 multiplicity=1 method=wB97M-V basis=def2-svpd config_type=hso4- sample_index=220 temperature=300.0 units=atomic
S         0.1086022712       0.0347529781      -0.0177231586   3.884299690882e-02   5.293471502760e-03   4.727924819241e-02
O        -1.5371444338       0.0415516069       0.0514485099  -2.283373286804e-02  -6.580508155323e-02  -2.113045663740e-02
O         0.5351611921       1.4517611866      -0.0282332299  -1.511885813565e-02  -3.900911347689e-03   3.099950027668e-03
O         0.4522078275      -0.7388969458       1.2172304942  -2.810217852832e-03   1.072784771278e-02  -3.134865117531e-03
O         0.5170678918      -0.7015829790      -1.2000662709  -4.826370000723e-03  -1.586543800983e-02  -3.682760892951e-02
H        -1.7123393264      -1.0018395926      -0.0868181759   6.752086831176e-03   6.956356305435e-02   1.078277245092e-02
6
Properties=species:S:1:pos:R:3:forces:R:3 energy=-6.992903584607e+02 dipole="-9.8661887009e-01 -7.0700471612e-01 3.2955593921e-02" quadrupole="-2.9156769541e+01 2.2130372552e+00 2.5655905962e-03 2.2130372552e+00 -3.3260239874e+01 6.4405883766e-02 2.5655905962e-03 6.4405883766e-02 -3.4541208845e+01" polarizability="4.1193651780e+01 1.4228217759e+00 5.3625795723e-02 1.4228217759e+00 4.4312730360e+01 -2.7774871868e-01 5.3625795723e-02 -2.7774871868e-01 4.2680782735e+01" charge=-1 multiplicity=1 method=wB97M-V basis=def2-svpd config_type=hso4- sample_index=221 temperature=300.0 units=atomic
S         0.1390491707      -0.0109869395       0.0088231699   2.837167386657e-02   5.446078537704e-02  -2.073336650869e-03
O        -1.4602138032       0.0887266995      -0.0083520588  -5.520168950015e-02  -6.465504278154e-02   4.054505047626e-03
O         0.4511032820       1.4509136752      -0.0194450901   8.245847537586e-03  -1.678723971527e-02   6.483520195211e-03
O         0.4624671148      -0.7143950535       1.2679531679   4.487705469267e-03  -6.922944622701e-03  -4.031647039447e-03
O         0.4539064144      -0.6859300457      -1.2579416401   9.589348864857e-03  -1.847075820746e-02  -3.775014572525e-03
H        -1.7151135502      -0.9143864769       0.0004834585   4.466539029559e-03   5.243418217838e-02  -6.143134278324e-04
6
Properties=species:S:1:pos:R:3:forces:R:3 energy=-6.992933900052e+02 dipole="-1.0207823756e+00 -6.2143118068e-01 -1.9497033479e-01" quadrupole="-2.8265675385e+01 2.3715140597e+00 3.1908779633e-01 2.3715140597e+00 -3.3414195800e+01 3.8317289227e-01 3.1908779633e-01 3.8317289227e-01 -3.4490551541e+01" polarizability="4.2005746078e+01 1.2690751515e+00 -7.7565359205e-02 1.2690751515e+00 4.3653875721e+01 -3.6796142974e-01 -7.7565359205e-02 -3.6796142974e-01 4.2773263092e+01" charge=-1 multiplicity=1 method=wB97M-V basis=def2-svpd config_type=hso4- sample_index=222 temperature=300.0 units=atomic
S         0.1526094792      -0.0063037410      -0.0180948657   5.114239938706e-04   2.990993433829e-02   4.562863716135e-02
O        -1.4737244612       0.0699219194       0.0447228429  -4.468419706194e-02   9.805246091843e-04  -9.547347139655e-03
O         0.4522925514       1.4502171845      -0.0187178813   5.566088369563e-03  -1.373863397036e-02   1.154891843288e-03
O         0.4307883021      -0.7123812180       1.2688763777   1.278814417101e-02  -1.295062165703e-04  -1.666418839487e-02
O         0.4859849713      -0.6868398821      -1.2545442791   9.331069554896e-03  -2.180925070971e-02  -2.187425893578e-02
H        -1.9560997833      -0.7687913370      -0.0725008927   1.647010430859e-02   4.841577064039e-03   1.327870767299e-03
6
Properties=species:S:1:pos:R:3:forces:R:3 energy=-6.992968124084e+02 dipole="-9.4700242850e-01 -5.4880858860e-01 -1.6649995458e-01" quadrupole="-2.9136128790e+01 2.5085110080e+00 1.8487828807e-01 2.5085110080e+00 -3.3319008705e+01 5.5602149891e-02 1.8487828807e-01 5.5602149891e-02 -3.4293084897e+01" polarizability="4.3043132951e+01 2.4412791204e-01 -2.4265740713e-01 2.4412791204e-01 4.3236429082e+01 4.2918579441e-01 -2.4265740713e-01 4.2918579441e-01 4.2597745122e+01" charge=-1 multiplicity=1 method=wB97M-V basis=def2-svpd config_type=hso4- sample_index=223 temperature=300.0 units=atomic
S         0.1399479476      -0.0004504086      -0.0282193945   5.710035994642e-03   1.467793680623e-02   2.612906599622e-02
O        -1.5389110063       0.1093076972       0.0412278712   1.033800430692e-02   2.412754389171e-02  -8.377965701978e-03
O         0.4452713334       1.4380229803       0.0317428401   6.098372515204e-03   2.026226530884e-03  -1.278028448244e-02
O         0.4810088235      -0.6951794740       1.2324634652   3.431189343237e-04  -1.055636477238e-02  -1.800494589485e-03
O         0.5282101992      -0.7427239767      -1.2465303462  -1.027836006839e-02   3.639292902355e-03  -7.673293947619e-04
H        -1.8828910994      -0.7551915473      -0.0389254068  -1.224708041474e-02  -3.391885803528e-02  -2.441120066950e-03
6
Properties=species:S:1:pos:R:3:forces:R:3 energy=-6.992869052541e+02 dipole="-9.7376170124e-01 -3.9368195499e-01 -6.2392039412e-03" quadrupole="-2.8905043341e+01 2.9151279649e+00 1.2935249351e-01 2.9151279649e+00 -3.2774984612e+01 1.9205536079e-01 1.2935249351e-01 1.9205536079e-01 -3.4990246779e+01" polarizability="4.5410873414e+01 9.4622038395e-01 3.9145358262e-02 9.4622038395e-01 4.3624428635e+01 -4.3477690358e-01 3.9145358262e-02 -4.3477690358e-01 4.4653146943e+01" charge=-1 multiplicity=1 method=wB97M-V basis=def2-svpd config_type=hso4- sample_index=224 temperature=300.0 units=atomic
S         0.1451859314       0.0099621210       0.0067963010  -4.161876346199e-03  -7.800503079331e-02   4.743544703875e-03
O        -1.5595036954       0.1005967304       0.0049943766  -2.470245502965e-02  -5.265674983830e-02  -8.761506513635e-04
O         0.4588143621       1.3940845988      -0.0332190256   1.467331414135e-02   6.598693388495e-02   8.220731675788e-03
O         0.5028944018      -0.7238853210       1.2954904683  -1.257996108558e-02   1.632397854813e-02  -4.000267094364e-02
O         0.5122403214      -0.6776253721      -1.2795556760  -9.782670095108e-03  -3.331944105053e-03   2.582333655941e-02
H        -2.0214446547      -0.8346374545      -0.0254328306   3.647165307910e-02   5.163702308321e-02   2.126080104398e-03
6
Properties=species:S:1:pos:R:3:forces:R:3 energy=-6.992924108310e+02 dipole="-6.6939298599e-01 -3.4189983815e-01 -9.4516411303e-02" quadrupole="-2.9872109784e+01 2.4437977759e+00 -4.0857865948e-01 2.4437977759e+00 -3.2828929828e+01 -9.9961084951e-02 -4.0857865948e-01 -9.9961084951e-02 -3.4159813028e+01" polarizability="4.3643809055e+01 8.2652138659e-01 3.5997596255e-01 8.2652138659e-01 4.3558964582e+01 1.9600489523e-01 3.5997596255e-01 1.9600489523e-01 4.2125450973e+01" charge=-1 multiplicity=1 method=wB97M-V basis=def2-svpd config_type=hso4- sample_index=225 temperature=300.0 units=atomic
S         0.1670001522       0.0482903553      -0.0178491819  -2.944664506900e-02  -3.375831906194e-02   3.430276395141e-02
O        -1.5705456760       0.0291733946      -0.0208848327   2.995259236987e-02   7.981644935422e-02  -4.017632424934e-03
O         0.5032310121       1.4708070957       0.0419126891  -2.288793621463e-03   1.902744750303e-03  -1.084543811187e-02
O         0.4829931186      -0.7231537283       1.2143305781   1.699792206552e-03   9.522267711247e-03   1.618952421758e-03
O         0.4442423530      -0.7613672469      -1.2022290768   1.212294710728e-02   6.127726464138e-03  -2.597702307211e-02
H        -1.8601191743      -0.8317738690       0.0478407149  -1.204674269103e-02  -6.363751251963e-02   4.914212947725e-03
6
Properties=species:S:1:pos:R:3:forces:R:3 energy=-6.992867912661e+02 dipole="-9.5252219650e-01 -1.6390636687e-01 1.7166986853e-01" quadrupole="-2.9453208074e+01 2.5484999624e+00 -7.9697383779e-01 2.5484999624e+00 -3.2879071771e+01 -4.1218847440e-01 -7.9697383779e-01 -4.1218847440e-01 -3.4654665255e+01" polarizability="4.1172365534e+01 1.5930784789e-01 7.4347773899e-01 1.5930784789e-01 4.2565046033e+01 -1.1005747751e-01 7.4347773899e-01 -1.1005747751e-01 4.2643996300e+01" charge=-1 multiplicity=1 method=wB97M-V basis=def2-svpd config_type=hso4- sample_index=226 temperature=300.0 units=atomic
S         0.1310862285       0.0539211386       0.0195815464   2.096591037077e-02  -1.113896478973e-01  -1.540637787727e-02
O        -1.4868501077       0.0767343424      -0.0980945485  -2.858056158565e-02   2.069536868649e-03   2.255109139066e-02
O         0.4517451361       1.4230928442       0.0288217943   2.489551819887e-02   8.250460141494e-02   3.642111877776e-04
O         0.5442907020      -0.7419032538       1.2369116687  -1.878020917705e-02   2.005446873794e-02  -1.261848448934e-02
O         0.4111080224      -0.7530162015      -1.2152026177   1.309587656162e-02   1.374633883470e-02   6.582824039050e-03
H        -1.6819427426      -0.8304086006       0.1459475220  -1.159551278755e-02  -7.087858773188e-03  -1.533858028269e-03
6
Properties=species:S:1:pos:R:3:forces:R:3 energy=-6.992914205556e+02 dipole="-1.1607297713e+00 -5.3992436291e-01 1.3677001232e-01" quadrupole="-2.9122686845e+01 2.3365842124e+00 1.0582132089e-01 2.3365842124e+00 -3.3263021583e+01 -4.2227303088e-02 1.0582132089e-01 -4.2227303088e-02 -3.4386522136e+01" polarizability="4.3818127256e+01 1.4331305389e+00 -1.3782747702e-01 1.4331305389e+00 4.4227976842e+01 -1.1610039558e-01 -1.3782747702e-01 -1.1610039558e-01 4.2369198884e+01" charge=-1 multiplicity=1 method=wB97M-V basis=def2-svpd config_type=hso4- sample_index=227 temperature=300.0 units=atomic
S         0.1014568703       0.0246951614       0.0207717960   4.643132576638e-02   1.624200399792e-02  -3.629245929085e-02
O        -1.5737328250       0.0240574804      -0.0073457160   1.204000591081e-02   5.503344019047e-02   3.499920537448e-03
O         0.5609259985       1.4645247421      -0.0276113640  -3.147802582982e-02  -3.050566800203e-02   1.001971811167e-02
O         0.5042615141      -0.7268873966       1.2112324444  -8.834566315555e-03  -1.719704978543e-03   2.218275368010e-02
O         0.5034963920      -0.6990533170      -1.2178138609  -1.335654202231e-02   1.186005737491e-03   2.662190261162e-04
H        -1.9246682653      -0.8368159604      -0.0027619611  -4.809628671738e-03  -4.023415133250e-02   2.504604626476e-04
6
Properties=species:S:1:pos:R:3:forces:R:3 energy=-6.992861045760e+02 dipole="-1.0427348104e+00 -3.7894631681e-01 -9.2467501727e-02" quadrupole="-2.8625353590e+01 2.8342182148e+00 1.2892452908e-01 2.8342182148e+00 -3.3012873622e+01 2.8357364709e-01 1.2892452908e-01 2.8357364709e-01 -3.4978984624e+01" polarizability="4.2075110956e+01 1.1321097720e+00 4.9126302312e-02 1.1321097720e+00 4.3969148118e+01 -4.2440915580e-01 4.9126302312e-02 -4.2440915580e-01 4.3652266818e+01" charge=-1 multiplicity=1 method=wB97M-V basis=def2-svpd config_type=hso4- sample_index=228 temperature=300.0 units=atomic
S         0.1449698384       0.0215422230      -0.0045208198   1.526472313935e-02  -6.808181857082e-02   2.222767555866e-02
O        -1.4606184601       0.1014314739       0.0167269657  -7.141747063611e-02  -6.572210956185e-02  -6.013204019939e-03
O         0.4222696252       1.4232461468      -0.0241437052   2.523502806825e-02   5.270218937009e-02   4.300416807794e-03
O         0.4606941843      -0.7442552305       1.2780310147   3.379055823860e-05   1.950070105656e-02  -3.499708094089e-02
O         0.4816117206      -0.7077152655      -1.2595185755   1.741620609105e-03  -4.031468150210e-04   1.031757237752e-02
H        -1.8552631735      -0.8773364647      -0.0373566611   2.914681259813e-02   6.198037850095e-02   4.199924689709e-03
6
Properties=species:S:1:pos:R:3:forces:R:3 energy=-6.992883797953e+02 dipole="-9.7816540021e-01 -4.2194139172e-01 -8.0605279363e-02" quadrupole="-2.9223301684e+01 2.8698480449e+00 -5.5287012091e-01 2.8698480449e+00 -3.3187878123e+01 1.8140789696e-01 -5.5287012091e-01 1.8140789696e-01 -3.4522548563e+01" polarizability="4.3975981280e+01 8.7110664505e-01 7.2926910201e-01 8.7110664505e-01 4.4842115616e+01 -9.3522984504e-01 7.2926910201e-01 -9.3522984504e-01 4.2918819814e+01" charge=-1 multiplicity=1 method=wB97M-V basis=def2-svpd config_type=hso4- sample_index=229 temperature=300.0 units=atomic
S         0.1383073360       0.0241668957      -0.0000200196   7.111247671713e-03  -2.645247039698e-02   4.899705626232e-02
O        -1.5317740090       0.1153395823      -0.0502701327  -2.991370570624e-02  -6.936443302289e-02   1.671575104175e-02
O         0.4387250123       1.4495030488      -0.0071164438   9.966433673577e-03   1.475808782899e-02   3.868623494189e-03
O         0.5432893199      -0.7703036913       1.2508412775  -2.112918902801e-02   3.064256552005e-02  -3.115824346569e-02
O         0.4680590879      -0.7262754947      -1.1968770545   9.335074943821e-03  -1.357989431328e-02  -3.105226121420e-02
H        -1.8817751627      -0.8792147117       0.0582862384   2.465192747521e-02   6.395282372845e-02  -7.361924974381e-03
6
Properties=species:S:1:pos:R:3:forces:R:3 energy=-6.992845873738e+02 dipole="-1.2338088836e+00 -6.7657328993e-01 3.8618076559e-02" quadrupole="-2.9537396319e+01 2.0773550168e+00 -2.5628544740e-01 2.0773550168e+00 -3.3356056703e+01 -1.3938843139e-02 -2.5628544740e-01 -1.3938843139e-02 -3.4510100124e+01" polarizability="4.2603587598e+01 2.2934804950e+00 3.1126811060e-01 2.2934804950e+00 4.5967874874e+01 -4.1613636110e-01 3.1126811060e-01 -4.1613636110e-01 4.2296991145e+01" charge=-1 multiplicity=1 method=wB97M-V basis=def2-svpd config_type=hso4- sample_index=230 temperature=300.0 units=atomic
S         0.0857942457       0.0221222083       0.0101983857   8.390339873008e-02   5.293642615699e-02   7.019928298908e-03
O        -1.5221584604       0.0176274915      -0.0349971754  -3.810186455918e-02  -4.510180880406e-02   1.270401732301e-02
O         0.5711922066       1.4931757135      -0.0087147652  -3.643678625487e-02  -5.444288078472e-02   4.917040512503e-03
O         0.5049756985      -0.7293197006       1.2237528199  -1.507347145989e-02   6.464871852845e-03   4.169202214005e-03
O         0.4581724597      -0.7042311415      -1.2028885383   1.468846757570e-03  -1.132364250517e-02  -2.443541068280e-02
H        -1.7026124300      -0.9973840043       0.0409134075   4.244353743187e-03   5.149374031129e-02  -4.381552450790e-03
6
Properties=species:S:1:pos:R:3:forces:R:3 energy=-6.992880635894e+02 dipole="-1.0222299585e+00 -4.2292858923e-01 -1.1564940666e-01" quadrupole="-2.8805528041e+01 2.4854473149e+00 -8.5177781964e-02 2.4854473149e+00 -3.3393108060e+01 -1.0300644593e-02 -8.5177781964e-02 -1.0300644593e-02 -3.4525494367e+01" polarizability="4.3045937248e+01 3.4615890160e-01 5.8907397963e-02 3.4615890160e-01 4.3666596652e+01 2.5442300805e-01 5.8907397963e-02 2.5442300805e-01 4.3254580714e+01" charge=-1 multiplicity=1 method=wB97M-V basis=def2-svpd config_type=hso4- sample_index=231 temperature=300.0 units=atomic
S         0.1354882376       0.0206872166      -0.0198235913   1.517028558018e-02  -1.874292288639e-02   2.564595481883e-02
O        -1.5459081159       0.0618858012       0.0091767127   4.990285879967e-02   1.189337191698e-01  -3.109396524883e-03
O         0.4853687549       1.4594293500       0.0312018226  -7.892694657155e-03  -1.299913546004e-02  -1.024538476977e-02
O         0.4928580426      -0.7106023150       1.2454989824  -7.203425836661e-03   8.339286439830e-03  -1.928832031213e-02
O         0.4970950168      -0.7469194816      -1.2462286204  -7.437758442724e-03   1.383698167905e-02   8.127061869228e-03
H        -1.9622175715      -0.7119267342       0.0029965804  -4.254257859299e-02  -1.093569480017e-01  -1.155551041890e-03
6
Properties=species:S:1:pos:R:3:forces:R:3 energy=-6.992822809937e+02 dipole="-1.0999674146e+00 -6.5042582940e-01 3.6175006869e-01" quadrupole="-2.9824274944e+01 1.8986257356e+00 7.0553902124e-02 1.8986257356e+00 -3.3149509279e+01 -5.9540976459e-01 7.0553902124e-02 -5.9540976459e-01 -3.4590056727e+01" polarizability="4.1721627325e+01 1.5476382484e+00 -3.1638876612e-01 1.5476382484e+00 4.4449649375e+01 7.3627874889e-01 -3.1638876612e-01 7.3627874889e-01 4.2655120680e+01" charge=-1 multiplicity=1 method=wB97M-V basis=def2-svpd config_type=hso4- sample_index=232 temperature=300.0 units=atomic
S         0.0987079661       0.0078518576       0.0371061586   6.777836827029e-02   6.521714874963e-02  -1.097051125129e-01
O        -1.5064010139       0.0475194974      -0.0286041834  -2.717833845481e-02  -5.395115214368e-02   1.348131346860e-02
O         0.5319731769       1.4519696276       0.0026376222  -1.769577636037e-02  -2.557363107602e-02   4.427507008397e-03
O         0.4877198342      -0.6824146397       1.2202491084   6.641161555819e-03  -3.877698137957e-02   5.753362744039e-02
O         0.4663485881      -0.7127765515      -1.2712509702  -1.311489176548e-02   1.141462063052e-02   4.005001466034e-02
H        -1.5867461280      -0.9702343627       0.0472524685  -1.647870516484e-02   4.171820266424e-02  -5.831615744444e-03
6
Properties=species:S:1:pos:R:3:forces:R:3 energy=-6.992825088666e+02 dipole="-7.9421477646e-01 -5.4295090462e-01 3.2055289409e-01" quadrupole="-3.0204181804e+01 2.0335820231e+00 6.1756980070e-01 2.0335820231e+00 -3.2121233164e+01 -8.9516187031e-02 6.1756980070e-01 -8.9516187031e-02 -3.4905851045e+01" polarizability="4.3544624976e+01 2.0869920434e+00 -7.4257081521e-01 2.0869920434e+00 4.3559324296e+01 1.9886829771e-01 -7.4257081521e-01 1.9886829771e-01 4.3902794394e+01" charge=-1 multiplicity=1 method=wB97M-V basis=def2-svpd config_type=hso4- sample_index=233 temperature=300.0 units=atomic
S         0.1444225869       0.0159564535       0.0441348314  -6.620889715900e-03  -6.465614323757e-03  -9.993049759762e-02
O        -1.5494409411       0.0038852187       0.0207502698  -7.315205006094e-03  -5.927601764619e-02  -3.968865261745e-03
O         0.5586084272       1.3999567858      -0.0665003958  -1.836518916073e-03   3.385950367488e-02   2.000799317816e-02
O         0.4181266292      -0.6813977625       1.2722065179   1.714442747081e-02  -2.556670912536e-02   3.260588469926e-02
O         0.4701453308      -0.6316398154      -1.3118034202  -8.077640513446e-03  -7.792208583043e-03   4.716454545524e-02
H        -1.7126318536      -1.0347350288      -0.0562336918   6.700568535805e-03   6.523560299884e-02   4.104525222636e-03
6
Properties=species:S:1:pos:R:3:forces:R:3 energy=-6.992923167443e+02 dipole="-6.0974122202e-01 -5.7193190486e-01 8.4151140021e-02" quadrupole="-3.0057680281e+01 1.9830285937e+00 9.8642151638e-03 1.9830285937e+00 -3.2722698225e+01 -4.4646788124e-01 9.8642151638e-03 -4.4646788124e-01 -3.4368117070e+01" polarizability="4.2368938354e+01 1.5943024089e+00 -2.5503695219e-01 1.5943024089e+00 4.3979869133e+01 1.1218863075e+00 -2.5503695219e-01 1.1218863075e+00 4.2707914075e+01" charge=-1 multiplicity=1 method=wB97M-V basis=def2-svpd config_type=hso4- sample_index=234 temperature=300.0 units=atomic
S         0.1783130119       0.0189336960      -0.0059519207  -3.507241358465e-02   2.963989115425e-02  -5.089865528428e-02
O        -1.5170332218       0.0152953216       0.0053994547  -6.725403292101e-03  -4.503175699723e-03  -4.160989789200e-03
O         0.5063163242       1.4665108014       0.0538850362   1.320814046355e-03  -1.535023161916e-02  -1.477892701436e-02
O         0.4158087646      -0.6561744100       1.2321506717   2.896900785736e-02  -3.908852648878e-02   4.684219608179e-02
O         0.4236141967      -0.7457195146      -1.2807333121   1.177334452913e-02   1.673961505533e-02   2.377303056325e-02
H        -1.7078718502      -0.9434817499       0.0257389614  -2.249686186238e-04   1.260473676927e-02  -8.771569401734e-04
6
Properties=species:S:1:pos:R:3:forces:R:3 energy=-6.992951485193e+02 dipole="-9.9603625380e-01 -5.9001472414e-01 -1.6750011096e-01" quadrupole="-2.9509286094e+01 2.3937055127e+00 -4.7945215381e-01 2.3937055127e+00 -3.3272458416e+01 -2.2843910906e-01 -4.7945215381e-01 -2.2843910906e-01 -3.4339468971e+01" polarizability="4.3093735222e+01 9.5413992097e-01 3.6317719284e-01 9.5413992097e-01 4.4333111882e+01 5.7638810994e-01 3.6317719284e-01 5.7638810994e-01 4.2518874268e+01" charge=-1 multiplicity=1 method=wB97M-V basis=def2-svpd config_type=hso4- sample_index=235 temperature=300.0 units=atomic
S         0.1254906365       0.0076033232      -0.0349103321   2.498242072911e-02   3.140210459764e-02   4.675386173857e-02
O        -1.5402164082       0.0873221759      -0.0147636936  -8.218503977023e-03  -3.035064224435e-02  -7.303724325441e-04
O         0.4814990951       1.4531848367       0.0818572851  -6.078697238581e-03  -1.500438793332e-02  -2.402504649812e-02
O         0.5171710225      -0.6748224929       1.2285254165  -1.003966136511e-02  -1.160501885924e-02  -4.889945957451e-03
O         0.4801870458      -0.7658070779      -1.2289068932  -2.274787645815e-03   2.683288460149e-03  -1.501903855244e-02
H        -1.7918322303      -0.8697421181       0.0609145680   1.630265397642e-03   2.289554254906e-02  -2.068663900241e-03
6
Properties=species:S:1:pos:R:3:forces:R:3 energy=-6.992857783591e+02 dipole="-8.3280506245e-01 -4.1676333079e-01 2.6511834335e-02" quadrupole="-2.9530779419e+01 2.1262132703e+00 4.5979237864e-02 2.1262132703e+00 -3.2589601269e+01 3.5975025996e-01 4.5979237864e-02 3.5975025996e-01 -3.4319583160e+01" polarizability="4.1118340460e+01 9.0369863532e-01 1.7344258105e-01 9.0369863532e-01 4.1586056333e+01 -1.0224584013e+00 1.7344258105e-01 -1.0224584013e+00 4.1624182465e+01" charge=-1 multiplicity=1 method=wB97M-V basis=def2-svpd config_type=hso4- sample_index=236 temperature=300.0 units=atomic
S         0.1429697578       0.0316286784       0.0207301711  -7.235016858896e-03  -2.436172092307e-02   2.063557779731e-02
O        -1.5195817639       0.0165515694      -0.0136654322   1.569739434647e-02   1.174829532425e-01   8.360846567298e-03
O         0.5185879717       1.4195794145      -0.0676405123   2.535255671924e-03   4.020748532621e-02   1.985727530855e-02
O         0.4577689917      -0.7445938165       1.2545452915   4.523881888749e-04   1.313401623384e-02  -6.249390378091e-03
O         0.4452394838      -0.6435113736      -1.2139013485   1.716130180649e-02  -3.892250139892e-02  -4.202300696196e-02
H        -1.7545546514      -0.8340935965      -0.0201843578  -2.862017275582e-02  -1.074999235677e-01  -4.618217994696e-04
6
Properties=species:S:1:pos:R:3:forces:R:3 energy=-6.992928012117e+02 dipole="-7.9911673744e-01 -4.8710548407e-01 -2.4274246970e-01" quadrupole="-2.9117347326e+01 2.5022390484e+00 -4.4227141868e-02 2.5022390484e+00 -3.3480883025e+01 3.2406361150e-01 -4.4227141868e-02 3.2406361150e-01 -3.4289173967e+01" polarizability="4.3133555615e+01 8.3406801706e-01 1.8728750617e-01 8.3406801706e-01 4.5074898770e+01 -4.1836571536e-01 1.8728750617e-01 -4.1836571536e-01 4.2844240190e+01" charge=-1 multiplicity=1 method=wB97M-V basis=def2-svpd config_type=hso4- sample_index=237 temperature=300.0 units=atomic
S         0.1709707820       0.0241085669      -0.0269992942  -2.434501592059e-02   1.271131312015e-02   6.927494528149e-02
O        -1.5227160511       0.0625125733       0.0203589359   4.521283134903e-03   3.976666930097e-02  -4.190324221675e-03
O         0.4565491548       1.5014886667       0.0063741504   6.251652382563e-04  -3.921487176749e-02  -5.674358653044e-03
O         0.4530897104      -0.7551320257       1.2429961977   6.025416205870e-03   2.262687114350e-02  -2.408571823263e-02
O         0.4684483219      -0.7470935852      -1.2140187187   1.408670144312e-02  -6.885416815749e-03  -3.405312692504e-02
H        -1.9157242436      -0.7885661992      -0.0285719893  -8.885839281767e-04  -2.898783721079e-02  -1.244788997633e-03
6
Properties=species:S:1:pos:R:3:forces:R:3 energy=-6.992820400261e+02 dipole="-7.6526567994e-01 -7.5129417195e-01 -1.3913050590e-01" quadrupole="-2.9818602353e+01 2.1274659529e+00 5.2917083375e-01 2.1274659529e+00 -3.3532823735e+01 3.6048544227e-01 5.2917083375e-01 3.6048544227e-01 -3.4156966317e+01" polarizability="4.2776889605e+01 -2.2494645900e-01 -5.5565586656e-01 -2.2494645900e-01 4.3471874409e+01 -6.8964518191e-02 -5.5565586656e-01 -6.8964518191e-02 4.3239810051e+01" charge=-1 multiplicity=1 method=wB97M-V basis=def2-svpd config_type=hso4- sample_index=238 temperature=300.0 units=atomic
S         0.1542282238      -0.0414764862      -0.0153416926   3.531554422868e-03   8.395118744448e-02   2.140914833915e-02
O        -1.5089542307       0.1736532622       0.0679655958   9.671073192621e-04  -3.424998667374e-02  -1.449689921470e-02
O         0.3780243131       1.4303405037      -0.0244034407   3.127087326118e-02  -5.906791537818e-03   4.313804702150e-04
O         0.4571901904      -0.7147664617       1.2676319634   5.467813403707e-03  -1.300140715285e-02  -1.232986374022e-02
O         0.5482019456      -0.6973035229      -1.2745238152  -9.672084368861e-03  -1.652731216026e-02   4.618829483142e-03
H        -1.6766007735      -0.7510257975      -0.1043953144  -3.159968010029e-02  -1.424208049236e-02   2.946053707357e-04
6
Properties=species:S:1:pos:R:3:forces:R:3 energy=-6.992868154627e+02 dipole="-7.4208202602e-01 -2.8324554250e-01 3.5650575612e-01" quadrupole="-2.9951175499e+01 2.7153832479e+00 -5.1297242611e-01 2.7153832479e+00 -3.3135528980e+01 -9.3596953202e-01 -5.1297242611e-01 -9.3596953202e-01 -3.4473919526e+01" polarizability="4.4706344219e+01 4.7654207318e-01 5.4520348121e-02 4.7654207318e-01 4.5257860931e+01 1.3141586826e+00 5.4520348121e-02 1.3141586826e+00 4.3597508923e+01" charge=-1 multiplicity=1 method=wB97M-V basis=def2-svpd config_type=hso4- sample_index=239 temperature=300.0 units=atomic
S         0.1616562156       0.0473793442       0.0253497498  -2.176158665887e-02  -5.029144886870e-02  -8.272359482809e-02
O        -1.5632062552       0.0868268224      -0.0735929764   4.476865313087e-03  -3.534408249243e-02   2.234528318721e-02
O         0.4531257849       1.4717020708       0.0671295105   8.975994992493e-03   1.240081034768e-02  -8.377651238080e-03
O         0.5343928980      -0.7191240321       1.1970556555   1.440801307113e-03  -1.051132303002e-02   3.487935541018e-02
O         0.4431761342      -0.8187396142      -1.2491872763  -1.872021417300e-03   4.885341307598e-02   4.413905453997e-02
H        -1.8164062232      -0.8659838560       0.1410926824   8.730315869922e-03   3.483798019049e-02  -1.036362261264e-02
6
Properties=species:S:1:pos:R:3:forces:R:3 energy=-6.992956658693e+02 dipole="-9.0992389723e-01 -3.7015947661e-01 -4.9757234649e-02" quadrupole="-2.9790933225e+01 2.4840135546e+00 -1.3104334739e-01 2.4840135546e+00 -3.2797117921e+01 2.8396858438e-01 -1.3104334739e-01 2.8396858438e-01 -3.4794689858e+01" polarizability="4.3166653941e+01 8.2942840072e-01 3.6268776839e-01 8.2942840072e-01 4.3869437251e+01 -8.5706739782e-01 3.6268776839e-01 -8.5706739782e-01 4.3568018220e+01" charge=-1 multiplicity=1 method=wB97M-V basis=def2-svpd config_type=hso4- sample_index=240 temperature=300.0 units=atomic
S         0.1346945939       0.0338363778       0.0057519185   1.325675653430e-02  -4.691847341370e-02   2.584297250868e-02
O        -1.5416035428       0.0634458609      -0.0174656563  -4.726854545819e-03  -2.976090869672e-02   5.984910690190e-03
O         0.4930079619       1.4351787526      -0.0345425546   3.973322188589e-03   2.707533388439e-02   9.536300003899e-03
O         0.4954850389      -0.7564890953       1.2757459328  -1.503485901905e-02   2.931145172511e-02  -3.875620814874e-02
O         0.4707403690      -0.6925438186      -1.2355277598   1.146641400902e-03  -7.572104182849e-03  -2.178293628717e-03
H        -1.7457535235      -0.9130345822       0.0015069437   1.373233015539e-03   2.786658640954e-02  -3.916100238308e-04
6
Properties=species:S:1:pos:R:3:forces:R:3 energy=-6.992934329328e+02 dipole="-9.2184474312e-01 -4.3666513089e-01 2.5911784998e-01" quadrupole="-2.9679918066e+01 2.4559776757e+00 8.0666034102e-01 2.4559776757e+00 -3.3047118747e+01 -4.8797437320e-02 8.0666034102e-01 -4.8797437320e-02 -3.4478016969e+01" polarizability="4.3346659370e+01 1.0099012644e+00 -9.0732004661e-01 1.0099012644e+00 4.4331739552e+01 3.1764651087e-01 -9.0732004661e-01 3.1764651087e-01 4.2829949562e+01" charge=-1 multiplicity=1 method=wB97M-V basis=def2-svpd config_type=hso4- sample_index=241 temperature=300.0 units=atomic
S         0.1351284837       0.0317676497       0.0346863524   1.056501906129e-02  -3.885344891918e-03  -9.294742631109e-02
O        -1.5464692077       0.0574684359       0.0449216124  -4.535554971429e-03  -1.226521291091e-02  -6.567525796352e-03
O         0.4986457177       1.4593922647      -0.0587441552  -5.708015691426e-03  -5.564762013808e-03   1.599953017082e-02
O         0.4421491727      -0.7485099151       1.2029355652   1.395515174228e-02  -1.338852331986e-02   4.483677587970e-02
O         0.5252314159      -0.7162425653      -1.2538877108  -1.874845553017e-02   1.898911319096e-02   3.636912004097e-02
H        -1.7951512975      -0.8855118422      -0.0840317474   4.474703163192e-03   1.613431047045e-02   2.300427914101e-03
6
Properties=species:S:1:pos:R:3:forces:R:3 energy=-6.992947747490e+02 dipole="-6.8314166885e-01 -4.2128297028e-01 2.2149610356e-01" quadrupole="-3.0008049582e+01 2.6146705527e+00 -4.1370651177e-01 2.6146705527e+00 -3.3127347241e+01 -4.8194699594e-01 -4.1370651177e-01 -4.8194699594e-01 -3.4427989598e+01" polarizability="4.4852798378e+01 1.7271028710e-01 2.4678397659e-01 1.7271028710e-01 4.4493345545e+01 4.4338758027e-01 2.4678397659e-01 4.4338758027e-01 4.3765712873e+01" charge=-1 multiplicity=1 method=wB97M-V basis=def2-svpd config_type=hso4- sample_index=242 temperature=300.0 units=atomic
S         0.1694636689       0.0183692248       0.0212474320  -2.328175055712e-02  -2.174468486846e-02  -4.627370125507e-02
O        -1.5702190945       0.1125452603      -0.0586649818   1.503656691996e-02  -2.718418719974e-02   1.527141464440e-02
O         0.4326455864       1.4549078338       0.0265895491   1.447989364470e-02   7.297337665271e-03  -1.309432970003e-03
O         0.5320291561      -0.7285324014       1.2423371443  -5.618830939195e-03   2.071203529855e-03   7.602354274532e-04
O         0.4583331019      -0.7626174228      -1.2582221182  -2.539644479169e-04   2.442123841742e-02   3.583825013528e-02
H        -1.8231083505      -0.8248116903       0.0957290686  -3.340914355130e-04   1.511599310947e-02  -4.323700478508e-03
6
Properties=species:S:1:pos:R:3:forces:R:3 energy=-6.992916146092e+02 dipole="-8.7695162700e-01 -5.2243900706e-01 -7.7537103088e-02" quadrupole="-2.8953316793e+01 2.4909301334e+00 6.4358630554e-01 2.4909301334e+00 -3.3291126988e+01 4.5778542173e-01 6.4358630554e-01 4.5778542173e-01 -3.4765773983e+01" polarizability="4.4979700866e+01 7.7207105551e-01 -3.6069677777e-01 7.7207105551e-01 4.4466690036e+01 -7.4952597664e-01 -3.6069677777e-01 -7.4952597664e-01 4.5046572976e+01" charge=-1 multiplicity=1 method=wB97M-V basis=def2-svpd config_type=hso4- sample_index=243 temperature=300.0 units=atomic
S         0.1629935589      -0.0019670078       0.0042768572  -1.105126716635e-02  -5.411609775302e-03   7.230487596994e-03
O        -1.5574654227       0.0744847530       0.0506975972   8.088094687917e-03   1.527618058328e-02  -3.307455636569e-03
O         0.4684486868       1.4464668485      -0.0679091028   4.017439648099e-04  -1.160140473960e-02   1.582501223181e-02
O         0.4469937186      -0.7450798255       1.3039414726   1.170527628220e-03   2.073880233164e-02  -4.290643660950e-02
O         0.5208938467      -0.6646807591      -1.2895024549  -7.100648711551e-03  -7.389954108584e-03   2.454760415644e-02
H        -2.0200973470      -0.7487020101      -0.1051179323   8.463514896851e-03  -1.158339238177e-02  -1.339338902422e-03
6
Properties=species:S:1:pos:R:3:forces:R:3 energy=-6.992903056919e+02 dipole="-9.0694784177e-01 -3.6593725427e-01 -1.7757670902e-02" quadrupole="-2.9456664816e+01 2.4191812511e+00 1.9108842103e-01 2.4191812511e+00 -3.2305544699e+01 6.3577605603e-02 1.9108842103e-01 6.3577605603e-02 -3.4370014053e+01" polarizability="4.1346363078e+01 5.1936688584e-01 -1.8307830760e-01 5.1936688584e-01 4.0504876907e+01 4.8081365208e-02 -1.8307830760e-01 4.8081365208e-02 4.1289734949e+01" charge=-1 multiplicity=1 method=wB97M-V basis=def2-svpd config_type=hso4- sample_index=244 temperature=300.0 units=atomic
S         0.1292654700       0.0255105644      -0.0021038773  -8.024193555174e-03  -7.863454323192e-02  -3.076303886111e-03
O        -1.5323133981       0.0621867580       0.0197916417  -8.991020183196e-04   2.624447971782e-02  -2.811574637095e-03
O         0.4923624893       1.3688068261      -0.0071719020   2.255645766700e-02   1.163992576728e-01   4.683877406423e-04
O         0.4711502984      -0.6858285578       1.2268867018   2.579226161055e-03  -1.898050410253e-02   2.027384609106e-02
O         0.4989893153      -0.6834223932      -1.2335898804  -4.551269718724e-03  -1.574410085965e-02  -1.368486511476e-02
H        -1.7674011725      -0.8441334357      -0.0298136076  -1.174064316519e-02  -2.928122368136e-02  -1.183463007530e-03
6
Properties=species:S:1:pos:R:3:forces:R:3 energy=-6.992954335760e+02 dipole="-6.6791714145e-01 -5.1031824031e-01 9.2648454291e-02" quadrupole="-2.9315379357e+01 2.5083373445e+00 1.4538302137e-01 2.5083373445e+00 -3.2795273616e+01 -9.7525277927e-02 1.4538302137e-01 -9.7525277927e-02 -3.4300862906e+01" polarizability="4.4454747547e+01 8.8502901236e-01 -2.0398436286e-01 8.8502901236e-01 4.3025531578e+01 1.8312555500e-01 -2.0398436286e-01 1.8312555500e-01 4.2960570748e+01" charge=-1 multiplicity=1 method=wB97M-V basis=def2-svpd config_type=hso4- sample_index=245 temperature=300.0 units=atomic
S         0.1805446560       0.0076722505       0.0105088140  -4.370981346574e-02  -1.071339616149e-02  -3.365609645738e-02
O        -1.5691923336       0.0615136349       0.0030084032   1.192671532860e-02   1.897467394691e-02   6.282973424983e-04
O         0.4727685539       1.4303562237      -0.0076949732   7.191031110602e-03   1.813113421264e-02   2.622736051377e-03
O         0.4645243336      -0.6982688765       1.2498226043   1.190136604371e-02  -1.450138491635e-02   1.637553163325e-02
O         0.4745100357      -0.6992761140      -1.2658548316   4.296805972765e-03  -4.353139089801e-04   1.422184586397e-02
H        -2.0013797715      -0.7913959977      -0.0058306365   8.400659104015e-03  -1.140808218927e-02  -1.884177379040e-04
6
Properties=species:S:1:pos:R:3:forces:R:3 energy=-6.992829539184e+02 dipole="-1.0626279082e+00 -8.3689368852e-01 2.0641083915e-01" quadrupole="-3.0177826007e+01 1.8665230925e+00 -7.3278467780e-02 1.8665230925e+00 -3.3316903484e+01 -4.2630459208e-01 -7.3278467780e-02 -4.2630459208e-01 -3.4380315320e+01" polarizability="4.4812222554e+01 1.9146688167e+00 -1.1563382467e-01 1.9146688167e+00 4.5541064458e+01 5.3606536811e-01 -1.1563382467e-01 5.3606536811e-01 4.3211188881e+01" charge=-1 multiplicity=1 method=wB97M-V basis=def2-svpd config_type=hso4- sample_index=246 temperature=300.0 units=atomic
S         0.0986079867      -0.0156024841       0.0195497551   5.348477693096e-02   9.747233071638e-02  -6.629587121259e-02
O        -1.5883894197       0.0545418077      -0.0251221442   1.097496432322e-02  -5.790229996582e-02   1.031496864103e-02
O         0.5614214048       1.4651219171       0.0151141766  -3.218027297404e-02  -5.207760302491e-02  -1.065784068911e-03
O         0.5201283445      -0.6677198212       1.2314184813  -5.831445897158e-03  -3.362531925980e-02   3.698566256366e-02
O         0.4947125552      -0.7011087681      -1.2631297157  -1.820234596499e-02   6.200234355980e-04   2.458917286604e-02
H        -1.7121710859      -0.9623357304       0.0461268141  -8.293385456409e-03   4.552847908897e-02  -4.555418328479e-03
6
Properties=species:S:1:pos:R:3:forces:R:3 energy=-6.992973181949e+02 dipole="-9.9036467079e-01 -4.4366759630e-01 1.1358286109e-01" quadrupole="-2.9027880461e+01 2.6495913419e+00 3.2997351515e-01 2.6495913419e+00 -3.3354958899e+01 2.6774452506e-02 3.2997351515e-01 2.6774452506e-02 -3.4606985591e+01" polarizability="4.2349159968e+01 6.9747346110e-01 -3.0188976073e-01 6.9747346110e-01 4.4481502195e+01 -4.3815561039e-02 -3.0188976073e-01 -4.3815561039e-02 4.3085440726e+01" charge=-1 multiplicity=1 method=wB97M-V basis=def2-svpd config_type=hso4- sample_index=247 temperature=300.0 units=atomic
S         0.1425776452       0.0216058376       0.0180698745   1.497872601135e-02  -1.700977798634e-02  -3.490251918213e-02
O        -1.4969563614       0.0966904650       0.0143677985  -3.014503366182e-02  -2.583427778174e-02  -1.550403092219e-03
O         0.4388476005       1.4623721968      -0.0343600929   9.177543680312e-03  -2.239678461148e-03   9.223715159316e-03
O         0.4675922868      -0.7589147071       1.2338533092   3.032419643444e-03   8.927004192348e-03   1.837696661553e-03
O         0.4972116236      -0.7299115255      -1.2481499898  -6.885314373673e-03   1.376859899888e-02   2.396680059848e-02
H        -1.8297445040      -0.8365704198      -0.0348674476   9.857720287454e-03   2.238327939709e-02   1.458924380575e-03
6
Properties=species:S:1:pos:R:3:forces:R:3 energy=-6.992850592051e+02 dipole="-1.3948688189e+00 -5.2749853623e-01 -1.0243848486e-01" quadrupole="-2.8705247751e+01 2.8758531773e+00 -2.4136343751e-02 2.8758531773e+00 -3.3866411999e+01 2.8527260760e-01 -2.4136343751e-02 2.8527260760e-01 -3.4654973673e+01" polarizability="4.5564678278e+01 7.0838474768e-01 2.3131230418e-01 7.0838474768e-01 4.6026093519e+01 -5.8758078810e-01 2.3131230418e-01 -5.8758078810e-01 4.3739882201e+01" charge=-1 multiplicity=1 method=wB97M-V basis=def2-svpd config_type=hso4- sample_index=248 temperature=300.0 units=atomic
S         0.0778925494       0.0092965131      -0.0051820067   8.457010725877e-02   8.000577708519e-03   2.840566525989e-02
O        -1.5721537193       0.1264416960       0.0020319838  -2.173126808371e-02  -4.425804250524e-02  -1.287866343450e-03
O         0.4835793446       1.4665227021      -0.0197621534  -2.156545998950e-02  -3.266686446427e-02   4.196093611700e-03
O         0.5669247866      -0.7688878316       1.2279706611  -3.690452527867e-02   2.751673649371e-02  -2.570506063581e-02
O         0.5658567941      -0.7298764300      -1.1990273334  -2.597451361092e-02   3.054917787974e-03  -6.845225521520e-03
H        -1.9723126805      -0.8104348378      -0.0164075444   2.158069576605e-02   3.829652127321e-02   1.224392557189e-03
6
Properties=species:S:1:pos:R:3:forces:R:3 energy=-6.992942912758e+02 dipole="-9.1299909229e-01 -3.1953936496e-01 1.3778562720e-01" quadrupole="-2.9584193348e+01 2.7808022166e+00 -2.5709856848e-01 2.7808022166e+00 -3.3090821222e+01 -3.9534575174e-01 -2.5709856848e-01 -3.9534575174e-01 -3.4541506136e+01" polarizability="4.4785087730e+01 8.9486214265e-01 4.5843885282e-02 8.9486214265e-01 4.5167801324e+01 5.5072536729e-01 4.5843885282e-02 5.5072536729e-01 4.3215936565e+01" charge=-1 multiplicity=1 method=wB97M-V basis=def2-svpd config_type=hso4- sample_index=249 temperature=300.0 units=atomic
S         0.1399557578       0.0488262718       0.0084246395   5.270964102522e-03  -5.150688824367e-02  -3.041713318228e-02
O        -1.5725912101       0.0657154129      -0.0312517369  -1.866610310888e-03  -2.121795699175e-02   8.245962456958e-03
O         0.4911524582       1.4735503655       0.0318921440  -5.269679624473e-03  -1.807561255191e-03  -5.003591060927e-03
O         0.5184053862      -0.7377713265       1.2038462191  -7.297536894947e-03   9.478934374473e-03   1.002123206695e-02
O         0.4785403471      -0.7831620816      -1.2247587267  -8.470513226256e-03   3.445623122762e-02   2.084087102660e-02
H        -1.8914920183      -0.8810957912       0.0614342377   1.767477801493e-02   3.055535675558e-02  -3.750993423026e-03
6
Properties=species:S:1:pos:R:3:forces:R:3 energy=-6.992846335914e+02 dipole="-9.3819617059e-01 -5.5487213554e-01 -1.8762679800e-01" quadrupole="-2.8920349498e+01 2.7956642489e+00 3.0860605392e-01 2.7956642489e+00 -3.3312196471e+01 -2.3165314012e-02 3.0860605392e-01 -2.3165314012e-02 -3.4084762812e+01" polarizability="4.3644429138e+01 -3.5273189956e-01 -4.7323450920e-01 -3.5273189956e-01 4.2503704208e+01 8.2513750991e-01 -4.7323450920e-01 8.2513750991e-01 4.2102237836e+01" charge=-1 multiplicity=1 method=wB97M-V basis=def2-svpd config_type=hso4- sample_index=250 temperature=300.0 units=atomic
S         0.1418813376      -0.0206880724      -0.0370840115  -5.155796727091e-03   2.689487648593e-03   1.529945994835e-02
O        -1.5270658263       0.1927375800       0.0601895494  -1.864874881725e-02  -4.679688396888e-02  -1.812009782280e-02
O         0.3638560118       1.3922809720       0.0497918112   3.490631569418e-02   5.866405971774e-02  -1.815620713427e-02
O         0.5031946167      -0.6784440238       1.2113348871   3.554620571479e-03  -3.138161909960e-02   1.979769532280e-02
O         0.5746391229      -0.7586808208      -1.2437216910  -1.696383690944e-02   3.573846354497e-03  -1.922367705593e-03
H        -1.9324509432      -0.6950911507      -0.0535544862   2.226232331685e-03   1.317461717071e-02   3.079644556704e-03
6
Properties=species:S:1:pos:R:3:forces:R:3 energy=-6.992981910697e+02 dipole="-9.6496096580e-01 -5.0752624307e-01 -6.8479856863e-02" quadrupole="-2.8732970799e+01 2.5781252542e+00 1.2747605749e-01 2.5781252542e+00 -3.3017842656e+01 1.4286982525e-01 1.2747605749e-01 1.4286982525e-01 -3.4367506895e+01" polarizability="4.2143119210e+01 7.8617685722e-01 -4.5878814585e-02 7.8617685722e-01 4.2530128941e+01 -1.2312512769e-01 -4.5878814585e-02 -1.2312512769e-01 4.2018163245e+01" charge=-1 multiplicity=1 method=wB97M-V basis=def2-svpd config_type=hso4- sample_index=251 temperature=300.0 units=atomic
S         0.1452409378       0.0070262633      -0.0061991612  -5.013547560054e-03  -1.179338984584e-02   1.591542186757e-02
O        -1.5086904172       0.0875656114       0.0169827331  -2.380587003323e-02  -4.749710843764e-03  -3.697567568108e-03
O         0.4510736017       1.4196014577      -0.0079907923   1.174792513448e-02   3.215528893298e-02   7.237442843049e-04
O         0.4718583670      -0.7106639056       1.2415928266   3.927654967963e-03  -5.895689688613e-03   2.142748972229e-03
O         0.4931478731      -0.7002322334      -1.2365943579   3.062648129052e-03  -1.416224222135e-02  -1.568218029057e-02
H        -1.9171128285      -0.7931324720      -0.0279106497   1.002856148942e-02   4.443805162549e-03   6.116168639625e-04
6
Properties=species:S:1:pos:R:3:forces:R:3 energy=-6.992924578928e+02 dipole="-6.3970623652e-01 -4.4346898062e-01 1.1206512443e-01" quadrupole="-2.9464401756e+01 2.5205503279e+00 -1.3926435599e-01 2.5205503279e+00 -3.2914302791e+01 -1.9396180636e-01 -1.3926435599e-01 -1.9396180636e-01 -3.4099234478e+01" polarizability="4.3704742286e+01 3.2536898504e-01 4.1900497822e-02 3.2536898504e-01 4.2739253835e+01 2.2321288832e-01 4.1900497822e-02 2.2321288832e-01 4.2289960316e+01" charge=-1 multiplicity=1 method=wB97M-V basis=def2-svpd config_type=hso4- sample_index=252 temperature=300.0 units=atomic
S         0.1797808912       0.0187837524       0.0108687377  -4.454954383753e-02  -1.654421699926e-02  -2.884655262284e-02
O        -1.5685260153       0.0698174931      -0.0213768820   4.214802672377e-02   7.921501019331e-02  -6.363109450719e-04
O         0.4590675793       1.4435627802       0.0071875088   9.051008102539e-03   1.624417054145e-02   1.226703460038e-04
O         0.4875682420      -0.7158982143       1.2276631835   8.237784962543e-03  -9.804458245872e-03   2.186593840613e-02
O         0.4623408100      -0.7276868691      -1.2371729313   7.547996189219e-03   4.273803894128e-03   2.792219027675e-03
H        -1.9503415497      -0.7465511494       0.0341318013  -2.242020724748e-02  -7.337717187451e-02   4.672974773655e-03
6
Properties=species:S:1:pos:R:3:forces:R:3 energy=-6.992851498203e+02 dipole="-5.0638348522e-01 -4.1102844008e-01 4.7943440230e-02" quadrupole="-3.0819670597e+01 2.4974712812e+00 3.5024031510e-01 2.4974712812e+00 -3.2452395979e+01 3.3183334833e-01 3.5024031510e-01 3.3183334833e-01 -3.3903751261e+01" polarizability="4.5860677270e+01 1.1967411448e+00 -1.4540265189e-01 1.1967411448e+00 4.4242432338e+01 -6.5861852437e-01 -1.4540265189e-01 -6.5861852437e-01 4.1559541578e+01" charge=-1 multiplicity=1 method=wB97M-V basis=def2-svpd config_type=hso4- sample_index=253 temperature=300.0 units=atomic
S         0.1711497202       0.0420018397       0.0200140504  -4.378809145451e-02  -1.558170001271e-02  -4.919608700370e-03
O        -1.6244617426       0.0654722194       0.0163156806   2.179372167899e-02  -6.296240952417e-02  -3.975825596572e-03
O         0.4975350418       1.4495080798      -0.0667929558   4.153435837768e-03   2.504439496773e-02   1.646803103065e-02
O         0.4711681646      -0.7796130209       1.1902487378   4.574833335014e-03   7.786980673339e-03   3.045475126305e-02
O         0.5028950877      -0.6980557036      -1.1768186558   5.599919030191e-03  -1.885712478153e-02  -4.294863577989e-02
H        -1.7897364601      -0.9719873650      -0.0572869479   7.668722777859e-03   6.457254074703e-02   4.983149692595e-03
6
Properties=species:S:1:pos:R:3:forces:R:3 energy=-6.992954894104e+02 dipole="-9.5810189789e-01 -6.3838690693e-01 -1.1331697367e-01" quadrupole="-2.9095873802e+01 2.3974580775e+00 1.5478526386e-01 2.3974580775e+00 -3.3694101194e+01 2.1460356440e-01 1.5478526386e-01 2.1460356440e-01 -3.4533267111e+01" polarizability="4.3146817311e+01 1.1962667805e+00 -6.9475817618e-02 1.1962667805e+00 4.5925093184e+01 -1.7758128598e-01 -6.9475817618e-02 -1.7758128598e-01 4.3594469581e+01" charge=-1 multiplicity=1 method=wB97M-V basis=def2-svpd config_type=hso4- sample_index=254 temperature=300.0 units=atomic
S         0.1499689563       0.0021237121      -0.0118519176   9.565249849004e-03   4.017228505973e-02   2.498421984277e-02
O        -1.5077952605       0.0800954180       0.0254610833  -2.100358971652e-02  -1.868426260702e-02  -7.121065574166e-03
O         0.4595803190       1.5023592539      -0.0069599603  -3.439615268067e-03  -5.452585741600e-02  -7.777625114248e-04
O         0.4556677702      -0.7416995561       1.2589128852   3.156245873670e-03   1.201463417672e-02  -2.192315016267e-02
O         0.4864284616      -0.7317182273      -1.2514409853   7.250275241022e-04   2.384156883485e-03   2.921967988495e-03
H        -1.8574355028      -0.8420318018      -0.0393505274   1.100126370681e-02   1.868530914096e-02   1.921685229192e-03
6
Properties=species:S:1:pos:R:3:forces:R:3 energy=-6.992969453468e+02 dipole="-8.0150035035e-01 -4.0220324578e-01 -1.2701271424e-01" quadrupole="-2.9740197022e+01 2.6772817066e+00 1.2549413944e-02 2.6772817066e+00 -3.3074863959e+01 1.8368175738e-01 1.2549413944e-02 1.8368175738e-01 -3.4557601118e+01" polarizability="4.4848758706e+01 7.6452531728e-02 7.9053145353e-02 7.6452531728e-02 4.3923768743e+01 -2.1358041636e-01 7.9053145353e-02 -2.1358041636e-01 4.3893373794e+01" charge=-1 multiplicity=1 method=wB97M-V basis=def2-svpd config_type=hso4- sample_index=255 temperature=300.0 units=atomic
S         0.1540834500       0.0186502374      -0.0140741153  -7.690357398527e-03  -3.552330872804e-02   3.068163219529e-02
O        -1.5811725056       0.1040285724       0.0136814682   2.402596553478e-02   1.031817306355e-02  -3.207446379145e-03
O         0.4527912620       1.4419485482       0.0010004776   8.104711327127e-03   1.470838486429e-02  -2.076283222479e-03
O         0.5015066184      -0.7392098285       1.2633837248  -1.126294931246e-02   2.001758820307e-02  -3.544296356771e-02
O         0.5139436424      -0.7329393978      -1.2487272821  -8.256718812299e-03   8.146949200357e-03   1.020084815254e-02
H        -1.8782689143      -0.7964812498      -0.0201950880  -4.926375647902e-03  -1.770445185115e-02  -1.615571183505e-04
6
Properties=species:S:1:pos:R:3:forces:R:3 energy=-6.992913428469e+02 dipole="-8.0476119140e-01 -6.9237012845e-01 -1.3652183982e-01" quadrupole="-3.0221773643e+01 2.2253231175e+00 4.3842623482e-02 2.2253231175e+00 -3.3192531935e+01 3.6072860731e-01 4.3842623482e-02 3.6072860731e-01 -3.4154604877e+01" polarizability="4.5782529539e+01 1.6701200271e+00 1.5924661555e-01 1.6701200271e+00 4.5644658085e+01 -6.4170677738e-01 1.5924661555e-01 -6.4170677738e-01 4.2714413672e+01" charge=-1 multiplicity=1 method=wB97M-V basis=def2-svpd config_type=hso4- sample_index=256 temperature=300.0 units=atomic
S         0.1419315811       0.0053857545      -0.0084346038  -1.872266532663e-04   6.430304046321e-02   5.111601671838e-02
O        -1.6077384789       0.0586552835       0.0123888769   1.585118070720e-02  -4.244059424166e-02  -4.490666457187e-03
O         0.5262427569       1.4866464138      -0.0247212511  -1.950976699059e-02  -4.967128388138e-02   4.920262277420e-03
O         0.4889389052      -0.7412921427       1.2404166312  -8.234046400992e-03   1.130322231541e-02  -1.219533386353e-02
O         0.5011485086      -0.6963941367      -1.2094001898   3.981930703518e-03  -2.509840766176e-02  -4.187895405794e-02
H        -1.8341317466      -0.9323436802      -0.0333428851   8.060247130536e-03   4.165466015964e-02   2.582335264355e-03
6
Properties=species:S:1:pos:R:3:forces:R:3 energy=-6.992872468774e+02 dipole="-5.9493762346e-01 -3.0406550805e-01 1.4916935920e-01" quadrupole="-3.0654195922e+01 2.4648052898e+00 2.5639847843e-01 2.4648052898e+00 -3.2474821495e+01 -1.3870771201e-01 2.5639847843e-01 -1.3870771201e-01 -3.3824216702e+01" polarizability="4.3652341638e+01 2.4839323771e-01 -3.5576228187e-01 2.4839323771e-01 4.2239974981e+01 2.6122990546e-01 -3.5576228187e-01 2.6122990546e-01 4.0667530361e+01" charge=-1 multiplicity=1 method=wB97M-V basis=def2-svpd config_type=hso4- sample_index=257 temperature=300.0 units=atomic
S         0.1526286123       0.0467611475       0.0166735605  -3.388490777904e-02  -4.214599794631e-02  -5.566411956815e-02
O        -1.5954285300       0.0884917883       0.0081094258   2.704652806864e-02  -2.396981677577e-02   1.820244459231e-04
O         0.4715366603       1.4252364919      -0.0142136813   1.695005863102e-02   6.837076174480e-02   3.796073992966e-03
O         0.4900754488      -0.7451350224       1.1532780594   9.334725354167e-03  -2.225626882039e-02   7.210335734807e-02
O         0.5107666411      -0.7453707550      -1.1797394430  -6.579064800659e-03   6.741740900335e-03  -2.032328153143e-02
H        -1.6802243029      -0.8890894925      -0.0146854283  -1.282923858115e-02   1.321345953771e-02  -1.020009280354e-04
6
Properties=species:S:1:pos:R:3:forces:R:3 energy=-6.992843796036e+02 dipole="-1.2285260120e+00 -6.0541458837e-01 -3.8530136676e-02" quadrupole="-2.7968498014e+01 2.5362579342e+00 -1.5280479460e-01 2.5362579342e+00 -3.3697327347e+01 2.4496631153e-01 -1.5280479460e-01 2.4496631153e-01 -3.4460806213e+01" polarizability="4.3498777236e+01 2.3197982857e+00 2.6562632568e-01 2.3197982857e+00 4.5801372101e+01 -7.6540303666e-01 2.6562632568e-01 -7.6540303666e-01 4.2401361240e+01" charge=-1 multiplicity=1 method=wB97M-V basis=def2-svpd config_type=hso4- sample_index=258 temperature=300.0 units=atomic
S         0.1245935081       0.0179138409       0.0058430233   3.194917623897e-02   3.006993149019e-02   3.162703346834e-02
O        -1.4977985796       0.0309510719      -0.0181365659  -6.521248408956e-02  -1.070255960313e-02   5.402366624065e-03
O         0.5126104833       1.5012109794      -0.0289408154  -2.172381278123e-02  -5.258593349945e-02   8.731276421699e-03
O         0.4833266670      -0.7553038932       1.2359861461  -3.845889832954e-03   1.743698709759e-02  -5.851691171017e-03
O         0.4579623780      -0.7007291112      -1.2011073465   1.481116449116e-02  -1.876707861772e-02  -3.967077598804e-02
H        -2.0447780963      -0.8317432355       0.0059103740   4.402807326495e-02   3.459997210123e-02  -1.809483348591e-04
6
Properties=species:S:1:pos:R:3:forces:R:3 energy=-6.992880997270e+02 dipole="-1.2581943125e+00 -7.6805434440e-01 1.3013771125e-01" quadrupole="-2.8768313303e+01 2.5202020979e+00 -3.7453642549e-01 2.5202020979e+00 -3.4094175049e+01 -3.3773467289e-01 -3.7453642549e-01 -3.3773467289e-01 -3.4385050294e+01" polarizability="4.5222734364e+01 4.6501529829e-01 2.3500541045e-01 4.6501529829e-01 4.5485290374e+01 2.8374742586e-01 2.3500541045e-01 2.8374742586e-01 4.3733917009e+01" charge=-1 multiplicity=1 method=wB97M-V basis=def2-svpd config_type=hso4- sample_index=259 temperature=300.0 units=atomic
S         0.0986733847      -0.0323617374       0.0116156942   5.927953834110e-02   7.315242471360e-02  -2.440272324603e-02
O        -1.5643762325       0.1455571529      -0.0419887071  -2.181729651575e-03  -2.063985214689e-02   7.929047740649e-03
O         0.4566214052       1.4676438086       0.0246634532  -1.454778540948e-02  -5.178527000889e-02  -3.218443992950e-03
O         0.5826121400      -0.7053684436       1.2371757644  -2.371234578099e-02  -9.192683255614e-03   6.976006896089e-04
O         0.5281574110      -0.7352595958      -1.2471149111  -2.165239358733e-02   5.219466181089e-03   2.063280142545e-02
H        -1.9677573829      -0.7318290788       0.0711232742   2.821331899417e-03   3.187377157273e-03  -1.640788687657e-03
6
Properties=species:S:1:pos:R:3:forces:R:3 energy=-6.992826564305e+02 dipole="-1.0956201926e+00 -1.7174477706e-01 1.4788551774e-01" quadrupole="-2.9314875855e+01 2.4603948536e+00 4.3758093846e-01 2.4603948536e+00 -3.3119675247e+01 1.4772238782e-01 4.3758093846e-01 1.4772238782e-01 -3.4898127739e+01" polarizability="4.2312127779e+01 8.8459854126e-01 -3.9124709832e-01 8.8459854126e-01 4.4589455803e+01 -4.2796910332e-01 -3.9124709832e-01 -4.2796910332e-01 4.3580339242e+01" charge=-1 multiplicity=1 method=wB97M-V basis=def2-svpd config_type=hso4- sample_index=260 temperature=300.0 units=atomic
S         0.1136142582       0.0734318376       0.0281350922   4.847444612876e-02  -8.140163596636e-02  -3.830781762259e-02
O        -1.5199342174       0.0051969297       0.0171988465   4.663626526028e-03   1.131235628507e-01   8.217569041463e-03
O         0.5367928203       1.4798491042      -0.0608341433  -1.625358298193e-02  -3.659324378592e-03   1.612847485791e-02
O         0.4533452407      -0.7902647203       1.2196131766  -3.854913377135e-03   3.459787541088e-02  -5.927943069185e-03
O         0.4913386772      -0.7291621300      -1.2295153260  -1.358345670834e-02   2.824593120136e-02   2.716695903672e-02
H        -1.7859905426      -0.8442313456      -0.0524658714  -1.936304266448e-02  -9.094663427391e-02  -7.258927026438e-03
6
Properties=species:S:1:pos:R:3:forces:R:3 energy=-6.992890686484e+02 dipole="-8.9971433876e-01 -3.9662116690e-01 -3.3651265277e-02" quadrupole="-2.9004619729e+01 2.7106912944e+00 -2.4833240103e-01 2.7106912944e+00 -3.3236969454e+01 8.2565193836e-03 -2.4833240103e-01 8.2565193836e-03 -3.5084687032e+01" polarizability="4.4824649136e+01 1.4909682166e+00 2.6030401767e-01 1.4909682166e+00 4.6233048367e+01 -1.9049080639e-01 2.6030401767e-01 -1.9049080639e-01 4.5474413275e+01" charge=-1 multiplicity=1 method=wB97M-V basis=def2-svpd config_type=hso4- sample_index=261 temperature=300.0 units=atomic
S         0.1655478128       0.0319252846      -0.0037384998  -7.890573477017e-03  -4.183046430997e-02   1.479968206480e-02
O        -1.5283614826       0.0450876476      -0.0191255544  -2.580213502614e-02  -2.103809788675e-02   4.713872090532e-03
O         0.4814751371       1.4867823845       0.0086292086  -2.556971408457e-03  -2.545382367885e-02  -1.770842101971e-03
O         0.4734889033      -0.7413577451       1.2962241099  -3.199487669655e-03   2.939649089657e-02  -4.788006984062e-02
O         0.4434134785      -0.7398013287      -1.2798656557   6.093965907481e-03   2.184579712132e-02   3.195662043169e-02
H        -1.9676660075      -0.8718329307       0.0283509339   3.337405310396e-02   3.709446318283e-02  -1.837330581532e-03
6
Properties=species:S:1:pos:R:3:forces:R:3 energy=-6.992869926563e+02 dipole="-1.1793112120e+00 -2.6984693423e-01 -7.7209708759e-02" quadrupole="-2.9589673166e+01 2.7854561180e+00 -4.1061502605e-01 2.7854561180e+00 -3.3142017222e+01 -2.7793801032e-01 -4.1061502605e-01 -2.7793801032e-01 -3.4999227079e+01" polarizability="4.4491642890e+01 1.2941323444e-01 2.9686979971e-01 1.2941323444e-01 4.4563916622e+01 5.7596981253e-01 2.9686979971e-01 5.7596981253e-01 4.4512534735e+01" charge=-1 multiplicity=1 method=wB97M-V basis=def2-svpd config_type=hso4- sample_index=262 temperature=300.0 units=atomic
S         0.0944412351       0.0388923179      -0.0216372315   6.303257751957e-02  -7.392407507807e-02   1.905873048007e-02
O        -1.5707651044       0.1052879971      -0.0201497133  -3.672867364841e-04  -3.274852838041e-02   2.060761768844e-03
O         0.4864806002       1.4266797254       0.0663595616  -1.674163996731e-03   3.327204758939e-02  -1.575569130972e-02
O         0.5615450813      -0.7090231940       1.2407394145  -3.278358109082e-02   1.474441255503e-02  -3.271398936320e-02
O         0.5231675548      -0.7854958088      -1.2468982610  -2.795018120325e-02   3.519685907323e-02   2.994684730658e-02
H        -1.7941524553      -0.8599834788       0.0613707236  -2.251730090497e-04   2.337943564767e-02  -2.540364713381e-03
6
Properties=species:S:1:pos:R:3:forces:R:3 energy=-6.992893142321e+02 dipole="-1.0097646279e+00 -3.5526873199e-01 1.2848825905e-01" quadrupole="-2.9394692556e+01 2.7128163553e+00 2.9358078687e-01 2.7128163553e+00 -3.2973460603e+01 7.8845302002e-02 2.9358078687e-01 7.8845302002e-02 -3.4644673928e+01" polarizability="4.3115359904e+01 1.6264169799e+00 -2.3267200222e-01 1.6264169799e+00 4.5524415122e+01 -2.3374933750e-01 -2.3267200222e-01 -2.3374933750e-01 4.2694158088e+01" charge=-1 multiplicity=1 method=wB97M-V basis=def2-svpd config_type=hso4- sample_index=263 temperature=300.0 units=atomic
S         0.1301867539       0.0547812511       0.0227348434   2.195872743040e-02  -4.367322847146e-02  -3.453266946609e-02
O        -1.5198954674       0.0428565664       0.0077609422  -3.582350847756e-02  -4.983727864572e-02  -7.486815233002e-04
O         0.5045855768       1.4791140819      -0.0438032779  -7.752522807098e-03  -6.298659353067e-03   1.221294534785e-02
O         0.4615569981      -0.7772509107       1.2042118846   2.163521349540e-03   1.805828303909e-02   1.319484933730e-02
O         0.4834388924      -0.7332647901      -1.2120489825  -4.387715117296e-03   1.701062639077e-02   7.290148225284e-03
H        -1.8063524764      -0.9729325281      -0.0313455641   2.389427708743e-02   6.472206629800e-02   2.593782777294e-03
6
Properties=species:S:1:pos:R:3:forces:R:3 energy=-6.992943821143e+02 dipole="-1.0132890065e+00 -4.8198198598e-01 3.6616367159e-02" quadrupole="-2.9325402248e+01 2.4799460175e+00 5.1710161291e-02 2.4799460175e+00 -3.3395368985e+01 -1.7185863268e-01 5.1710161291e-02 -1.7185863268e-01 -3.5046493424e+01" polarizability="4.3524696698e+01 5.7104395871e-01 -1.8819735193e-01 5.7104395871e-01 4.5027069584e+01 5.0896038092e-01 -1.8819735193e-01 5.0896038092e-01 4.5311244562e+01" charge=-1 multiplicity=1 method=wB97M-V basis=def2-svpd config_type=hso4- sample_index=264 temperature=300.0 units=atomic
S         0.1357466725       0.0092309027      -0.0017515807   2.933346405747e-02  -8.618437888064e-03  -1.216015785300e-02
O        -1.5271120828       0.0871042473       0.0066181568  -2.406926220331e-03  -7.917081033546e-04  -2.133676273312e-03
O         0.4667473030       1.4606699313       0.0192577071  -2.900493694051e-04  -1.916485110587e-02  -5.240960955688e-03
O         0.4852658176      -0.7092112284       1.2849484445  -8.058174804204e-03   8.568106396242e-03  -3.385690764458e-02
O         0.4952448511      -0.7446134754      -1.3074128878  -1.535723034233e-02   2.622877198606e-02   5.357438071405e-02
H        -1.8172709135      -0.8280849555       0.0034423041  -3.277285813486e-03  -6.197762144042e-03  -2.070573642231e-04
6
Properties=species:S:1:pos:R:3:forces:R:3 energy=-6.992945239223e+02 dipole="-7.9935593615e-01 -3.8021240283e-01 2.8047425889e-01" quadrupole="-2.9725925584e+01 2.3600000309e+00 -6.3404062865e-01 2.3600000309e+00 -3.3017641289e+01 -3.8590523522e-01 -6.3404062865e-01 -3.8590523522e-01 -3.4533769709e+01" polarizability="4.3765792696e+01 1.0397591051e+00 5.6960609648e-01 1.0397591051e+00 4.4381818932e+01 -1.9951486001e-01 5.6960609648e-01 -1.9951486001e-01 4.3447382357e+01" charge=-1 multiplicity=1 method=wB97M-V basis=def2-svpd config_type=hso4- sample_index=265 temperature=300.0 units=atomic
S         0.1553733164       0.0381388584       0.0371379765  -7.228910738339e-03  -2.987398695058e-02  -4.267383391384e-02
O        -1.5444498665       0.0342510012      -0.0934902035   1.071987735969e-03   1.515671541146e-02   2.113752817426e-02
O         0.5021384996       1.4692602569      -0.0021641736  -2.741150260628e-03  -6.823513433336e-03   8.102746776260e-03
O         0.5207012150      -0.7425049149       1.2519764755  -8.496172710958e-03   1.479016283480e-02  -4.888420547118e-03
O         0.4025153027      -0.7236855355      -1.2379614788   1.582680738491e-02   1.137492438695e-02   1.831835462264e-02
H        -1.8199079577      -0.8599615690       0.1252718121   1.596281132425e-03  -4.649260168697e-03   7.553819582395e-06
6
Properties=species:S:1:pos:R:3:forces:R:3 energy=-6.992884240311e+02 dipole="-9.6243649261e-01 -3.0111457691e-01 -3.2810108990e-01" quadrupole="-3.0069581705e+01 2.1029587842e+00 -1.3841546761e-01 2.1029587842e+00 -3.2871179945e+01 4.7316101180e-01 -1.3841546761e-01 4.7316101180e-01 -3.4793068226e+01" polarizability="4.2230293456e+01 7.3550228258e-01 3.6084859211e-01 7.3550228258e-01 4.3351445656e+01 -6.5661398730e-01 3.6084859211e-01 -6.5661398730e-01 4.3337133931e+01" charge=-1 multiplicity=1 method=wB97M-V basis=def2-svpd config_type=hso4- sample_index=266 temperature=300.0 units=atomic
S         0.1132697708       0.0455933727      -0.0345049814   4.337623800371e-02  -3.436242499567e-02   8.212876141705e-02
O        -1.5348158931       0.0365683503       0.0187822658   2.394896317099e-03   4.018717371672e-02  -5.754019716372e-03
O         0.5254148692       1.4402778376       0.0044447743  -4.820397343047e-03   1.817519198296e-02  -4.922889837646e-03
O         0.4761149052      -0.7370472011       1.2718157126  -1.666503419203e-02   2.899243392367e-02  -4.974378638433e-02
O         0.4847590696      -0.7158109581      -1.2242592821  -3.114659693496e-03  -6.863042867421e-03  -2.143361437880e-02
H        -1.6049024184      -0.8879321277      -0.0298161076  -2.116281353813e-02  -4.611163332744e-02  -2.184915669783e-04
6
Properties=species:S:1:pos:R:3:forces:R:3 energy=-6.992958345842e+02 dipole="-8.8963293932e-01 -4.4257095163e-01 -2.4279931717e-01" quadrupole="-3.0085587499e+01 2.3402487344e+00 -1.9450885349e-01 2.3402487344e+00 -3.2911234571e+01 1.5951627197e-01 -1.9450885349e-01 1.5951627197e-01 -3.4467810915e+01" polarizability="4.3562771745e+01 8.9816482700e-01 2.6317868395e-01 8.9816482700e-01 4.4066306219e+01 -2.0065626860e-02 2.6317868395e-01 -2.0065626860e-02 4.2728105241e+01" charge=-1 multiplicity=1 method=wB97M-V basis=def2-svpd config_type=hso4- sample_index=267 temperature=300.0 units=atomic
S         0.1281009623       0.0300245986      -0.0335103834   1.801985399053e-02  -6.930392596091e-03   6.423417523327e-02
O        -1.5637416939       0.0654754079       0.0117638440   7.672333031447e-03  -3.006636138934e-02  -7.138648519937e-03
O         0.5052034764       1.4483849559       0.0353003016  -4.937090781263e-03   3.071943302153e-03  -1.241867971180e-02
O         0.4932489324      -0.7136766268       1.2385511234  -1.230126235694e-02   1.099308461375e-02  -2.393825362075e-02
O         0.4938146755      -0.7425417592      -1.2183191305  -3.273600646481e-03  -1.768072972126e-03  -2.204339233198e-02
H        -1.7136206100      -0.9179380356      -0.0012796981  -5.170237945117e-03   2.471774879624e-02   1.339060066486e-03
6
Properties=species:S:1:pos:R:3:forces:R:3 energy=-6.992927582285e+02 dipole="-7.2178862745e-01 -6.2394401186e-01 -2.6088578913e-02" quadrupole="-2.9952964554e+01 2.2907242527e+00 2.7688005622e-01 2.2907242527e+00 -3.2882684748e+01 -2.3434825118e-02 2.7688005622e-01 -2.3434825118e-02 -3.3979278598e+01" polarizability="4.2963002738e+01 1.2378878555e+00 -3.5258495748e-01 1.2378878555e+00 4.3740217035e+01 4.6155592945e-01 -3.5258495748e-01 4.6155592945e-01 4.1273105283e+01" charge=-1 multiplicity=1 method=wB97M-V basis=def2-svpd config_type=hso4- sample_index=268 temperature=300.0 units=atomic
S         0.1566869323       0.0081352754      -0.0093680512  -2.383730685447e-02   4.997523371395e-02  -1.793379311645e-02
O        -1.5425361881       0.0812385019       0.0354494615  -6.148300850487e-03  -6.006577908627e-02  -1.313193724315e-02
O         0.4707501684       1.4504319814       0.0108706717   4.937235326463e-03  -3.560202722653e-03  -5.445817581677e-03
O         0.4488858987      -0.6996878424       1.1982975181   1.886517369142e-02  -3.235564864612e-02   5.190236750000e-02
O         0.4969588661      -0.7297703624      -1.2234779776   1.723641105523e-03  -6.936997940587e-03  -1.994081755825e-02
H        -1.7533204879      -0.9285754561      -0.0398948827   4.447262616485e-03   5.299644160412e-02   4.511323771482e-03
6
Properties=species:S:1:pos:R:3:forces:R:3 energy=-6.992863390726e+02 dipole="-9.7678246508e-01 -7.3462069498e-01 1.3724163931e-01" quadrupole="-2.9603421890e+01 2.2120964927e+00 4.4423674687e-01 2.2120964927e+00 -3.3071169249e+01 -2.5341865774e-01 4.4423674687e-01 -2.5341865774e-01 -3.4375876521e+01" polarizability="4.3827943034e+01 2.2004093598e+00 -6.4940184234e-01 2.2004093598e+00 4.5227619126e+01 9.0556768171e-01 -6.4940184234e-01 9.0556768171e-01 4.2519064097e+01" charge=-1 multiplicity=1 method=wB97M-V basis=def2-svpd config_type=hso4- sample_index=269 temperature=300.0 units=atomic
S         0.1286162741       0.0008514858       0.0069945338   1.508457124039e-02   6.902205249219e-02  -7.832736282969e-02
O        -1.5458678248       0.0437849642       0.0362283209  -2.106375611358e-02  -6.027619645811e-02  -1.198411264497e-02
O         0.5309106582       1.4660442893       0.0075454546  -1.869845542999e-02  -3.758607775061e-02  -3.014891193742e-03
O         0.4456273600      -0.6735432993       1.2113325196   2.015882526789e-02  -4.449504076329e-02   6.469254708415e-02
O         0.5039424934      -0.7176987048      -1.2667843612  -1.327893380059e-02   9.345245281960e-03   2.410947451586e-02
H        -1.8196434102      -0.9733271636      -0.0386233038   1.772962110463e-02   6.408066127940e-02   4.451780219617e-03
6
Properties=species:S:1:pos:R:3:forces:R:3 energy=-6.992923345277e+02 dipole="-5.9206011201e-01 -3.8177531503e-01 1.2130828985e-01" quadrupole="-2.9820714594e+01 2.4705024579e+00 1.1746015201e-01 2.4705024579e+00 -3.2469085519e+01 -6.9462397426e-02 1.1746015201e-01 -6.9462397426e-02 -3.4488139181e+01" polarizability="4.4486779093e+01 6.7165033012e-01 -1.4734659640e-01 6.7165033012e-01 4.2481581077e+01 9.5186114312e-03 -1.4734659640e-01 9.5186114312e-03 4.3493903277e+01" charge=-1 multiplicity=1 method=wB97M-V basis=def2-svpd config_type=hso4- sample_index=270 temperature=300.0 units=atomic
S         0.1815492507       0.0248806094       0.0168186773  -4.605575909382e-02  -6.066741706531e-02  -3.221890499078e-02
O        -1.5839671049       0.0410648367      -0.0047948105   3.356187430584e-02   5.800990259877e-02   2.610491774955e-03
O         0.4931829118       1.4176527886      -0.0191976681   1.086281756255e-02   4.875747666610e-02   5.907997740706e-03
O         0.4626791751      -0.7070292332       1.2643688885   7.182044436383e-03  -1.372091882777e-03  -1.281237558402e-03
O         0.4639595532      -0.6906813746      -1.2740241230   3.440980242029e-03   3.793970376977e-03   2.487225667078e-02
H        -1.9230064599      -0.8164227671      -0.0016794387  -8.983360857480e-03  -4.851394000090e-02   1.460926301799e-04
6
Properties=species:S:1:pos:R:3:forces:R:3 energy=-6.992823975354e+02 dipole="-6.8503320540e-01 -8.6916078509e-01 -1.5918577071e-01" quadrupole="-3.0618176711e+01 1.7758663017e+00 2.8921739137e-01 1.7758663017e+00 -3.2948336282e+01 3.2154049762e-01 2.8921739137e-01 3.2154049762e-01 -3.3529511906e+01" polarizability="4.4834021278e+01 1.6746796195e+00 -2.1550685895e-01 1.6746796195e+00 4.3499960664e+01 -1.4750666307e-01 -2.1550685895e-01 -1.4750666307e-01 4.0723097210e+01" charge=-1 multiplicity=1 method=wB97M-V basis=def2-svpd config_type=hso4- sample_index=271 temperature=300.0 units=atomic
S         0.1418213931      -0.0170887846      -0.0179214397  -2.269442130385e-02   1.402680637246e-01   4.827270123941e-02
O        -1.6168313939       0.0582897342       0.0445069698   2.854507637620e-02  -3.170689214141e-02  -1.346764715522e-02
O         0.5362586511       1.4528159321      -0.0112587144  -1.830308530685e-02  -3.543021601082e-02  -8.215355207198e-04
O         0.4643624480      -0.6862179494       1.2015335012   9.617454554496e-03  -3.693491301417e-02   5.252717033490e-02
O         0.5197717498      -0.6736429773      -1.1950441411   1.245543276195e-02  -5.680951292195e-02  -9.027254733650e-02
H        -1.7446283708      -0.9176073605      -0.0674697608  -9.708938173403e-03   2.069365795159e-02   3.708294365380e-03
6
Properties=species:S:1:pos:R:3:forces:R:3 energy=-6.992813466172e+02 dipole="-1.1470614371e+00 -4.8778849154e-01 8.8216951173e-02" quadrupole="-2.9319537377e+01 1.9642810666e+00 -2.9092466248e-01 1.9642810666e+00 -3.3168949248e+01 -5.5623618413e-03 -2.9092466248e-01 -5.5623618413e-03 -3.5230764363e+01" polarizability="4.1294153746e+01 9.1821192445e-01 4.3344465487e-01 9.1821192445e-01 4.3483688121e+01 -5.6373691296e-01 4.3344465487e-01 -5.6373691296e-01 4.5065620628e+01" charge=-1 multiplicity=1 method=wB97M-V basis=def2-svpd config_type=hso4- sample_index=272 temperature=300.0 units=atomic
S         0.1068286141       0.0102576042       0.0183174203   7.941022357301e-02   1.570968658472e-03  -5.928719358765e-03
O        -1.4879445019       0.0330086668      -0.0470150694  -1.370968575048e-02   9.133869564772e-02   3.250681846259e-03
O         0.5232751857       1.4348451652      -0.0218055771  -1.050666053014e-02  -8.699799231806e-03   1.000552825919e-02
O         0.4973771832      -0.7114592822       1.3257167734  -2.141000484512e-02   1.740060179441e-02  -5.047242709794e-02
O         0.4365299519      -0.6657493071      -1.2965783128  -8.524753849111e-04  -4.498415412135e-03   3.366439904856e-02
H        -1.6700403262      -0.8332889783       0.0498056174  -3.298942725449e-02  -9.708492194332e-02   9.530063975577e-03
6
Properties=species:S:1:pos:R:3:forces:R:3 energy=-6.992908356483e+02 dipole="-7.2572932843e-01 -8.5695595568e-01 3.2557004961e-02" quadrupole="-2.9267843165e+01 2.2968150690e+00 6.5545964920e-02 2.2968150690e+00 -3.3404867355e+01 -5.6799824604e-02 6.5545964920e-02 -5.6799824604e-02 -3.4013228383e+01" polarizability="4.5252844660e+01 1.1182577096e+00 -1.0757651470e-01 1.1182577096e+00 4.4443740466e+01 1.4681337128e-01 -1.0757651470e-01 1.4681337128e-01 4.2904805751e+01" charge=-1 multiplicity=1 method=wB97M-V basis=def2-svpd config_type=hso4- sample_index=273 temperature=300.0 units=atomic
S         0.1754653079      -0.0398977083       0.0026676342  -3.708559901023e-02   9.998308133307e-02  -1.710539681757e-02
O        -1.5667501909       0.1096736890       0.0033218396   1.991177606524e-03  -2.558759353949e-02  -5.111710530987e-04
O         0.4441534768       1.4577849484       0.0007505365   3.108302550237e-03  -4.179962916755e-02  -1.290808716279e-04
O         0.4844627949      -0.6858261501       1.2542939186   1.079863567738e-02  -2.913760781283e-02   2.446419257637e-02
O         0.4909620720      -0.6923702353      -1.2635230453   5.738398974230e-03  -1.960043025340e-02  -6.792963427245e-03
H        -2.0031183422      -0.7767718710      -0.0029660862   1.537978812234e-02   1.620017698666e-02   5.446494669273e-05
6
Properties=species:S:1:pos:R:3:forces:R:3 energy=-6.992866924204e+02 dipole="-7.7333345880e-01 -5.5778918238e-01 2.7590839766e-01" quadrupole="-3.0136825149e+01 2.1396167838e+00 5.0589226055e-01 2.1396167838e+00 -3.2608474282e+01 -3.3622302288e-01 5.0589226055e-01 -3.3622302288e-01 -3.4473693591e+01" polarizability="4.6219147242e+01 2.1298491090e+00 -8.2262702803e-01 2.1298491090e+00 4.4387030709e+01 8.1968648310e-01 -8.2262702803e-01 8.1968648310e-01 4.3489451614e+01" charge=-1 multiplicity=1 method=wB97M-V basis=def2-svpd config_type=hso4- sample_index=274 temperature=300.0 units=atomic
S         0.1457329654       0.0236578423       0.0275030541  -7.212486170598e-03   2.190287584700e-02  -1.092206961267e-01
O        -1.6223142362      -0.0133292579       0.0216989662   1.842378972319e-02   1.681711104324e-02  -9.891879245284e-04
O         0.5901445491       1.4520914672      -0.0125530972  -2.458358074741e-02  -2.084620507507e-02   5.156066024927e-03
O         0.4462378988      -0.6724305838       1.2254937668   1.657245636775e-02  -3.696284028845e-02   6.013795964556e-02
O         0.4933876385      -0.6969012869      -1.2880878625  -1.460803285776e-02   1.744409905614e-02   4.551687753265e-02
H        -1.9238308686      -0.9325290767      -0.0277330785   1.137352591825e-02   1.758409669606e-03  -6.505599888453e-04
6
Properties=species:S:1:pos:R:3:forces:R:3 energy=-6.992564539214e+02 dipole="-7.1520567071e-01 -4.3936462784e-01 -4.9116768229e-01" quadrupole="-3.0306040353e+01 1.9626623631e+00 -1.8631731688e-01 1.9626623631e+00 -3.3797614525e+01 6.0273712698e-01 -1.8631731688e-01 6.0273712698e-01 -3.4311077029e+01" polarizability="4.3468642596e+01 5.9572329927e-01 3.7819955340e-01 5.9572329927e-01 4.6407775412e+01 -7.8073338251e-01 3.7819955340e-01 -7.8073338251e-01 4.3843378138e+01" charge=-1 multiplicity=1 method=wB97M-V basis=def2-svpd config_type=hso4- sample_index=275 temperature=300.0 units=atomic
S         0.1573133643       0.0351722845      -0.0592434657   1.125893186642e-03   3.987590594473e-02   1.295482772656e-01
O        -1.5470431464       0.0455737300       0.0361058402   4.456090962527e-02   2.075758397804e-01   5.406353032296e-03
O         0.4874843063       1.5466495686       0.0255528445  -1.007735938044e-02  -7.129853502633e-02  -1.561844643627e-02
O         0.4518199563      -0.7782496370       1.2636366582  -4.237143949969e-03   4.162762985140e-02  -5.643290043298e-02
O         0.4734480132      -0.7752082018      -1.2040428556   9.760750925415e-03  -6.730721284105e-03  -4.551786100527e-02
H        -1.6504450180      -0.7789896150      -0.0446819281  -4.109576623297e-02  -2.110110259646e-01  -1.737117352422e-02
6
Properties=species:S:1:pos:R:3:forces:R:3 energy=-6.992906864315e+02 dipole="-4.8355299156e-01 -3.3548970627e-01 9.4182249382e-02" quadrupole="-3.0614786651e+01 2.1950065267e+00 -3.7580127231e-01 2.1950065267e+00 -3.2799617678e+01 -7.9938001048e-02 -3.7580127231e-01 -7.9938001048e-02 -3.4048164827e+01" polarizability="4.4036849470e+01 1.0872754511e+00 4.4202679950e-01 1.0872754511e+00 4.4412031234e+01 -3.6562625418e-01 4.4202679950e-01 -3.6562625418e-01 4.2135556760e+01" charge=-1 multiplicity=1 method=wB97M-V basis=def2-svpd config_type=hso4- sample_index=276 temperature=300.0 units=atomic
S         0.1825233898       0.0572699171       0.0167293182  -4.058103405306e-02  -1.835980731032e-02  -3.141017225377e-03
O        -1.5733684526       0.0168427503      -0.0513798086   2.355529038286e-02   5.386953435776e-02   7.978986870189e-03
O         0.5070878229       1.4990511464      -0.0088410596  -1.129207086329e-03  -1.723462760597e-02   5.610531618461e-03
O         0.4769001380      -0.7713943079       1.2106734743   4.408348259062e-03   1.975578024363e-02   1.053916372050e-02
O         0.4094146607      -0.7434726274      -1.1876607372   2.199935086482e-02   2.751333079223e-03  -2.532356273060e-02
H        -1.7207261606      -0.8929269488       0.0630312881  -8.293130835413e-03  -4.085392831257e-02   4.395721269894e-03
6
Properties=species:S:1:pos:R:3:forces:R:3 energy=-6.992897296005e+02 dipole="-9.7725014695e-01 -5.7073632704e-01 2.3917863400e-01" quadrupole="-2.8873486801e+01 2.3245768847e+00 2.0458792881e-01 2.3245768847e+00 -3.3097930758e+01 -3.7921038002e-01 2.0458792881e-01 -3.7921038002e-01 -3.4050255552e+01" polarizability="4.0269636810e+01 1.0718993570e+00 -3.6525031108e-01 1.0718993570e+00 4.2478947306e+01 6.4315232905e-01 -3.6525031108e-01 6.4315232905e-01 4.0515322066e+01" charge=-1 multiplicity=1 method=wB97M-V basis=def2-svpd config_type=hso4- sample_index=277 temperature=300.0 units=atomic
S         0.1374989423       0.0146976926       0.0216730278   3.813664969664e-03   4.427299793054e-02  -9.875596852780e-02
O        -1.4714181579       0.0631993920      -0.0014368216  -4.163314871570e-02   9.582383945403e-03   1.422673829736e-03
O         0.4669570889       1.4453999916       0.0016577654   4.945290826464e-03   5.974932928162e-03   1.716885419522e-03
O         0.4541960627      -0.6987642244       1.1802260913   2.977099888290e-02  -5.488112800790e-02   9.906699023337e-02
O         0.4644431817      -0.7263299430      -1.2242869491   4.200274274939e-03   1.356072643805e-03  -2.747947320259e-03
H        -1.7843211471      -0.8425795093       0.0085998104  -1.104140668691e-03  -6.280849810800e-03  -7.166981051853e-04
6
Properties=species:S:1:pos:R:3:forces:R:3 energy=-6.992932200505e+02 dipole="-9.7736036273e-01 -5.8550375204e-01 -5.8372102748e-03" quadrupole="-2.9614620754e+01 2.0065409414e+00 -3.9488070499e-01 2.0065409414e+00 -3.3061354267e+01 -1.9702323172e-01 -3.9488070499e-01 -1.9702323172e-01 -3.4211708193e+01" polarizability="4.0779062304e+01 7.4069019744e-01 3.7975711277e-01 7.4069019744e-01 4.2279716737e+01 1.1410686382e-01 3.7975711277e-01 1.1410686382e-01 4.1427208292e+01" charge=-1 multiplicity=1 method=wB97M-V basis=def2-svpd config_type=hso4- sample_index=278 temperature=300.0 units=atomic
S         0.1179806565       0.0057424045      -0.0048381664   3.812093094874e-02   4.234573991442e-02   1.263055072421e-02
O        -1.5051844933       0.0706832663      -0.0359651855  -1.264810258354e-02   2.141979557348e-02   3.805647118370e-03
O         0.4891981315       1.4289986903       0.0341276097  -2.160563239189e-04   7.190380244278e-03  -7.592337570737e-03
O         0.5073437691      -0.6837237320       1.2322406252  -6.890406120690e-03  -1.748692357113e-02   1.200491141175e-02
O         0.4530755222      -0.7143383847      -1.2243592287   6.233790740964e-03  -1.667151153815e-02  -2.376200817184e-02
H        -1.6404210982      -0.8483033614       0.0652117037  -2.465074582791e-02  -3.678137777677e-02   2.926855858934e-03
6
Properties=species:S:1:pos:R:3:forces:R:3 energy=-6.992775555534e+02 dipole="-1.1548044606e+00 -4.6233772317e-01 3.4400442043e-01" quadrupole="-2.8707230968e+01 2.7212940334e+00 7.9953639445e-03 2.7212940334e+00 -3.2662083522e+01 -3.9566218911e-01 7.9953639445e-03 -3.9566218911e-01 -3.4068330813e+01" polarizability="4.2168924807e+01 1.6994107028e+00 -2.3412695124e-01 1.6994107028e+00 4.2465720077e+01 2.1083431843e-01 -2.3412695124e-01 2.1083431843e-01 4.0118419986e+01" charge=-1 multiplicity=1 method=wB97M-V basis=def2-svpd config_type=hso4- sample_index=279 temperature=300.0 units=atomic
S         0.1068422222       0.0329140693       0.0404074678   1.030303356323e-02  -7.433276125090e-03  -1.036876288147e-01
O        -1.5217414981       0.0573719764      -0.0352538472  -5.278779386198e-02  -4.537240433445e-02   1.499929787807e-02
O         0.5098343236       1.4069116765      -0.0194165696  -1.865821117591e-03   5.485387119724e-02   9.523160939661e-03
O         0.5127097873      -0.7103832867       1.1523290555   1.583011674074e-02  -5.024522362006e-02   1.095382010708e-01
O         0.4820281304      -0.7023186365      -1.1810767381  -2.541152059890e-03  -9.084942311993e-03  -2.527619262959e-02
H        -1.9065111053      -0.9132080654       0.0424933426   3.103918355609e-02   5.728085248058e-02  -5.193552358942e-03
6
Properties=species:S:1:pos:R:3:forces:R:3 energy=-6.992879950314e+02 dipole="-7.5741182523e-01 -3.0231801799e-01 -2.6184146721e-01" quadrupole="-2.9624708733e+01 2.7416741583e+00 -7.7523932910e-01 2.7416741583e+00 -3.2719044572e+01 2.4680470600e-01 -7.7523932910e-01 2.4680470600e-01 -3.4455850108e+01" polarizability="4.3257401740e+01 7.4295189500e-01 9.2535496673e-01 7.4295189500e-01 4.3622044634e+01 -8.1975674606e-01 9.2535496673e-01 -8.1975674606e-01 4.2597276376e+01" charge=-1 multiplicity=1 method=wB97M-V basis=def2-svpd config_type=hso4- sample_index=280 temperature=300.0 units=atomic
S         0.1628667404       0.0436386642      -0.0266736566  -3.030723948549e-02  -5.970066211212e-02   1.002685671538e-01
O        -1.5344974596       0.0729189516      -0.0459641230  -1.381589065080e-02  -3.142017262642e-02   1.066487855052e-02
O         0.4572233777       1.4388672308       0.0266729257   1.665207138828e-02   4.885666098765e-02  -5.785812153876e-03
O         0.5128290081      -0.7486974588       1.2582764503  -1.200409289482e-02   3.087169603226e-02  -3.976158093732e-02
O         0.4308664471      -0.7343198522      -1.1894306846   2.467700673646e-02  -2.495516402703e-02  -6.110634835035e-02
H        -1.8316107979      -0.8849552782       0.0671880562   1.479021734691e-02   3.631054512509e-02  -4.261405720502e-03
6
Properties=species:S:1:pos:R:3:forces:R:3 energy=-6.992823294420e+02 dipole="-9.7536469443e-01 -3.0449183459e-01 2.2313738570e-01" quadrupole="-2.9516245380e+01 2.3577530208e+00 -1.0070518746e-02 2.3577530208e+00 -3.2551113465e+01 2.6925589376e-02 -1.0070518746e-02 2.6925589376e-02 -3.5281542053e+01" polarizability="4.1515398343e+01 1.8401971504e+00 8.4696643336e-02 1.8401971504e+00 4.4853667825e+01 -7.3515389187e-01 8.4696643336e-02 -7.3515389187e-01 4.4209972455e+01" charge=-1 multiplicity=1 method=wB97M-V basis=def2-svpd config_type=hso4- sample_index=281 temperature=300.0 units=atomic
S         0.1354326583       0.0590667198       0.0401937140   3.203594413966e-02  -7.094595554902e-02  -3.703063294614e-02
O        -1.4623371188      -0.0075238052      -0.0406595686  -6.001008034834e-02  -3.891705786477e-02   1.922710648566e-02
O         0.5300865273       1.4560265235      -0.0593870364  -1.411943253141e-03   1.682990910915e-02   1.908035033450e-02
O         0.4421531695      -0.7624254684       1.2811132019   1.143136065362e-03   2.959078002892e-02  -2.344311414445e-02
O         0.4009728958      -0.6815868825      -1.2631959269   1.686905467108e-02   5.843533583988e-03   2.646784576556e-02
H        -1.6576733209      -1.0260764884       0.0239206862   1.143659112832e-02   5.758350853266e-02  -4.256636991900e-03
6
Properties=species:S:1:pos:R:3:forces:R:3 energy=-6.992817817462e+02 dipole="-1.2455178848e+00 -7.4568066510e-01 -3.3373576557e-01" quadrupole="-2.8971949408e+01 2.4304477582e+00 -2.0042414836e-01 2.4304477582e+00 -3.4040394384e+01 5.1315580243e-01 -2.0042414836e-01 5.1315580243e-01 -3.4218337967e+01" polarizability="4.4717661280e+01 5.8011741571e-01 5.4934538091e-01 5.8011741571e-01 4.5378960658e+01 -8.2688990306e-01 5.4934538091e-01 -8.2688990306e-01 4.2941619740e+01" charge=-1 multiplicity=1 method=wB97M-V basis=def2-svpd config_type=hso4- sample_index=282 temperature=300.0 units=atomic
S         0.0936668778      -0.0179364138      -0.0345882976   5.229204132304e-02   8.583691832176e-02   1.098476013743e-01
O        -1.5754761223       0.1159372071       0.0099124402   1.576875605419e-02   2.000430463785e-02  -4.375918282038e-03
O         0.4886221167       1.4813357545       0.0039910483  -2.409469193529e-02  -5.774132162412e-02  -5.709824533375e-03
O         0.5510068237      -0.7402496841       1.2445912502  -3.200138140506e-02   1.751723062041e-02  -3.477719624807e-02
O         0.5463787818      -0.7125373301      -1.1881797368  -9.665324480324e-04  -3.509370293187e-02  -6.490139047920e-02
H        -1.9315550940      -0.7514074284      -0.0190461410  -1.102201201782e-02  -3.056434516191e-02  -9.906409812854e-06
6
Properties=species:S:1:pos:R:3:forces:R:3 energy=-6.992792354913e+02 dipole="-9.5045720213e-01 -5.8805055791e-01 1.1951150679e-01" quadrupole="-2.8868274626e+01 2.4974025448e+00 -7.6914764413e-01 2.4974025448e+00 -3.2806324089e+01 -6.7774658131e-01 -7.6914764413e-01 -6.7774658131e-01 -3.4485721841e+01" polarizability="4.2228458986e+01 1.9639284140e+00 2.8354725296e-01 1.9639284140e+00 4.3621204640e+01 6.2423443676e-01 2.8354725296e-01 6.2423443676e-01 4.2288177787e+01" charge=-1 multiplicity=1 method=wB97M-V basis=def2-svpd config_type=hso4- sample_index=283 temperature=300.0 units=atomic
S         0.1485555324       0.0026264378      -0.0015765923  -4.884425544865e-03   1.401014814209e-03  -2.598931093121e-02
O        -1.4764074471       0.0736909539      -0.0732754884  -6.723164747309e-02  -7.484392719317e-02   2.869002188252e-02
O         0.4604925128       1.4127345568       0.0851064190   1.366024387709e-02   3.776133164320e-02  -1.871207951461e-02
O         0.5091522882      -0.6373643715       1.2427665947   7.361459932386e-03  -4.011653546920e-02   3.114859557637e-02
O         0.4041903280      -0.7364520488      -1.2594623800   1.881456222266e-02  -4.099734825527e-04   3.093686403790e-03
H        -1.8579493497      -0.9260426802       0.1449078690   3.225305244148e-02   7.621397294169e-02  -1.830805497367e-02
6
Properties=species:S:1:pos:R:3:forces:R:3 energy=-6.992832590836e+02 dipole="-7.1049996951e-01 -5.3786208201e-01 7.3012227752e-02" quadrupole="-2.9981942132e+01 2.2867769941e+00 3.9553503088e-01 2.2867769941e+00 -3.3591991250e+01 -1.4035768181e-01 3.9553503088e-01 -1.4035768181e-01 -3.3748904698e+01" polarizability="4.2725977042e+01 -3.8585686372e-02 -5.5275737193e-01 -3.8585686372e-02 4.4081081068e+01 5.8601409427e-01 -5.5275737193e-01 5.8601409427e-01 4.1330688634e+01" charge=-1 multiplicity=1 method=wB97M-V basis=def2-svpd config_type=hso4- sample_index=284 temperature=300.0 units=atomic
S         0.1569560782       0.0163325923       0.0027137638  -1.432714947135e-02   5.864847196381e-02  -4.979926342412e-02
O        -1.5510631726       0.1091963369       0.0336890546   3.769373549547e-02   9.658179279660e-02   2.166060817327e-03
O         0.4334728481       1.4986426273       0.0021636737   5.800779693959e-03  -3.853759180718e-02  -1.369576117467e-03
O         0.4682636869      -0.7517566674       1.1644083101   1.515434695008e-02  -2.221793099792e-02   6.278699307265e-02
O         0.5200591861      -0.7799478438      -1.2033286458  -8.578575771147e-03   1.765665830911e-02  -4.802202798949e-03
H        -1.7237300964      -0.7522465055      -0.0399909183  -3.568226130332e-02  -1.121242122745e-01  -9.001727221060e-03
6
Properties=species:S:1:pos:R:3:forces:R:3 energy=-6.992974955882e+02 dipole="-7.7474449735e-01 -4.9890273758e-01 -1.5993321294e-02" quadrupole="-3.0274426641e+01 2.0058326551e+00 9.5432807978e-02 2.0058326551e+00 -3.2592104670e+01 -1.0186074360e-01 9.5432807978e-02 -1.0186074360e-01 -3.4560492305e+01" polarizability="4.3996150571e+01 1.6014738911e+00 -1.9991490447e-01 1.6014738911e+00 4.3574877204e+01 4.4893483785e-01 -1.9991490447e-01 4.4893483785e-01 4.3206755650e+01" charge=-1 multiplicity=1 method=wB97M-V basis=def2-svpd config_type=hso4- sample_index=285 temperature=300.0 units=atomic
S         0.1424993414       0.0276317031      -0.0086835120   2.430002018442e-03  -7.442160870733e-04  -7.703794355973e-03
O        -1.5799565522       0.0013904544       0.0167455876   1.762706319478e-02   2.587170099704e-02  -4.555367122309e-03
O         0.5627223097       1.4454352667       0.0217254150  -1.437921910153e-02  -6.110469061340e-03  -7.405226928144e-03
O         0.4494498362      -0.6736552192       1.2498120461   4.348630993629e-03  -1.097661542773e-02   2.303729981644e-03
O         0.4707125243      -0.7115209085      -1.2702348294  -5.269731156067e-03   9.030239080328e-03   1.777975832817e-02
H        -1.7503431744      -0.9322714497      -0.0094888239  -4.774455737437e-03  -1.697880285447e-02  -4.522124279926e-04
6
Properties=species:S:1:pos:R:3:forces:R:3 energy=-6.992695569401e+02 dipole="-5.1016148737e-01 -1.6817711205e-01 2.8292790571e-01" quadrupole="-3.0814735600e+01 2.3401808491e+00 5.8578872035e-01 2.3401808491e+00 -3.1732143323e+01 -4.3709995440e-01 5.8578872035e-01 -4.3709995440e-01 -3.4113297668e+01" polarizability="4.4469952908e+01 7.2210547613e-01 -9.7728725046e-01 7.2210547613e-01 4.0742906515e+01 1.0384317676e+00 -9.7728725046e-01 1.0384317676e+00 4.1257864640e+01" charge=-1 multiplicity=1 method=wB97M-V basis=def2-svpd config_type=hso4- sample_index=286 temperature=300.0 units=atomic
S         0.1587647275       0.0647755402       0.0212170359  -6.495136612454e-02  -1.225880488367e-01  -1.274725886451e-01
O        -1.6239368815       0.0126622433       0.0321241754   3.362505772150e-02   5.104171293964e-02  -1.653401277926e-03
O         0.5437156479       1.3794931476       0.0055064150   2.716495275982e-02   1.490987742606e-01  -2.940454611714e-03
O         0.4451951229      -0.6754597455       1.1615824870   2.624720542879e-02  -6.238130496576e-02   1.114355308141e-01
O         0.5053481747      -0.7303044592      -1.2397939340  -1.463494126466e-02   2.475163530835e-02   2.407376323215e-02
H        -1.7540949112      -0.9055986567      -0.0310079761  -7.438086778735e-03  -3.989773398170e-02  -3.471322114688e-03
6
Properties=species:S:1:pos:R:3:forces:R:3 energy=-6.992901574710e+02 dipole="-5.6721144186e-01 -6.3004195524e-01 8.7491687042e-02" quadrupole="-3.0899981465e+01 1.7090183378e+00 -1.0478365596e-01 1.7090183378e+00 -3.2827466520e+01 -2.4808785221e-01 -1.0478365596e-01 -2.4808785221e-01 -3.4309576031e+01" polarizability="4.3836908182e+01 8.7170075045e-01 3.4618870920e-02 8.7170075045e-01 4.3615909070e+01 3.5301014677e-01 3.4618870920e-02 3.5301014677e-01 4.3321719240e+01" charge=-1 multiplicity=1 method=wB97M-V basis=def2-svpd config_type=hso4- sample_index=287 temperature=300.0 units=atomic
S         0.1610564706      -0.0048444416       0.0061745319  -8.602174501228e-03   5.686730695303e-02  -2.770793243903e-02
O        -1.5718885256       0.0702727741      -0.0182432690   3.043196837413e-02  -3.524224728119e-02   5.421997661555e-03
O         0.4925234833       1.4425568618       0.0184848921   4.386277611236e-03  -1.148213907135e-02  -3.427522368286e-03
O         0.4779105085      -0.6793275185       1.2660654139   2.261203892957e-03  -1.938350566194e-02   4.739732363046e-03
O         0.4553438350      -0.7070804539      -1.2806694229   7.935634517837e-04  -9.701150225752e-04   2.251622389656e-02
H        -1.5582734058      -0.9126967964       0.0361125949  -2.930959525461e-02   1.026843952313e-02  -1.572057431952e-03
6
Properties=species:S:1:pos:R:3:forces:R:3 energy=-6.992847694666e+02 dipole="-9.6642522775e-01 -7.0671799235e-01 1.4274322800e-01" quadrupole="-2.9135655758e+01 2.2751326374e+00 -4.9749534227e-01 2.2751326374e+00 -3.2692446803e+01 -2.4603132031e-01 -4.9749534227e-01 -2.4603132031e-01 -3.4139587794e+01" polarizability="4.2343497357e+01 2.1656875263e+00 3.5399665748e-01 2.1656875263e+00 4.3057980784e+01 -2.7711720453e-01 3.5399665748e-01 -2.7711720453e-01 4.1037548002e+01" charge=-1 multiplicity=1 method=wB97M-V basis=def2-svpd config_type=hso4- sample_index=288 temperature=300.0 units=atomic
S         0.1335423198      -0.0017507743       0.0197498623  -1.908816434486e-03   5.252297328011e-02  -1.211189017248e-02
O        -1.5121062159       0.0482248951      -0.0659555029  -4.700607890605e-02  -6.141149430719e-02   2.609866751308e-02
O         0.5101438855       1.4164801489       0.0045463514  -3.485871377885e-03   1.423460091075e-02   3.876104367927e-03
O         0.5078292215      -0.6764763117       1.2325692974   4.046245709039e-03  -3.156417258024e-02   4.184016153951e-02
O         0.4211486596      -0.6660800349      -1.2159449692   2.308862669372e-02  -4.031870499305e-02  -4.852228102077e-02
H        -1.8514596960      -0.9477985043       0.0905026031   2.518788932621e-02   6.659802627436e-02  -1.112183811089e-02
6
Properties=species:S:1:pos:R:3:forces:R:3 energy=-6.992978770934e+02 dipole="-9.6462423123e-01 -5.1754407445e-01 -4.8946589648e-02" quadrupole="-2.8934865032e+01 2.3967650668e+00 -4.2293011448e-01 2.3967650668e+00 -3.3110194015e+01 2.3725512007e-02 -4.2293011448e-01 2.3725512007e-02 -3.4477361962e+01" polarizability="4.2237493343e+01 1.2176759148e+00 4.4160745583e-01 1.2176759148e+00 4.3570057801e+01 -3.3775553133e-01 4.4160745583e-01 -3.3775553133e-01 4.2506117466e+01" charge=-1 multiplicity=1 method=wB97M-V basis=def2-svpd config_type=hso4- sample_index=289 temperature=300.0 units=atomic
S         0.1441474077       0.0179774761      -0.0038132351   4.254838767527e-03   3.911204683004e-03   3.491419340749e-02
O        -1.5101328839       0.0436045461      -0.0350088420  -1.857129444726e-02   1.943905376233e-02   5.617122398660e-03
O         0.4928002525       1.4550566421       0.0109095580  -3.923523672274e-03  -8.636804790669e-03  -1.629392947463e-03
O         0.4892749673      -0.7151869817       1.2579182899  -4.100855273130e-03   7.737596326574e-03  -1.562283237469e-02
O         0.4356554970      -0.7074694479      -1.2290423858   1.600356376819e-02  -1.422646523960e-02  -2.406684009631e-02
H        -1.8854712179      -0.8335525023       0.0496117906   6.307539943661e-03  -8.179006585054e-03   8.009888246986e-04
6
Properties=species:S:1:pos:R:3:forces:R:3 energy=-6.992857282319e+02 dipole="-7.6489814862e-01 -1.9771748293e-01 7.3098281406e-02" quadrupole="-2.9636532821e+01 2.8628213380e+00 1.0319297389e+00 2.8628213380e+00 -3.2569922003e+01 3.5665585740e-01 1.0319297389e+00 3.5665585740e-01 -3.4307757093e+01" polarizability="4.3667046823e+01 6.6380470781e-01 -7.8368808703e-01 6.6380470781e-01 4.3126592149e+01 -2.0326052367e-01 -7.8368808703e-01 -2.0326052367e-01 4.2103243546e+01" charge=-1 multiplicity=1 method=wB97M-V basis=def2-svpd config_type=hso4- sample_index=290 temperature=300.0 units=atomic
S         0.1579293703       0.0579077971       0.0196993924  -3.129260184461e-02  -1.133653731472e-01  -3.931549693613e-02
O        -1.5537257653       0.0695265594       0.0754365729  -1.217178272857e-02  -2.968608566025e-02  -1.859593647983e-02
O         0.4650565813       1.4237826882      -0.0822450899   1.945101768015e-02   8.622750160966e-02   1.406928049485e-02
O         0.4243322493      -0.7826027011       1.1855606240   1.513249277485e-02   8.326670550549e-03   3.074292035479e-02
O         0.5429524454      -0.7112362283      -1.2103455682  -1.073502674079e-02   9.371552413784e-03   3.062312389694e-03
H        -1.8725727253      -0.8697240530      -0.1409842732   1.959356770404e-02   3.908293986680e-02   1.005865553251e-02
6
Properties=species:S:1:pos:R:3:forces:R:3 energy=-6.992655111597e+02 dipole="-7.6684064831e-01 -4.3430679833e-01 2.9132004768e-01" quadrupole="-3.0291635354e+01 1.8663680944e+00 4.2311675216e-01 1.8663680944e+00 -3.2534370236e+01 -5.5855516436e-01 4.2311675216e-01 -5.5855516436e-01 -3.4275745994e+01" polarizability="4.2602508799e+01 7.1514153479e-01 -8.5529079666e-01 7.1514153479e-01 4.1261858532e+01 1.2744619032e+00 -8.5529079666e-01 1.2744619032e+00 4.2101376317e+01" charge=-1 multiplicity=1 method=wB97M-V basis=def2-svpd config_type=hso4- sample_index=291 temperature=300.0 units=atomic
S         0.1319827757       0.0236115699       0.0199937680  -3.347161971377e-03   8.856270139231e-03  -1.264242894033e-01
O        -1.5758092655       0.0225660131       0.0217727095   4.151780368416e-02   1.896993830510e-01   3.179573182093e-03
O         0.5422395799       1.4067695603       0.0215188889  -2.360272465648e-03   3.841561138026e-02  -6.137926966076e-03
O         0.4538807766      -0.6460073852       1.2034843085   2.150926522347e-02  -6.418154607797e-02   9.094998918192e-02
O         0.4988716136      -0.7205664162      -1.2861525310  -1.985692903599e-02   2.077712884245e-02   4.625104762867e-02
H        -1.6752196106      -0.8134589374      -0.0082808082  -3.753168429889e-02  -1.935197248402e-01  -7.866445270023e-03
6
Properties=species:S:1:pos:R:3:forces:R:3 energy=-6.992968422547e+02 dipole="-8.0910230894e-01 -4.6567572260e-01 8.7197101062e-02" quadrupole="-2.9431445437e+01 2.2595716838e+00 2.6852212921e-01 2.2595716838e+00 -3.2640945211e+01 -1.4840846919e-01 2.6852212921e-01 -1.4840846919e-01 -3.4462405400e+01" polarizability="4.1932097922e+01 1.1763404124e+00 -3.6457284083e-01 1.1763404124e+00 4.2471700587e+01 4.6349921754e-01 -3.6457284083e-01 4.6349921754e-01 4.2293559879e+01" charge=-1 multiplicity=1 method=wB97M-V basis=def2-svpd config_type=hso4- sample_index=292 temperature=300.0 units=atomic
S         0.1548145112       0.0247807962       0.0056220978  -1.608848441733e-02  -1.696230661002e-02  -4.332088698345e-02
O        -1.5198252300       0.0236310201       0.0196961155  -3.931449637882e-03   3.827546490120e-02  -2.950498210584e-03
O         0.5082120992       1.4313918184       0.0023805646   2.655017012268e-03   2.294761580069e-02  -1.200685095578e-03
O         0.4305261124      -0.6839632666       1.2338918092   1.920964132028e-02  -2.350370341667e-02   3.203354783103e-02
O         0.4631611111      -0.7071416899      -1.2659304071   1.685223165010e-03   6.097645717729e-03   1.688652817560e-02
H        -1.8120536556      -0.8681642492      -0.0216032490  -3.550836161897e-03  -2.680144536954e-02  -1.482643586895e-03
6
Properties=species:S:1:pos:R:3:forces:R:3 energy=-6.992958364108e+02 dipole="-1.0995885535e+00 -4.3964926376e-01 1.9553133593e-02" quadrupole="-2.8776385848e+01 2.4341289893e+00 3.0386370031e-01 2.4341289893e+00 -3.3217002151e+01 5.4447623656e-02 3.0386370031e-01 5.4447623656e-02 -3.4980346914e+01" polarizability="4.1971198001e+01 1.1618654837e+00 -2.9140683229e-01 1.1618654837e+00 4.4186552593e+01 8.5322422668e-02 -2.9140683229e-01 8.5322422668e-02 4.3963130045e+01" charge=-1 multiplicity=1 method=wB97M-V basis=def2-svpd config_type=hso4- sample_index=293 temperature=300.0 units=atomic
S         0.1308860763       0.0251237236       0.0032947412   3.534813515684e-02  -2.498283268081e-02  -1.432465804101e-02
O        -1.4889574116       0.0380430320       0.0255114957  -2.956404575528e-02   2.546614873020e-02  -3.386931310052e-03
O         0.4977181609       1.4587126345      -0.0157059589  -5.965577670442e-03  -1.041515112675e-02   3.163347685197e-03
O         0.4421273590      -0.7209806468       1.2666453276   4.473655121243e-03   9.147587792201e-03  -1.763122688603e-02
O         0.4810404119      -0.7138032903      -1.2807281705  -7.453590340338e-03   1.476227470967e-02   3.308476220385e-02
H        -1.8501259730      -0.8402284215      -0.0409189000   3.140613981333e-03  -1.393756370857e-02  -8.906397553588e-04
6
Properties=species:S:1:pos:R:3:forces:R:3 energy=-6.992950860372e+02 dipole="-7.6449435807e-01 -4.8087946026e-01 5.3800843247e-03" quadrupole="-3.0009533066e+01 2.5466432248e+00 -1.8800123585e-01 2.5466432248e+00 -3.3020396258e+01 -9.6280999133e-02 -1.8800123585e-01 -9.6280999133e-02 -3.4040801800e+01" polarizability="4.4121135158e+01 1.0223490910e+00 1.5530239493e-01 1.0223490910e+00 4.4613669649e+01 5.1814373620e-02 1.5530239493e-01 5.1814373620e-02 4.1622002380e+01" charge=-1 multiplicity=1 method=wB97M-V basis=def2-svpd config_type=hso4- sample_index=294 temperature=300.0 units=atomic
S         0.1502214876       0.0315974580      -0.0013158213  -1.414584198411e-02   1.127982880403e-02   3.694760498911e-03
O        -1.5731382336       0.0803271052      -0.0166545628   4.221019553068e-03  -4.553770924308e-02   4.845735840876e-03
O         0.4785817003       1.4741027069       0.0145377902  -1.832841690245e-03  -1.204604940752e-02  -2.899413617135e-03
O         0.5043931639      -0.7432251443       1.1891785147  -7.549289909567e-04   3.533135092244e-04   2.647041989277e-02
O         0.4797133911      -0.7563056593      -1.1860869655   3.584775363897e-03   9.088453802928e-04  -2.970721350479e-02
H        -1.8045865790      -0.9137738516       0.0296432730   8.961794290967e-03   4.503442870138e-02  -2.426521419492e-03
6
Properties=species:S:1:pos:R:3:forces:R:3 energy=-6.992751268144e+02 dipole="-8.5417621278e-01 -7.5435562418e-01 -2.0778810117e-01" quadrupole="-2.8237431151e+01 2.1517864108e+00 -3.2907152906e-01 2.1517864108e+00 -3.3203705226e+01 9.1629409953e-02 -3.2907152906e-01 9.1629409953e-02 -3.3516729039e+01" polarizability="4.1343664370e+01 1.4024120967e+00 3.1247177781e-01 1.4024120967e+00 4.1929633776e+01 -4.5951311060e-02 3.1247177781e-01 -4.5951311060e-02 3.9676587976e+01" charge=-1 multiplicity=1 method=wB97M-V basis=def2-svpd config_type=hso4- sample_index=295 temperature=300.0 units=atomic
S         0.1646024779      -0.0124390873      -0.0290590580  -5.067434034724e-02   1.136726964201e-01   9.329890381966e-02
O        -1.4981746639       0.0517292688      -0.0021566013  -1.535980312653e-02   4.330584440514e-02  -3.818704873744e-03
O         0.4685144845       1.4424522956       0.0400086979   1.032690548699e-03  -1.118160532886e-02  -1.430846253646e-02
O         0.4613400511      -0.6652781764       1.2031118387   2.317088361300e-02  -4.200932534427e-02   5.806407165540e-02
O         0.4439904204      -0.6987654866      -1.1838078725   4.110258209137e-02  -7.392671378682e-02  -1.338370541656e-01
H        -2.0265597338      -0.7233621462       0.0202666697   6.940225141694e-04  -2.977442242636e-02   4.859678149395e-04
6
Properties=species:S:1:pos:R:3:forces:R:3 energy=-6.992837161148e+02 dipole="-1.2747620162e+00 -6.6623724333e-01 -8.8023915203e-02" quadrupole="-2.9041843570e+01 2.1045614030e+00 3.6273995084e-01 2.1045614030e+00 -3.3861519318e+01 5.8193433205e-01 3.6273995084e-01 5.8193433205e-01 -3.4621026951e+01" polarizability="4.0912954660e+01 1.4067217536e+00 -1.5626801263e-01 1.4067217536e+00 4.5682783811e+01 -9.6910876294e-01 -1.5626801263e-01 -9.6910876294e-01 4.2850339708e+01" charge=-1 multiplicity=1 method=wB97M-V basis=def2-svpd config_type=hso4- sample_index=296 temperature=300.0 units=atomic
S         0.0936056125       0.0073680071       0.0052594088   1.051175902793e-01   5.643362627580e-02   2.300175650004e-02
O        -1.4611483130       0.0641169208       0.0337628313  -6.590025656868e-02  -2.310802151230e-02  -7.371029534625e-03
O         0.4983690287       1.4958701582      -0.0687546769  -1.855136752198e-02  -5.325327322510e-02   1.663921800749e-02
O         0.4538118125      -0.7750346428       1.2504601375  -6.907413844620e-03   2.019991291042e-02  -2.031217922003e-02
O         0.5030203299      -0.6836555364      -1.2214362479  -5.253005130584e-03  -1.697247498662e-02  -1.560430403395e-02
H        -1.6639872794      -0.8944063077      -0.0842389638  -8.509419600565e-03   1.670297687143e-02   3.663728093839e-03
6
Properties=species:S:1:pos:R:3:forces:R:3 energy=-6.992763931302e+02 dipole="-6.3816208887e-01 -3.4201471039e-01 2.1355685124e-01" quadrupole="-2.9931845810e+01 2.5946205252e+00 2.6702234813e-01 2.5946205252e+00 -3.2464659499e+01 -3.1793528711e-01 2.6702234813e-01 -3.1793528711e-01 -3.5265239384e+01" polarizability="4.4619846007e+01 1.8383695443e+00 -4.6577186345e-01 1.8383695443e+00 4.5922916447e+01 7.2493121779e-01 -4.6577186345e-01 7.2493121779e-01 4.5927129435e+01" charge=-1 multiplicity=1 method=wB97M-V basis=def2-svpd config_type=hso4- sample_index=297 temperature=300.0 units=atomic
S         0.1892576653       0.0408460608       0.0207965573  -4.258554616428e-02  -7.222123485978e-02  -5.542494083737e-02
O        -1.5239762982       0.0302697832       0.0055195078  -2.059640951804e-02  -6.869787971005e-02  -8.055319859883e-04
O         0.4856451327       1.4553455803      -0.0001594940   1.284425139815e-02   2.195318306769e-02   1.469284642329e-03
O         0.4155658200      -0.7081778995       1.2847812096   1.872609758572e-02   4.460305585743e-03  -1.192080286793e-02
O         0.4355609633      -0.7359524310      -1.3316473588   5.608758746864e-03   3.345725042629e-02   6.671524894746e-02
H        -1.8007729427      -1.0237629526      -0.0014706806   2.604726914589e-02   8.097008592308e-02  -1.041998811761e-05
6
Properties=species:S:1:pos:R:3:forces:R:3 energy=-6.992928736453e+02 dipole="-8.0891626724e-01 -7.1623578214e-01 2.1856518373e-04" quadrupole="-2.9111626143e+01 2.1047229610e+00 -4.0251282004e-01 2.1047229610e+00 -3.2956836852e+01 -1.3954074396e-01 -4.0251282004e-01 -1.3954074396e-01 -3.4463616245e+01" polarizability="4.2396819393e+01 9.7083513275e-01 3.5172606271e-01 9.7083513275e-01 4.2564504489e+01 5.8390817525e-02 3.5172606271e-01 5.8390817525e-02 4.3391095432e+01" charge=-1 multiplicity=1 method=wB97M-V basis=def2-svpd config_type=hso4- sample_index=298 temperature=300.0 units=atomic
S         0.1661796275      -0.0256535085      -0.0034677005  -2.107089723197e-02   4.706073041785e-02   1.402512169707e-02
O        -1.5142376794       0.0648861835      -0.0335092474   3.950250275413e-03   3.079538798993e-02   2.165420579545e-03
O         0.4701035047       1.4175336508       0.0275962628   7.793970318835e-03   1.615616931126e-03  -6.365824073319e-03
O         0.4793124262      -0.6498852119       1.2982270866   3.780450367426e-03  -2.233438598860e-02  -1.041678117733e-02
O         0.4290942912      -0.6723743343      -1.2886474273   1.617052760481e-02  -2.242680777999e-02  -2.727445856134e-03
H        -1.8793715910      -0.7881709420       0.0583792508  -1.064299598430e-02  -3.474021463256e-02   3.316672255218e-03
6
Properties=species:S:1:pos:R:3:forces:R:3 energy=-6.992946167055e+02 dipole="-9.5349796007e-01 -5.3112465503e-01 2.1489433196e-02" quadrupole="-2.9854648463e+01 2.2492920623e+00 -3.4574839327e-01 2.2492920623e+00 -3.3439681578e+01 -1.1891229740e-01 -3.4574839327e-01 -1.1891229740e-01 -3.4664153404e+01" polarizability="4.3130785322e+01 4.1039571106e-01 4.1692530046e-01 4.1039571106e-01 4.4726938064e+01 -1.2260608336e-01 4.1692530046e-01 -1.2260608336e-01 4.4030573362e+01" charge=-1 multiplicity=1 method=wB97M-V basis=def2-svpd config_type=hso4- sample_index=299 temperature=300.0 units=atomic
S         0.1275274540       0.0068267854       0.0027254539   3.868076896416e-02   2.098079127832e-02   5.279005288596e-03
O        -1.5357508313       0.0993757646      -0.0373711250   5.471682193999e-03  -1.233660016536e-02   7.793661389279e-03
O         0.4663775292       1.4651211040       0.0141922219  -7.564057329494e-04  -2.475727894839e-02  -1.402513577093e-03
O         0.5253609013      -0.7301085147       1.2725023393  -1.955686740418e-02   1.440147658042e-02  -3.289795054579e-02
O         0.4721252860      -0.7343024474      -1.2580020347  -6.119090826154e-03   8.664756023400e-03   2.165765038460e-02
H        -1.6874906465      -0.8454714909       0.0563745221  -1.774955141496e-02  -6.960498100311e-03  -4.328840513204e-04
6
Properties=species:S:1:pos:R:3:forces:R:3 energy=-6.992921829399e+02 dipole="-8.1838255518e-01 -1.7487234566e-01 1.8918341654e-01" quadrupole="-2.9794586177e+01 2.6266810918e+00 -4.7143505030e-01 2.6266810918e+00 -3.2488060291e+01 -4.2489472557e-01 -4.7143505030e-01 -4.2489472557e-01 -3.4572555818e+01" polarizability="4.3288618866e+01 7.6513846630e-01 2.9967104870e-01 7.6513846630e-01 4.2943790828e+01 2.8578040300e-01 2.9967104870e-01 2.8578040300e-01 4.2579716490e+01" charge=-1 multiplicity=1 method=wB97M-V basis=def2-svpd config_type=hso4- sample_index=300 temperature=300.0 units=atomic
S         0.1443601190       0.0647852203       0.0175041129  -1.396321502723e-02  -1.163245898021e-01  -3.378060946203e-02
O        -1.5542859494       0.0343218191      -0.0604331595   1.494502947921e-04   8.432650816267e-03   1.355313899485e-02
O         0.5068760427       1.4290267409       0.0267363332   1.087217740355e-02   7.139616943847e-02  -1.892035273882e-03
O         0.5137079686      -0.7242028399       1.2142256617  -6.400483921142e-03   7.412869057625e-03   1.080704556665e-02
O         0.4352669837      -0.7530041774      -1.2210785945   4.006525768536e-03   2.401681574964e-02   1.317054432609e-02
H        -1.8024493599      -0.8906025550       0.0970360541   5.333355792768e-03   4.993482594936e-03  -1.915648116675e-03
6
Properties=species:S:1:pos:R:3:forces:R:3 energy=-6.992844479244e+02 dipole="-1.0125560431e+00 -4.4059871950e-01 5.8657155578e-02" quadrupole="-2.8788252834e+01 2.6353108693e+00 2.6044646765e-01 2.6353108693e+00 -3.2572851730e+01 -6.2248619391e-02 2.6044646765e-01 -6.2248619391e-02 -3.4996382283e+01" polarizability="4.1743642071e+01 1.9169689539e+00 -2.7933933308e-01 1.9169689539e+00 4.3662641114e+01 3.3116803170e-01 -2.7933933308e-01 3.3116803170e-01 4.3180249898e+01" charge=-1 multiplicity=1 method=wB97M-V basis=def2-svpd config_type=hso4- sample_index=301 temperature=300.0 units=atomic
S         0.1439613110       0.0256157193       0.0043955509   1.073101808205e-02  -5.573857391017e-02  -2.703772549284e-02
O        -1.4621402437       0.0448037092       0.0211217755  -7.557119391959e-02  -6.176592240208e-02  -8.096952884076e-03
O         0.4809999426       1.4173674670      -0.0045737858   1.364563127738e-02   4.863903496391e-02   2.364795122668e-04
O         0.4261341798      -0.6915258247       1.2588420317   1.666575817179e-02  -1.055365347961e-02   5.350616721579e-03
O         0.4597891676      -0.7021294483      -1.2825570876   1.977922363213e-03   7.012512188631e-03   2.603463059387e-02
H        -1.8282751389      -0.9649709673      -0.0281060956   3.253543934186e-02   7.243397805423e-02   3.509509739770e-03
6
Properties=species:S:1:pos:R:3:forces:R:3 energy=-6.992842444555e+02 dipole="-9.0876923100e-01 -3.4714490632e-01 -1.4906457608e-01" quadrupole="-3.0707172357e+01 2.0378569244e+00 5.9271373444e-01 2.0378569244e+00 -3.2783540149e+01 6.8610763123e-01 5.9271373444e-01 6.8610763123e-01 -3.4768162879e+01" polarizability="4.4566240289e+01 9.5801976708e-01 -5.1156514347e-01 9.5801976708e-01 4.4394254811e+01 -7.6482540132e-01 -5.1156514347e-01 -7.6482540132e-01 4.3951313373e+01" charge=-1 multiplicity=1 method=wB97M-V basis=def2-svpd config_type=hso4- sample_index=302 temperature=300.0 units=atomic
S         0.1081718273       0.0411933459      -0.0049285670   4.524936170434e-02  -3.008481321795e-02   2.907329698472e-02
O        -1.5916332984       0.0453435832       0.0695698643   2.391664535402e-02  -4.919583429552e-02  -2.299571850739e-02
O         0.5472395781       1.4336491171      -0.0731560128  -1.074284380049e-02   1.562918155099e-02   1.423297933662e-02
O         0.4541743181      -0.7651622510       1.2597747618  -1.324408863741e-02   3.034859032063e-02  -3.712423978476e-02
O         0.5506314064      -0.6767157506      -1.2388589688  -2.373817581620e-02  -4.934794226743e-03   6.434844212741e-03
H        -1.5836541203      -0.9564825505      -0.1344527074  -2.141602847811e-02   3.817787944523e-02   1.037390150827e-02
6
Properties=species:S:1:pos:R:3:forces:R:3 energy=-6.992874791361e+02 dipole="-7.7079488353e-01 -5.6651854402e-01 1.1956628285e-01" quadrupole="-3.0354290485e+01 1.5831427355e+00 7.1234446374e-01 1.5831427355e+00 -3.2551458348e+01 -3.2927646475e-02 7.1234446374e-01 -3.2927646475e-02 -3.4293826070e+01" polarizability="4.2330020106e+01 1.8678574300e+00 -8.9674352301e-01 1.8678574300e+00 4.2651395040e+01 5.7229951639e-01 -8.9674352301e-01 5.7229951639e-01 4.1982387265e+01" charge=-1 multiplicity=1 method=wB97M-V basis=def2-svpd config_type=hso4- sample_index=303 temperature=300.0 units=atomic
S         0.1360481657       0.0241818310       0.0100835116   6.926713905758e-03   4.485851722531e-02  -7.954747885675e-02
O        -1.5477934210      -0.0263537134       0.0636349763   4.784213430920e-03   5.707955497081e-02  -6.855799872855e-03
O         0.5828054260       1.4422248961      -0.0227794475  -1.764316134314e-02  -1.036278692947e-02   4.234385873963e-03
O         0.3875975952      -0.6677422068       1.2174536357   3.089502443194e-02  -4.503601200403e-02   6.902517723098e-02
O         0.4866757685      -0.6803947278      -1.2732521320  -1.006913338459e-02   1.946876085519e-03   2.112728261303e-02
H        -1.6437618864      -0.9320151593      -0.0912056137  -1.490758720853e-02  -4.838577234095e-02  -8.027358411804e-03
6
Properties=species:S:1:pos:R:3:forces:R:3 energy=-6.992784691636e+02 dipole="-4.9169099913e-01 -3.3825978452e-01 4.1095022577e-01" quadrupole="-3.0546188532e+01 2.6271585066e+00 3.5890361893e-01 2.6271585066e+00 -3.3105210762e+01 -4.2679008289e-01 3.5890361893e-01 -4.2679008289e-01 -3.4003339755e+01" polarizability="4.5841235190e+01 -2.7719851977e-01 -5.7611200367e-01 -2.7719851977e-01 4.4434408440e+01 5.6582666544e-01 -5.7611200367e-01 5.6582666544e-01 4.2940637302e+01" charge=-1 multiplicity=1 method=wB97M-V basis=def2-svpd config_type=hso4- sample_index=304 temperature=300.0 units=atomic
S         0.1843176222       0.0378157399       0.0504179461  -4.382058231733e-02  -1.057072880960e-02  -1.215262214181e-01
O        -1.6169609047       0.0998024750      -0.0138083237   5.732461634235e-02   8.957562558593e-02   5.850293263956e-03
O         0.4414218305       1.4807644290      -0.0327018492   9.783087600463e-03  -5.959178413161e-03   1.337633789760e-02
O         0.4961202528      -0.7761205527       1.1788538618   1.186944617556e-02  -1.376292532691e-02   6.179964377658e-02
O         0.5022504937      -0.7704344281      -1.2339490898  -9.329872326600e-03   3.617629055458e-02   3.912397367444e-02
H        -1.8271173214      -0.7658378847       0.0099672945  -2.579192129089e-02  -9.543768729202e-02   1.336025635022e-03
6
Properties=species:S:1:pos:R:3:forces:R:3 energy=-6.992821040349e+02 dipole="-9.5746743161e-01 -4.7854288094e-01 -2.0170978827e-01" quadrupole="-2.9572179973e+01 2.7610001259e+00 -5.7516849579e-01 2.7610001259e+00 -3.2782253399e+01 -1.8599789528e-02 -5.7516849579e-01 -1.8599789528e-02 -3.5009459443e+01" polarizability="4.6167419591e+01 1.5422147329e+00 6.1484459822e-01 1.5422147329e+00 4.5281138517e+01 -6.7753414481e-02 6.1484459822e-01 -6.7753414481e-02 4.5032372655e+01" charge=-1 multiplicity=1 method=wB97M-V basis=def2-svpd config_type=hso4- sample_index=305 temperature=300.0 units=atomic
S         0.1374245644       0.0123954964      -0.0307187037   9.772352544421e-03  -3.232476584789e-02   5.755990901823e-02
O        -1.5789188177       0.0831451213      -0.0255387494  -1.360119183482e-02  -7.769015774864e-02   6.501936956541e-03
O         0.4944241167       1.4225873537       0.0571340630  -9.099023821957e-04   1.797556970011e-02  -1.547356353228e-02
O         0.5301855613      -0.6822935305       1.2985825195  -2.123669269535e-02   9.389497482832e-03  -5.289951412948e-02
O         0.4781012053      -0.7286869499      -1.2719284280  -4.296174025457e-03   5.672973951363e-03   1.084901666583e-02
H        -1.9243711872      -0.9462060465       0.0598575318   3.022608972039e-02   7.697123636909e-02  -6.552357120917e-03
6
Properties=species:S:1:pos:R:3:forces:R:3 energy=-6.992894709452e+02 dipole="-8.1707061606e-01 -8.6112100913e-01 3.0422516896e-02" quadrupole="-3.0069477937e+01 1.7088199759e+00 2.3451585722e-01 1.7088199759e+00 -3.3232108910e+01 1.1470233437e-01 2.3451585722e-01 1.1470233437e-01 -3.3873197057e+01" polarizability="4.2312112284e+01 1.6779472993e+00 -2.2003201144e-01 1.6779472993e+00 4.4068437749e+01 -1.1703311796e-01 -2.2003201144e-01 -1.1703311796e-01 4.1246807526e+01" charge=-1 multiplicity=1 method=wB97M-V basis=def2-svpd config_type=hso4- sample_index=306 temperature=300.0 units=atomic
S         0.1384214517      -0.0149210724       0.0074470786   2.582498012585e-03   1.258373929465e-01  -1.648669139048e-02
O        -1.5368258388       0.0489195186       0.0173126561   9.209522630869e-04  -2.175070559897e-02  -3.542418830238e-03
O         0.5182590179       1.4759377977      -0.0262355556  -1.459460703240e-02  -5.024747756686e-02   7.377745535060e-03
O         0.4478612159      -0.7018355168       1.2205214984   1.552197138409e-02  -3.327214714766e-02   4.991575767056e-02
O         0.4763138246      -0.6761871982      -1.2245158705   8.354247123980e-03  -3.273971540534e-02  -3.819608542737e-02
H        -1.6691863755      -0.9213609504      -0.0362315023  -1.286685735489e-02   1.229060716365e-02   9.452080978749e-04
6
Properties=species:S:1:pos:R:3:forces:R:3 energy=-6.992895964826e+02 dipole="-9.0726218757e-01 -4.6706114593e-01 2.1163857274e-01" quadrupole="-2.8927269597e+01 2.6917373958e+00 7.4091980728e-01 2.6917373958e+00 -3.3369376508e+01 4.3896143812e-02 7.4091980728e-01 4.3896143812e-02 -3.4859873238e+01" polarizability="4.3624798320e+01 5.2711113582e-01 -6.9354439093e-01 5.2711113582e-01 4.4751502644e+01 4.4507056824e-03 -6.9354439093e-01 4.4507056824e-03 4.4870110266e+01" charge=-1 multiplicity=1 method=wB97M-V basis=def2-svpd config_type=hso4- sample_index=307 temperature=300.0 units=atomic
S         0.1638377080       0.0036364765       0.0341077063  -7.741197338238e-03  -1.808590430944e-02  -6.528632422546e-02
O        -1.5040605512       0.1152309568       0.0359903485  -2.522034242577e-02  -3.127510463198e-02  -4.952276273697e-03
O         0.4116003340       1.4455860699      -0.0678150700   1.897704527838e-02   5.556019744759e-03   1.726712976808e-02
O         0.4467788466      -0.7559814637       1.2732348047   9.051591522689e-03   7.120810880044e-03  -8.171212356491e-03
O         0.5157133863      -0.7017141080      -1.3053888054  -1.141424570410e-02   1.381982055469e-02   5.744548079502e-02
H        -1.9128688145      -0.7850598230      -0.0787641046   1.630904181973e-02   2.288940825291e-02   3.759469425145e-03
6
Properties=species:S:1:pos:R:3:forces:R:3 energy=-6.992910842483e+02 dipole="-8.1930844674e-01 -7.1347000097e-01 4.0624570184e-02" quadrupole="-2.9791558495e+01 1.8482044890e+00 -4.8772189970e-02 1.8482044890e+00 -3.2221899648e+01 -2.5492440449e-02 -4.8772189970e-02 -2.5492440449e-02 -3.4257980447e+01" polarizability="4.2470267620e+01 2.0297438279e+00 4.7019127252e-02 2.0297438279e+00 4.1703146771e+01 -7.4216495457e-02 4.7019127252e-02 -7.4216495457e-02 4.1613364016e+01" charge=-1 multiplicity=1 method=wB97M-V basis=def2-svpd config_type=hso4- sample_index=308 temperature=300.0 units=atomic
S         0.1399747133      -0.0034586902       0.0064296505  -1.369961309624e-02   4.683894834308e-02  -6.776473584722e-03
O        -1.5526352840      -0.0025352238      -0.0105521940  -4.561471844934e-03  -3.102406580197e-03   3.367997537581e-03
O         0.5686510117       1.3908919587      -0.0064004442  -8.458671978848e-03   2.766978277046e-02   3.039811211451e-03
O         0.4540059827      -0.6371851250       1.2583748098   1.027750202643e-02  -3.976434217278e-02   3.557864309315e-02
O         0.4415757298      -0.6270603090      -1.2549539876   1.283890372448e-02  -4.266278645022e-02  -3.488520210144e-02
H        -1.7961156853      -0.9479760520       0.0108421205   3.514691624305e-03   1.106278155255e-02  -3.257920189811e-04
6
Properties=species:S:1:pos:R:3:forces:R:3 energy=-6.992877179182e+02 dipole="-5.0422236411e-01 -2.9106528713e-01 -1.6340192143e-01" quadrupole="-3.0138608649e+01 2.7130523422e+00 1.4036148859e-01 2.7130523422e+00 -3.2747280740e+01 2.7629141198e-01 1.4036148859e-01 2.7629141198e-01 -3.4040427170e+01" polarizability="4.3015714154e+01 -4.7870301733e-01 -5.0015443454e-02 -4.7870301733e-01 4.2307371233e+01 -2.5959246259e-01 -5.0015443454e-02 -2.5959246259e-01 4.1914854877e+01" charge=-1 multiplicity=1 method=wB97M-V basis=def2-svpd config_type=hso4- sample_index=309 temperature=300.0 units=atomic
S         0.1865461512       0.0314655598      -0.0171043211  -5.374569062584e-02  -7.421511840756e-02   4.110715265288e-02
O        -1.5462036758       0.1341100444       0.0302775148   1.927005572120e-02   4.128842630327e-03  -6.061964128325e-03
O         0.3857037581       1.4217558942      -0.0066046182   3.999881579114e-02   8.545415576594e-02  -1.318703596473e-03
O         0.4694476452      -0.7601407909       1.2194542343   5.476646438873e-03   1.418464451754e-02  -7.071406336280e-03
O         0.5044181355      -0.7476056906      -1.2062258874   6.145352733848e-03  -3.794373436881e-03  -2.593302681775e-02
H        -1.7428493696      -0.7831722948      -0.0465371288  -1.711382122704e-02  -2.578194615761e-02  -6.829667930684e-04
6
Properties=species:S:1:pos:R:3:forces:R:3 energy=-6.992822863629e+02 dipole="-1.0520906656e+00 -6.3722891354e-01 -1.2314165162e-01" quadrupole="-2.9670357181e+01 1.9588139644e+00 -9.0225403462e-01 1.9588139644e+00 -3.3513052118e+01 1.4532714077e-01 -9.0225403462e-01 1.4532714077e-01 -3.4149008779e+01" polarizability="4.2372658594e+01 1.1631209241e+00 1.1839841953e+00 1.1631209241e+00 4.4286738513e+01 -1.0689409150e+00 1.1839841953e+00 -1.0689409150e+00 4.1930127690e+01" charge=-1 multiplicity=1 method=wB97M-V basis=def2-svpd config_type=hso4- sample_index=310 temperature=300.0 units=atomic
S         0.1084972247       0.0120493909      -0.0042296939   4.466784743756e-02   7.794280807367e-02   9.536054889333e-02
O        -1.5357052517       0.0432695911      -0.0840600144  -1.381336595379e-03   4.460461906903e-02   8.683929484915e-03
O         0.5296507340       1.4830244747       0.0088922552  -2.303162146099e-02  -4.653862269442e-02   6.870183487337e-04
O         0.5504066123      -0.7402207870       1.2504394436  -2.820603130929e-02   2.054248963486e-02  -2.579745854447e-02
O         0.4234436446      -0.6975922192      -1.1731888951   2.721264764653e-02  -5.040476248104e-02  -8.793199044304e-02
H        -1.7174692499      -0.8431507095       0.1094936675  -1.926699268012e-02  -4.611729041190e-02   9.030720262667e-03
6
Properties=species:S:1:pos:R:3:forces:R:3 energy=-6.992806063272e+02 dipole="-1.1297801837e+00 -6.5940801765e-01 1.4010357572e-01" quadrupole="-2.9249770048e+01 2.1837225914e+00 -3.8592406679e-01 2.1837225914e+00 -3.2911861288e+01 -5.4826501357e-01 -3.8592406679e-01 -5.4826501357e-01 -3.4670281856e+01" polarizability="4.2736183849e+01 3.0744311621e+00 1.1254303559e-01 3.0744311621e+00 4.5818798907e+01 6.6042862489e-01 1.1254303559e-01 6.6042862489e-01 4.2552544935e+01" charge=-1 multiplicity=1 method=wB97M-V basis=def2-svpd config_type=hso4- sample_index=311 temperature=300.0 units=atomic
S         0.1131010586       0.0268220159       0.0046436054   4.620663739186e-02   3.386469116803e-02  -3.665171766484e-02
O        -1.5020626036      -0.0182574449      -0.0435885211  -5.985244855299e-02  -5.051709626713e-02   1.683860363043e-02
O         0.5801174287       1.4791454611       0.0525890782  -3.033137649970e-02  -4.041010127980e-02  -1.198652833574e-02
O         0.4725954350      -0.6611160445       1.2251068594   7.197886919702e-03  -2.553715596444e-02   3.512462560919e-02
O         0.4134371401      -0.7300471968      -1.2483122973   9.427723676216e-03   9.760314663444e-03   6.572774953103e-03
H        -1.7954983941      -1.0430049192       0.0889231005   2.734029055114e-02   7.291197821835e-02  -9.931911171104e-03
6
Properties=species:S:1:pos:R:3:forces:R:3 energy=-6.992952128571e+02 dipole="-7.5742786492e-01 -3.6416891344e-01 -5.0187717571e-02" quadrupole="-2.9085554889e+01 2.5563808828e+00 -2.6433027106e-03 2.5563808828e+00 -3.2789678122e+01 -4.2122750987e-02 -2.6433027106e-03 -4.2122750987e-02 -3.4525153684e+01" polarizability="4.2263222571e+01 1.1508170471e+00 -3.6093847097e-02 1.1508170471e+00 4.3429762192e+01 2.4787355219e-01 -3.6093847097e-02 2.4787355219e-01 4.2685907756e+01" charge=-1 multiplicity=1 method=wB97M-V basis=def2-svpd config_type=hso4- sample_index=312 temperature=300.0 units=atomic
S         0.1756013038       0.0387831390      -0.0105131508  -3.388232389489e-02  -5.192411098568e-02   6.772091771881e-03
O        -1.5005356733       0.0324328846       0.0094065568  -2.181445233190e-02   1.756203399132e-02  -3.486494397568e-03
O         0.4733324752       1.4534873370       0.0191723631   1.040341359009e-02   2.253050318017e-02  -5.770843387261e-03
O         0.4314775987      -0.7118498610       1.2393550633   1.787762469390e-02   1.050004864814e-03   1.575929582728e-03
O         0.4406332150      -0.7385116174      -1.2466561175   1.382611491067e-02   9.947291102838e-03   1.074131154212e-03
H        -1.8874406553      -0.8537748346      -0.0024219172   1.360154757760e-02   7.836883663672e-04  -1.924345542166e-04
6
Properties=species:S:1:pos:R:3:forces:R:3 energy=-6.992954546583e+02 dipole="-9.4708423274e-01 -6.2205579723e-01 -1.5718907385e-01" quadrupole="-2.9337191903e+01 2.2080265861e+00 2.4465961296e-01 2.2080265861e+00 -3.3476852159e+01 4.8272292431e-01 2.4465961296e-01 4.8272292431e-01 -3.4283767153e+01" polarizability="4.2374071774e+01 1.2055856052e+00 -2.9798251139e-02 1.2055856052e+00 4.4710528051e+01 -7.7314611557e-01 -2.9798251139e-02 -7.7314611557e-01 4.2391269041e+01" charge=-1 multiplicity=1 method=wB97M-V basis=def2-svpd config_type=hso4- sample_index=313 temperature=300.0 units=atomic
S         0.1391668293       0.0109714635      -0.0079410033   1.224188886217e-02   4.854214035135e-02   4.757803989989e-02
O        -1.5195122522       0.0526980347       0.0308944726  -5.681248927569e-03   2.268415842746e-02  -3.760674568338e-03
O         0.4943877641       1.4909510454      -0.0402512962  -1.147807012306e-02  -4.559594089071e-02   7.996065111208e-03
O         0.4490577033      -0.7560693664       1.2446155375   2.003600856859e-03   1.534337564632e-02  -1.449456447229e-02
O         0.4881774717      -0.6965709989      -1.2157254013   7.622658150990e-03  -2.204554928831e-02  -3.631811670091e-02
H        -1.8041933271      -0.8456524252      -0.0661438877  -4.723886001277e-03  -1.887196395412e-02  -9.251976478993e-04
6
Properties=species:S:1:pos:R:3:forces:R:3 energy=-6.992890323985e+02 dipole="-1.0009853691e+00 -7.6525806983e-01 -1.1809898148e-02" quadrupole="-2.9501246771e+01 1.7904806298e+00 -2.0197920205e-01 1.7904806298e+00 -3.3316182759e+01 4.8672738199e-02 -2.0197920205e-01 4.8672738199e-02 -3.4206879099e+01" polarizability="4.0554972305e+01 1.0299547476e+00 2.8564965614e-01 1.0299547476e+00 4.2918031588e+01 -3.4067085596e-01 2.8564965614e-01 -3.4067085596e-01 4.1762750456e+01" charge=-1 multiplicity=1 method=wB97M-V basis=def2-svpd config_type=hso4- sample_index=314 temperature=300.0 units=atomic
S         0.1198912957      -0.0160233974       0.0028183857   4.578131043050e-02   9.328441081443e-02   2.172359344090e-02
O        -1.4872893270       0.0673383614      -0.0235916284  -2.029485802585e-02   2.532180899592e-02   4.554024331956e-03
O         0.4914246942       1.4467240204      -0.0053102454  -5.707573147260e-03  -2.612961788652e-02   3.137884815384e-03
O         0.4850453161      -0.6949644012       1.2570870319  -3.810335614086e-03  -1.438409379055e-02   2.711250621356e-03
O         0.4512281768      -0.6742357110      -1.2354287820   1.178765430660e-02  -3.509208527911e-02  -3.382140754706e-02
H        -1.6326270912      -0.8493651965       0.0268590337  -2.785063609850e-02  -4.294306661326e-02   1.755698624087e-03
6
Properties=species:S:1:pos:R:3:forces:R:3 energy=-6.992901503361e+02 dipole="-7.5011423584e-01 -7.0682179829e-01 2.7115559572e-01" quadrupole="-3.0165587955e+01 2.2515931094e+00 -3.6503302326e-01 2.2515931094e+00 -3.3087625995e+01 -6.0180252189e-01 -3.6503302326e-01 -6.0180252189e-01 -3.4114006208e+01" polarizability="4.5211545825e+01 5.1706957468e-01 1.2288265713e-01 5.1706957468e-01 4.3559984638e+01 6.2776461191e-01 1.2288265713e-01 6.2776461191e-01 4.2933127899e+01" charge=-1 multiplicity=1 method=wB97M-V basis=def2-svpd config_type=hso4- sample_index=315 temperature=300.0 units=atomic
S         0.1474998063      -0.0219670191       0.0254541297  -1.045662196864e-02   6.629367722776e-02  -7.923915157590e-02
O        -1.5964881398       0.1176390845      -0.0577187983   2.348507830849e-02  -3.788826481737e-02   1.606163207118e-02
O         0.4653049716       1.4268051301       0.0317542239   2.031579033054e-03  -6.065378782480e-03  -3.427864578458e-03
O         0.5484636979      -0.6694588488       1.2358224938   2.134715188538e-04  -4.000390436912e-02   4.405232425911e-02
O         0.4788621859      -0.7180406541      -1.2663897060  -7.064740313933e-03   1.778581156195e-03   2.729367433018e-02
H        -1.8057654969      -0.8318759014       0.0989296120  -8.279320058643e-03   1.587389980546e-02  -4.735420706286e-03
6
Properties=species:S:1:pos:R:3:forces:R:3 energy=-6.992920539164e+02 dipole="-8.7453801776e-01 -2.8511112108e-01 1.5282932145e-02" quadrupole="-2.9059873949e+01 2.5279669472e+00 6.7226956654e-01 2.5279669472e+00 -3.2745170303e+01 2.8090214650e-01 6.7226956654e-01 2.8090214650e-01 -3.4632297962e+01" polarizability="4.2826045932e+01 9.5618775921e-01 -4.8784430974e-01 9.5618775921e-01 4.2915363863e+01 -3.4399016530e-01 -4.8784430974e-01 -3.4399016530e-01 4.2989874274e+01" charge=-1 multiplicity=1 method=wB97M-V basis=def2-svpd config_type=hso4- sample_index=316 temperature=300.0 units=atomic
S         0.1533323056       0.0458988068       0.0112671410  -1.403752747442e-02  -7.837317615526e-02  -1.856619902722e-02
O        -1.5323077725       0.0184349625       0.0489445728   4.100762261615e-03   5.950545612379e-02   9.922942753922e-04
O         0.5077273104       1.4358677105      -0.0575028739   2.669129615071e-03   3.802192860991e-02   1.240162904065e-02
O         0.4203949876      -0.7455519935       1.2409555277   1.267730006721e-02   1.378544400671e-02  -1.997524448576e-03
O         0.4962575183      -0.6902994040      -1.2497137298  -3.675141923225e-03   5.055479029265e-03   1.369067047722e-02
H        -1.9295262318      -0.8102849646      -0.0944929700  -1.759406963225e-03  -3.802696339965e-02  -6.481672798232e-03
6
Properties=species:S:1:pos:R:3:forces:R:3 energy=-6.992879338209e+02 dipole="-1.0059744291e+00 -2.7400212808e-01 -7.6623511854e-02" quadrupole="-2.8675590885e+01 2.7440533004e+00 1.2456818879e-01 2.7440533004e+00 -3.2924772937e+01 9.8676009566e-02 1.2456818879e-01 9.8676009566e-02 -3.4341863715e+01" polarizability="4.1958276164e+01 -1.2490916182e-01 -7.9146117258e-02 -1.2490916182e-01 4.1450067684e+01 -2.3257759683e-02 -7.9146117258e-02 -2.3257759683e-02 4.1750150734e+01" charge=-1 multiplicity=1 method=wB97M-V basis=def2-svpd config_type=hso4- sample_index=317 temperature=300.0 units=atomic
S         0.1341894402       0.0317067965      -0.0089853987  -2.804756183244e-03  -8.914368817352e-02   1.374438798621e-02
O        -1.5324130132       0.0897627504       0.0180606680   2.880954911813e-02   8.931436662843e-02   7.602088776026e-04
O         0.4511968219       1.4036668609       0.0001410770   1.708808392807e-02   8.119470866960e-02  -1.387520130970e-03
O         0.4951258428      -0.7253413893       1.2160938610  -4.477692828153e-03   3.602354385942e-03   3.357650389344e-03
O         0.5169143737      -0.7263584429      -1.2148656274  -6.678763735897e-03   7.801113014985e-04  -1.206410699238e-02
H        -1.9460051269      -0.7009329069      -0.0248564963  -3.194115527044e-02  -8.582035943341e-02  -4.386581265821e-03
6
Properties=species:S:1:pos:R:3:forces:R:3 energy=-6.992969991944e+02 dipole="-9.4760742030e-01 -5.4175263146e-01 -3.5879584661e-02" quadrupole="-2.9288431233e+01 2.5022309244e+00 4.6783707360e-02 2.5022309244e+00 -3.3408257514e+01 -1.1411326432e-01 4.6783707360e-02 -1.1411326432e-01 -3.4577348605e+01" polarizability="4.2987403275e+01 1.9479063129e-01 -1.7085772172e-01 1.9479063129e-01 4.3988489564e+01 5.0250295152e-01 -1.7085772172e-01 5.0250295152e-01 4.3676105048e+01" charge=-1 multiplicity=1 method=wB97M-V basis=def2-svpd config_type=hso4- sample_index=318 temperature=300.0 units=atomic
S         0.1417409778      -0.0023616069      -0.0121071371   1.482201180821e-02   1.034800190736e-02  -2.223850181693e-04
O        -1.5233860460       0.1209257352       0.0153518797  -3.850625593280e-04  -3.638389776654e-03  -4.929870629183e-03
O         0.4304603278       1.4457481729       0.0282991189   1.098367610238e-02  -4.455950676721e-03  -8.942402258752e-03
O         0.4916508886      -0.7035801639       1.2555736822  -3.709743428782e-03  -4.068582244516e-03  -1.430884895281e-02
O         0.5092823667      -0.7478887642      -1.2745847303  -1.239465538680e-02   1.513159395620e-02   2.848072123499e-02
H        -1.8181380343      -0.7850023058      -0.0045017767  -9.359226486769e-03  -1.331536726577e-02  -1.206365613409e-04
6
Properties=species:S:1:pos:R:3:forces:R:3 energy=-6.992941059560e+02 dipole="-6.5402524992e-01 -5.1090855206e-01 6.3749124201e-02" quadrupole="-3.0467406033e+01 2.1429762490e+00 -1.4857127693e-02 2.1429762490e+00 -3.2606943740e+01 -2.2836416816e-01 -1.4857127693e-02 -2.2836416816e-01 -3.4643821611e+01" polarizability="4.4328589386e+01 1.5100059316e+00 -1.1973905627e-01 1.5100059316e+00 4.4637806452e+01 4.8860476449e-01 -1.1973905627e-01 4.8860476449e-01 4.3819017437e+01" charge=-1 multiplicity=1 method=wB97M-V basis=def2-svpd config_type=hso4- sample_index=319 temperature=300.0 units=atomic
S         0.1640273042       0.0216058447       0.0010757746  -1.786622455842e-02  -1.468955812408e-03  -2.342123351235e-02
O        -1.5670538547       0.0372951588      -0.0032585117   1.064239353824e-02  -5.283743646966e-02   1.147042381601e-03
O         0.5155514666       1.4524301608       0.0222421899  -8.495600840890e-04  -4.298135408735e-03  -5.421967821263e-03
O         0.4558299707      -0.6871968391       1.2606710853   6.553400609686e-03  -8.429945383615e-03  -1.651226242448e-03
O         0.4528894956      -0.7248717827      -1.2827596002   6.945830361529e-04   1.439760691671e-02   3.079647476530e-02
H        -1.7078903495      -0.9856685543       0.0184165750   8.221358168963e-04   5.269283089797e-02  -1.492947230959e-03
6
Properties=species:S:1:pos:R:3:forces:R:3 energy=-6.992895487318e+02 dipole="-1.0751950753e+00 -4.9531322632e-01 2.8351904565e-01" quadrupole="-2.8633215246e+01 2.5320502277e+00 5.3691140695e-01 2.5320502277e+00 -3.2929005705e+01 -3.0982065559e-01 5.3691140695e-01 -3.0982065559e-01 -3.4646996794e+01" polarizability="4.3760305901e+01 1.5179489707e+00 -7.3099421019e-01 1.5179489707e+00 4.3366536977e+01 6.8112146993e-01 -7.3099421019e-01 6.8112146993e-01 4.2986866636e+01" charge=-1 multiplicity=1 method=wB97M-V basis=def2-svpd config_type=hso4- sample_index=320 temperature=300.0 units=atomic
S         0.1295303440       0.0162338506       0.0299940257   8.609099767765e-03  -7.662831732025e-03  -1.029428460759e-01
O        -1.5437264509       0.0350199712       0.0207896690  -2.081232460356e-02   5.373286117387e-03  -1.180527717109e-03
O         0.5225207901       1.4250080074      -0.0222663039  -1.001609984378e-02   1.202000940368e-02   7.283409288404e-03
O         0.4597391141      -0.6855305314       1.2247037173   1.492882741361e-02  -3.331390823342e-02   5.420677234829e-02
O         0.5063811470      -0.6955757635      -1.2814579739  -1.598131777353e-02   1.295339533372e-02   4.228447798477e-02
H        -2.0102841587      -0.8277677656      -0.0320759709   2.320495363929e-02   1.066414249706e-02   3.063026431348e-04
6
Properties=species:S:1:pos:R:3:forces:R:3 energy=-6.992925366778e+02 dipole="-1.0007753726e+00 -6.0656618227e-01 2.4077041585e-01" quadrupole="-2.9452997057e+01 2.3505623056e+00 -2.1128510932e-01 2.3505623056e+00 -3.3309648927e+01 -2.4953762968e-01 -2.1128510932e-01 -2.4953762968e-01 -3.4362053138e+01" polarizability="4.2256141680e+01 8.4398878332e-01 1.9999039074e-01 8.4398878332e-01 4.4113293836e+01 -2.3292504844e-01 1.9999039074e-01 -2.3292504844e-01 4.2381187278e+01" charge=-1 multiplicity=1 method=wB97M-V basis=def2-svpd config_type=hso4- sample_index=321 temperature=300.0 units=atomic
S         0.1254175871       0.0006306526       0.0347211892   3.083340131684e-02   3.734363271330e-02  -4.946599030356e-02
O        -1.5072706465       0.1076049036      -0.0538104660  -2.534850085172e-02  -5.766520169405e-02   2.088949200242e-02
O         0.4537595049       1.4472530407      -0.0218083489   4.587233376744e-03  -7.963013811874e-03   1.178070058944e-02
O         0.5249397333      -0.7353933257       1.2353603421  -7.926518511153e-03  -5.774548565125e-03   1.588001963339e-02
O         0.4632814913      -0.7047735516      -1.2329843289   6.750236357815e-04  -6.548581010405e-03   7.818505281751e-03
H        -1.7268585081      -0.8794551933       0.0626491560  -2.843754874117e-03   4.062053206573e-02  -6.890815317599e-03
6
Properties=species:S:1:pos:R:3:forces:R:3 energy=-6.992916730244e+02 dipole="-1.0615504805e+00 -6.6837900620e-01 -7.9660087338e-02" quadrupole="-2.8448368524e+01 2.3646300465e+00 -7.1871693639e-01 2.3646300465e+00 -3.3386763043e+01 -1.4234604453e-01 -7.1871693639e-01 -1.4234604453e-01 -3.4171477716e+01" polarizability="4.3824355050e+01 1.4312830697e+00 5.8907218505e-01 1.4312830697e+00 4.3616925506e+01 3.1580866855e-02 5.8907218505e-01 3.1580866855e-02 4.2094036756e+01" charge=-1 multiplicity=1 method=wB97M-V basis=def2-svpd config_type=hso4- sample_index=322 temperature=300.0 units=atomic
S         0.1336069929      -0.0073304185      -0.0157334138   4.884242192778e-03   5.154674655168e-02   5.147796474396e-02
O        -1.5476301001       0.0594785990      -0.0468223529  -1.201524247005e-02   1.235965690187e-02   3.804450893168e-03
O         0.5005381534       1.4468587318       0.0526301129  -1.405504198121e-02  -2.266003859304e-02  -1.419454761152e-02
O         0.5310074192      -0.6707083094       1.2419167361  -8.640691295579e-03  -1.455719785302e-02   1.992807100020e-03
O         0.4554860039      -0.7135970603      -1.2210975767   1.286788797792e-02  -2.416994686761e-02  -4.324076474710e-02
H        -2.0559670683      -0.7536428505       0.0875753975   1.690863937330e-02  -2.471078439700e-03   2.019762300208e-04
6
Properties=species:S:1:pos:R:3:forces:R:3 energy=-6.992911562796e+02 dipole="-1.1349717575e+00 -3.1655586480e-01 1.1331086436e-01" quadrupole="-2.8626514632e+01 2.7700052879e+00 -8.7290795984e-02 2.7700052879e+00 -3.3600160704e+01 -1.4673884218e-01 -8.7290795984e-02 -1.4673884218e-01 -3.5059612948e+01" polarizability="4.3304679955e+01 1.0181302708e-01 2.9359702946e-02 1.0181302708e-01 4.4857546670e+01 8.3001455782e-02 2.9359702946e-02 8.3001455782e-02 4.5023548303e+01" charge=-1 multiplicity=1 method=wB97M-V basis=def2-svpd config_type=hso4- sample_index=323 temperature=300.0 units=atomic
S         0.1307912406       0.0269710731       0.0136050797   3.400893033034e-02  -5.502579437015e-02  -2.001464303929e-02
O        -1.5146374865       0.0982184505      -0.0192954962  -2.473208588693e-03   3.559202201127e-02   2.569472218097e-03
O         0.4431481984       1.4623717454      -0.0027106744   4.209672194039e-03  -2.708240455785e-03   2.779032569557e-03
O         0.5146253868      -0.7539110514       1.2709980243  -1.583886292530e-02   2.662926810210e-02  -3.531703364910e-02
O         0.4934687664      -0.7531301555      -1.2777430822  -1.357237865215e-02   3.033710724969e-02   4.846126004837e-02
H        -1.9308792462      -0.7363327631       0.0260016155  -6.325711471980e-03  -3.485684188712e-02   1.512730647599e-03
6
Properties=species:S:1:pos:R:3:forces:R:3 energy=-6.992954100177e+02 dipole="-7.4409774944e-01 -6.0229234186e-01 2.6559688046e-02" quadrupole="-3.0143204014e+01 2.3778054444e+00 3.7680552932e-01 2.3778054444e+00 -3.3049900300e+01 -7.8370260439e-02 3.7680552932e-01 -7.8370260439e-02 -3.4176711333e+01" polarizability="4.4892698023e+01 9.4891996308e-01 -5.3529147458e-01 9.4891996308e-01 4.4498357124e+01 5.8830244997e-01 -5.3529147458e-01 5.8830244997e-01 4.2597918553e+01" charge=-1 multiplicity=1 method=wB97M-V basis=def2-svpd config_type=hso4- sample_index=324 temperature=300.0 units=atomic
S         0.1522719061       0.0058912814      -0.0033642670  -1.124928037502e-02   3.800153669771e-02  -3.307662083933e-02
O        -1.5866359722       0.0901679841       0.0380725419   1.326716912188e-02  -4.685659973606e-02  -1.121217005840e-02
O         0.4795961463       1.4586658289       0.0060671432  -1.981506514481e-03  -1.795366018214e-02  -3.667227774236e-03
O         0.4691267353      -0.7067241402       1.2126673964   8.705621359047e-03  -2.100661709323e-02   3.165409578866e-02
O         0.5242265794      -0.7372480933      -1.2474252355  -1.211414850996e-02   9.811055334197e-03   1.268242132566e-02
H        -1.8081042636      -0.8940227606      -0.0446130602   3.344448496583e-03   3.802871765431e-02   3.572344591963e-03
6
Properties=species:S:1:pos:R:3:forces:R:3 energy=-6.992940062248e+02 dipole="-1.1765686390e+00 -5.0271755253e-01 -1.5754905939e-01" quadrupole="-2.8753778352e+01 2.4453453602e+00 2.3730346966e-01 2.4453453602e+00 -3.3541968625e+01 4.4590602974e-01 2.3730346966e-01 4.4590602974e-01 -3.4521210988e+01" polarizability="4.1569559077e+01 1.2432399718e+00 -2.4294707970e-02 1.2432399718e+00 4.4741395979e+01 -6.3523520873e-01 -2.4294707970e-02 -6.3523520873e-01 4.2322650848e+01" charge=-1 multiplicity=1 method=wB97M-V basis=def2-svpd config_type=hso4- sample_index=325 temperature=300.0 units=atomic
S         0.1153265441       0.0277762437      -0.0094991140   5.168183676999e-02   1.072845202615e-02   3.967817122290e-02
O        -1.4855254771       0.0526890507       0.0311934035  -4.350450529345e-02   6.925260090954e-03  -5.990059901523e-03
O         0.4932923172       1.4851881430      -0.0334993190  -1.298887321311e-02  -3.220852680280e-02   5.820313117719e-03
O         0.4567888773      -0.7646909133       1.2299542403  -2.297748089108e-03   2.122444618599e-02  -1.313173383762e-02
O         0.4958642335      -0.7152150297      -1.2051645325   9.291773061531e-04  -9.130215127056e-03  -2.762328600176e-02
H        -1.8214656024      -0.8511552426      -0.0626627967   6.205645145236e-03   2.481864173792e-03   1.315444479988e-03
6
Properties=species:S:1:pos:R:3:forces:R:3 energy=-6.992890100430e+02 dipole="-8.3961840434e-01 -3.9904405329e-01 6.4937440783e-02" quadrupole="-2.8903233749e+01 2.4206000702e+00 7.1885977219e-02 2.4206000702e+00 -3.2414635849e+01 -1.5437069736e-02 7.1885977219e-02 -1.5437069736e-02 -3.4889150816e+01" polarizability="4.3781695878e+01 1.2483943837e+00 -7.5856511314e-02 1.2483943837e+00 4.2076489719e+01 -5.0183360735e-02 -7.5856511314e-02 -5.0183360735e-02 4.4053707576e+01" charge=-1 multiplicity=1 method=wB97M-V basis=def2-svpd config_type=hso4- sample_index=326 temperature=300.0 units=atomic
S         0.1606517653       0.0183193441       0.0098122805  -2.643605297920e-02  -7.326339416256e-02  -1.552771520536e-02
O        -1.5526653514       0.0108049857      -0.0024368587   7.761321516124e-03   4.515626191309e-02   1.574642694287e-03
O         0.5253805470       1.3920146761      -0.0144347964   6.435528580067e-03   6.269335913355e-02   4.378785943006e-03
O         0.4551434562      -0.6724906543       1.2951531580   4.068911881150e-03  -3.727591721409e-03  -1.646667102938e-02
O         0.4562379521      -0.6575874849      -1.2977840831   2.652635204754e-03  -4.811515804608e-03   2.592857171138e-02
H        -2.0180598221      -0.8084954995      -0.0034748930   5.489732298825e-03  -2.602875383751e-02   1.258673187001e-04
6
Properties=species:S:1:pos:R:3:forces:R:3 energy=-6.992934932451e+02 dipole="-8.8333839090e-01 -5.0810606423e-01 -6.2682876969e-02" quadrupole="-2.9810408430e+01 2.0625531830e+00 -2.6303940408e-01 2.0625531830e+00 -3.3246988650e+01 -5.6959284217e-02 -2.6303940408e-01 -5.6959284217e-02 -3.4732638297e+01" polarizability="4.1298454248e+01 7.9772327361e-01 2.8542671530e-01 7.9772327361e-01 4.4398825569e+01 1.3728106703e-02 2.8542671530e-01 1.3728106703e-02 4.3614248394e+01" charge=-1 multiplicity=1 method=wB97M-V basis=def2-svpd config_type=hso4- sample_index=327 temperature=300.0 units=atomic
S         0.1404747521       0.0154530746      -0.0103537294   3.214898957086e-02   1.715951791037e-02   2.131270728816e-02
O        -1.4830446448       0.0703321111      -0.0182006552  -1.964505560534e-02  -2.036558661625e-02   3.514139071659e-03
O         0.4667571658       1.4675875266       0.0249322308   5.727504717552e-03  -1.747925929304e-02  -6.280211271407e-03
O         0.4720366959      -0.7166603113       1.2765351344  -4.426654294769e-03   9.700078068342e-03  -3.149865051684e-02
O         0.4405385260      -0.7360610567      -1.2645150717   5.570224279461e-03   6.156165171708e-03   1.346585455147e-02
H        -1.5888414927      -0.8967164536       0.0357446352  -1.937329450597e-02   4.874870448707e-03  -5.520022141516e-04
6
Properties=species:S:1:pos:R:3:forces:R:3 energy=-6.992877873842e+02 dipole="-6.4547330801e-01 -6.0873564829e-01 -9.1828329770e-02" quadrupole="-2.9586344541e+01 2.5703824053e+00 -4.6318375550e-01 2.5703824053e+00 -3.2993117817e+01 -1.1301429242e-01 -4.6318375550e-01 -1.1301429242e-01 -3.4217582555e+01" polarizability="4.4479327388e+01 1.4897446642e+00 3.5756663862e-01 1.4897446642e+00 4.4951293892e+01 6.9863558299e-02 3.5756663862e-01 6.9863558299e-02 4.2703584418e+01" charge=-1 multiplicity=1 method=wB97M-V basis=def2-svpd config_type=hso4- sample_index=328 temperature=300.0 units=atomic
S         0.1850034817       0.0015094609      -0.0171540534  -4.561254640025e-02   2.808265981418e-02   3.884580163036e-02
O        -1.5373737517       0.0980494399      -0.0269538957  -2.184546918503e-02  -7.287950337600e-02   8.216144334446e-03
O         0.4339934301       1.4562427713       0.0443083647   1.416793494677e-02  -6.647093210894e-03  -1.142777833324e-02
O         0.4888069534      -0.7002577510       1.2492260562   6.078510849172e-03  -6.275123822823e-03  -4.487484172504e-03
O         0.4415591455      -0.7396077931      -1.2353724126   1.856828087133e-02  -1.148047695722e-02  -2.492545655457e-02
H        -1.9011300298      -0.9057164754       0.0571204429   2.864749533873e-02   6.927322885517e-02  -6.256604316693e-03
6
Properties=species:S:1:pos:R:3:forces:R:3 energy=-6.992804000457e+02 dipole="-9.5501365891e-01 -7.0594206500e-01 6.6382896043e-02" quadrupole="-3.0485762702e+01 1.6667959270e+00 3.2862391439e-01 1.6667959270e+00 -3.3428860553e+01 -4.5835786488e-02 3.2862391439e-01 -4.5835786488e-02 -3.4227040136e+01" polarizability="4.2864630501e+01 1.0052840562e+00 -5.3055381936e-01 1.0052840562e+00 4.4762322002e+01 4.3161207023e-01 -5.3055381936e-01 4.3161207023e-01 4.2422420291e+01" charge=-1 multiplicity=1 method=wB97M-V basis=def2-svpd config_type=hso4- sample_index=329 temperature=300.0 units=atomic
S         0.1024886111      -0.0033281408       0.0041790404   6.451874793289e-02   9.448198948586e-02  -3.695284064262e-02
O        -1.5495245538       0.0817039975       0.0324759303   1.208383980427e-02  -6.030727347503e-02  -1.008673152299e-02
O         0.5144025894       1.4696524673      -0.0077125410  -1.632932733994e-02  -4.303464957029e-02   8.563669695353e-04
O         0.4755811490      -0.7070959983       1.2142989257  -9.802960243199e-05  -2.245288690237e-02   2.963818689661e-02
O         0.5258256025      -0.7191764238      -1.2448622124  -2.156686832376e-02   2.466049570971e-03   1.361779188027e-02
H        -1.4994529609      -0.9318689615      -0.0443298221  -3.864670515656e-02   2.885006318816e-02   2.877313495011e-03
6
Properties=species:S:1:pos:R:3:forces:R:3 energy=-6.992886721684e+02 dipole="-6.7692172901e-01 -2.2089427225e-01 2.9021713100e-02" quadrupole="-2.9948995022e+01 2.3976189561e+00 1.6388948519e-01 2.3976189561e+00 -3.2921762424e+01 -3.4468487340e-03 1.6388948519e-01 -3.4468487340e-03 -3.4397415043e+01" polarizability="4.1128532066e+01 -5.1448283959e-02 -1.8992186619e-01 -5.1448283959e-02 4.2766412151e+01 1.0026422443e-01 -1.8992186619e-01 1.0026422443e-01 4.2384384203e+01" charge=-1 multiplicity=1 method=wB97M-V basis=def2-svpd config_type=hso4- sample_index=330 temperature=300.0 units=atomic
S         0.1645977888       0.0491315081       0.0032039841  -1.488852652612e-02  -7.303424833973e-02  -1.218751278260e-02
O        -1.4977227788       0.0848764771       0.0133088347   3.923441593386e-03   5.876834648947e-02  -3.599149651928e-04
O         0.4261209031       1.4495078838      -0.0070499507   2.805503683631e-02   5.192698677498e-02   1.035696508383e-03
O         0.4497078305      -0.7603626553       1.2196037298   8.495496273297e-03   1.349817785728e-02   4.845315480431e-04
O         0.4709169231      -0.7603503166      -1.2311233591   1.180283371155e-03   2.101965759824e-02   1.336946290087e-02
H        -1.6131178943      -0.8145017334      -0.0202291475  -2.674589640136e-02  -7.228661466197e-02  -2.344478441139e-03
6
Properties=species:S:1:pos:R:3:forces:R:3 energy=-6.992768037119e+02 dipole="-9.3060727147e-01 -2.9102603520e-01 1.8457905582e-02" quadrupole="-2.8953973655e+01 2.6088420290e+00 1.9194864633e-01 2.6088420290e+00 -3.3523556753e+01 1.6999835415e-01 1.9194864633e-01 1.6999835415e-01 -3.4028762596e+01" polarizability="4.1336276073e+01 -1.4850963828e-01 -9.1128173181e-02 -1.4850963828e-01 4.3494111996e+01 -4.1346082184e-01 -9.1128173181e-02 -4.1346082184e-01 4.1366368165e+01" charge=-1 multiplicity=1 method=wB97M-V basis=def2-svpd config_type=hso4- sample_index=331 temperature=300.0 units=atomic
S         0.1446857523       0.0475060063       0.0099034336   5.858521293765e-04  -2.982953759933e-02  -4.124544615354e-03
O        -1.5141133498       0.0804454976       0.0085509498   5.498695133094e-02   1.719665836079e-01   8.233064010427e-03
O         0.4411636591       1.4875553347      -0.0333862249   3.894018035444e-03  -7.279368714034e-03   8.076822194794e-03
O         0.4800485658      -0.7992862089       1.1755657114   1.344720450961e-03   2.048456057375e-02   2.349897716108e-02
O         0.4964389768      -0.7586508089      -1.1690168427   1.913780148451e-03   8.597915638481e-03  -2.823141208171e-02
H        -1.8606095522      -0.6944496441      -0.0291555275  -6.265805293178e-02  -1.639709459952e-01  -7.401586659620e-03
6
Properties=species:S:1:pos:R:3:forces:R:3 energy=-6.992893465655e+02 dipole="-1.1039155154e+00 -5.2706492088e-01 -4.7345444378e-02" quadrupole="-2.9026393859e+01 2.3438099655e+00 -1.3643624715e-01 2.3438099655e+00 -3.3102598834e+01 2.5139621189e-01 -1.3643624715e-01 2.5139621189e-01 -3.4769389257e+01" polarizability="4.3821245302e+01 7.8983878549e-01 3.4865376631e-01 7.8983878549e-01 4.3201919849e+01 -7.5965765046e-01 3.4865376631e-01 -7.5965765046e-01 4.3994699976e+01" charge=-1 multiplicity=1 method=wB97M-V basis=def2-svpd config_type=hso4- sample_index=332 temperature=300.0 units=atomic
S         0.1157171711       0.0042248870       0.0044605869   3.450883061562e-02  -2.354103530644e-03   2.634456912136e-02
O        -1.5690711676       0.0485366308      -0.0159343194   3.347767416679e-02   8.096614325422e-02   2.256733293547e-03
O         0.5288684296       1.4229851640      -0.0307788712  -1.588245712195e-02  -6.190915965689e-04   9.994993735548e-03
O         0.5157517082      -0.7149074418       1.2953085611  -2.201656194300e-02   1.561461848170e-02  -4.102788204242e-02
O         0.4927731915      -0.6569099165      -1.2577885083  -6.549489885322e-03  -1.838733570941e-02   3.691673717725e-04
H        -1.9413666063      -0.7731613977       0.0016304593  -2.361879674322e-02  -7.523745975307e-02   2.076351408033e-03
6
Properties=species:S:1:pos:R:3:forces:R:3 energy=-6.992993655678e+02 dipole="-8.5010109349e-01 -4.7741765537e-01 -8.4924515636e-03" quadrupole="-2.9431756529e+01 2.3959675640e+00 -1.2089164194e-01 2.3959675640e+00 -3.2676469338e+01 -1.3159276094e-01 -1.2089164194e-01 -1.3159276094e-01 -3.4386583397e+01" polarizability="4.2577840818e+01 1.2706386433e+00 4.0225081642e-02 1.2706386433e+00 4.2858840368e+01 2.7416449160e-01 4.0225081642e-02 2.7416449160e-01 4.2039983016e+01" charge=-1 multiplicity=1 method=wB97M-V basis=def2-svpd config_type=hso4- sample_index=333 temperature=300.0 units=atomic
S         0.1477639792       0.0249873806      -0.0063945514  -1.117979879629e-02  -1.627705879722e-02  -7.555539879937e-04
O        -1.5356455858       0.0381527753      -0.0056214400  -1.009325696138e-02  -3.421739174763e-04   1.382748258659e-05
O         0.5062874574       1.4316444188       0.0247688040   4.799213153301e-04   2.228515967171e-02  -6.655671853783e-03
O         0.4688399439      -0.6864487481       1.2316607743   6.386028618695e-03  -1.391173413976e-02   1.529412697847e-02
O         0.4582953291      -0.7181767025      -1.2391088999   5.641600167294e-03  -1.623528528587e-03  -7.425807120281e-03
H        -1.8417068780      -0.8883083008       0.0209808533   8.732057489990e-03   9.913339744358e-03  -5.095726855354e-04
6
Properties=species:S:1:pos:R:3:forces:R:3 energy=-6.992890437420e+02 dipole="-7.3041758223e-01 -2.8896725632e-01 -1.2372903580e-01" quadrupole="-3.0295613732e+01 2.3204365697e+00 4.7444615044e-01 2.3204365697e+00 -3.2714677486e+01 3.3647289012e-01 4.7444615044e-01 3.3647289012e-01 -3.4201232123e+01" polarizability="4.2592231440e+01 -1.1108184348e-01 -4.6107821523e-01 -1.1108184348e-01 4.1802108423e+01 -1.5690690948e-01 -4.6107821523e-01 -1.5690690948e-01 4.1879382594e+01" charge=-1 multiplicity=1 method=wB97M-V basis=def2-svpd config_type=hso4- sample_index=334 temperature=300.0 units=atomic
S         0.1403109526       0.0352076881      -0.0118707196  -3.061248550865e-03  -5.976973212685e-02   2.003606359266e-02
O        -1.5598267587       0.0938989697       0.0584855851   2.222853694299e-02   3.510434702370e-02  -5.776971364179e-03
O         0.4606192922       1.4124617849      -0.0262778780   2.076716667129e-02   7.236324490689e-02   1.819685533885e-03
O         0.4599265516      -0.7437887286       1.2146753992  -3.935040047471e-04   7.061613893207e-03  -3.772565993501e-04
O         0.5386904315      -0.7212075166      -1.2178448519  -1.269309393146e-02  -3.591224181623e-04  -9.114387322196e-03
H        -1.6395944419      -0.8115164194      -0.0928171644  -2.684674662019e-02  -5.448242177340e-02  -6.525189517927e-03
6
Properties=species:S:1:pos:R:3:forces:R:3 energy=-6.992819739564e+02 dipole="-5.7330954091e-01 -5.1932136983e-01 -8.3019994349e-02" quadrupole="-3.1163976885e+01 2.1114720841e+00 -2.5453816205e-01 2.1114720841e+00 -3.2170299314e+01 -1.3775663622e-01 -2.5453816205e-01 -1.3775663622e-01 -3.4184516323e+01" polarizability="4.5974849302e+01 1.1926882974e+00 2.1009371568e-01 1.1926882974e+00 4.3224269233e+01 2.7134247830e-01 2.1009371568e-01 2.7134247830e-01 4.2316622134e+01" charge=-1 multiplicity=1 method=wB97M-V basis=def2-svpd config_type=hso4- sample_index=335 temperature=300.0 units=atomic
S         0.1496479169       0.0150974060      -0.0177030985  -2.219399669721e-02  -2.807081824796e-03   2.070382082568e-02
O        -1.6388200739       0.0674607818      -0.0093977737   3.754146170698e-02  -8.437703005359e-02   2.053416280675e-03
O         0.5263761185       1.3975920953       0.0449442431   4.755404889432e-03   5.098889071159e-02  -1.239943047426e-02
O         0.5089769346      -0.6609157778       1.2329981617  -6.391581261363e-03  -2.340738120077e-02   1.128296092054e-02
O         0.4875789901      -0.7117872721      -1.2349626216  -2.121589729407e-03  -1.219727761075e-02  -1.877654943494e-02
H        -1.6791543917      -1.0036741300       0.0354479574  -1.165805573380e-02   7.180953710073e-02  -2.875565091938e-03
6
Properties=species:S:1:pos:R:3:forces:R:3 energy=-6.992958408165e+02 dipole="-7.9116258063e-01 -3.3251374760e-01 8.2801106708e-02" quadrupole="-2.9510709245e+01 2.7196653506e+00 -7.7900297596e-02 2.7196653506e+00 -3.3150483832e+01 -7.6378012812e-03 -7.7900297596e-02 -7.6378012812e-03 -3.4730809443e+01" polarizability="4.4117080573e+01 6.2213123193e-01 1.2357868013e-01 6.2213123193e-01 4.5144801977e+01 -2.8861964151e-01 1.2357868013e-01 -2.8861964151e-01 4.4230841575e+01" charge=-1 multiplicity=1 method=wB97M-V basis=def2-svpd config_type=hso4- sample_index=336 temperature=300.0 units=atomic
S         0.1671115985       0.0386532388       0.0148976098  -1.591771121191e-02  -5.324195467993e-02  -1.284342357108e-02
O        -1.5416102151       0.0737078162      -0.0205819504  -4.215035581225e-04  -4.453868961997e-03   6.167923831579e-03
O         0.4549888981       1.4757585868      -0.0186375082   7.251064542941e-03  -2.512621883842e-03   6.418461398728e-03
O         0.4851852922      -0.7703488636       1.2591089963  -3.741218983387e-03   2.924504818174e-02  -2.615698927686e-02
O         0.4619174909      -0.7427448422      -1.2508404690   2.480502291707e-03   2.108937144053e-02   2.696462779009e-02
H        -1.8722643200      -0.8450364042       0.0178834256   1.037889124928e-02   9.841178422649e-03  -5.273713700736e-04
6
Properties=species:S:1:pos:R:3:forces:R:3 energy=-6.992963876640e+02 dipole="-7.8012636395e-01 -4.7400602752e-01 1.3296507694e-01" quadrupole="-2.9417028381e+01 2.5990115790e+00 -2.8525515410e-01 2.5990115790e+00 -3.2773744138e+01 -1.6322235877e-01 -2.8525515410e-01 -1.6322235877e-01 -3.4371241387e+01" polarizability="4.3486124075e+01 1.0318375903e+00 2.3180817485e-01 1.0318375903e+00 4.3314517586e+01 -1.6638374734e-01 2.3180817485e-01 -1.6638374734e-01 4.2467576149e+01" charge=-1 multiplicity=1 method=wB97M-V basis=def2-svpd config_type=hso4- sample_index=337 temperature=300.0 units=atomic
S         0.1620528897       0.0167958472       0.0184260842  -2.594893101297e-02  -2.375696359622e-02  -2.024666930875e-02
O        -1.5392646059       0.0784593308      -0.0432739876  -1.555411524320e-02  -3.854522651746e-02   1.436447122025e-02
O         0.4615640751       1.4281056528      -0.0047475315   1.213516919138e-02   3.203081860385e-02   4.695594451025e-03
O         0.5018497059      -0.7194460124       1.2447088543   2.981087146949e-04  -2.915859651766e-03   7.309098842157e-03
O         0.4476268686      -0.7057184361      -1.2368495442   1.050154759266e-02  -6.170318574275e-03  -1.433839142841e-03
H        -1.8838044423      -0.8715387290       0.0559451551   1.856789623372e-02   3.935974959710e-02  -4.666304783762e-03
6
Properties=species:S:1:pos:R:3:forces:R:3 energy=-6.992902242653e+02 dipole="-5.6743448809e-01 -3.3306566440e-01 -1.6092366847e-01" quadrupole="-2.9874997264e+01 2.7654850206e+00 -1.1466535912e-02 2.7654850206e+00 -3.2540450716e+01 4.2303315367e-01 -1.1466535912e-02 4.2303315367e-01 -3.4410460213e+01" polarizability="4.4576338990e+01 3.4630338422e-01 3.0632303927e-01 3.4630338422e-01 4.2937478018e+01 -8.6086710193e-01 3.0632303927e-01 -8.6086710193e-01 4.3166117508e+01" charge=-1 multiplicity=1 method=wB97M-V basis=def2-svpd config_type=hso4- sample_index=338 temperature=300.0 units=atomic
S         0.1862736659       0.0280623147      -0.0081224970  -5.524732891632e-02  -8.023914631970e-02   5.669244790584e-02
O        -1.5719771662       0.0916652678       0.0075070408   9.171013279250e-03  -1.976682859955e-02  -1.700288556326e-03
O         0.4389895594       1.4144282940      -0.0325857084   2.536360694293e-02   7.609274665086e-02   6.350565856666e-03
O         0.4761987276      -0.7550219686       1.2713418645  -1.219023358739e-03   2.615241443919e-02  -3.657334198333e-02
O         0.4808618328      -0.6938159163      -1.2283194105   1.199568162841e-02  -1.971506851254e-02  -2.622883040033e-02
H        -1.8938234360      -0.8386848607      -0.0321339164   9.955473053655e-03   1.747122835997e-02   1.526604521827e-03
6
Properties=species:S:1:pos:R:3:forces:R:3 energy=-6.992884096796e+02 dipole="-1.0345411912e+00 -4.7606647638e-01 -1.0750460949e-01" quadrupole="-2.9135138092e+01 2.6770815699e+00 -7.4588067540e-01 2.6770815699e+00 -3.3143087455e+01 -2.8258547261e-01 -7.4588067540e-01 -2.8258547261e-01 -3.4873801248e+01" polarizability="4.4522091804e+01 1.6977007057e+00 5.8060314641e-01 1.6977007057e+00 4.5687006388e+01 3.0274849789e-01 5.8060314641e-01 3.0274849789e-01 4.4263520162e+01" charge=-1 multiplicity=1 method=wB97M-V basis=def2-svpd config_type=hso4- sample_index=339 temperature=300.0 units=atomic
S         0.1358383789       0.0236332647      -0.0245409505   1.972648052323e-02  -2.035012705521e-02   4.102721781177e-02
O        -1.5363142673       0.0596993809      -0.0472706860  -3.227353204738e-02  -5.219760242902e-02   1.335852833722e-02
O         0.4964560885       1.4610105574       0.0767389006  -7.751014469885e-03  -1.309475273159e-02  -1.952766364973e-02
O         0.5227870165      -0.6883325668       1.2693642460  -1.521915024575e-02   8.519335403795e-03  -3.525975228109e-02
O         0.4430120781      -0.7622193389      -1.2552428866   3.252563506964e-03   1.611005701972e-02   1.023396427933e-02
H        -1.9150297333      -0.9154369783       0.1010365215   3.225543389620e-02   6.102069088492e-02  -9.868742961781e-03
6
Properties=species:S:1:pos:R:3:forces:R:3 energy=-6.992897711318e+02 dipole="-7.9314070946e-01 -6.8515282478e-01 -2.5928334812e-01" quadrupole="-2.9358529637e+01 2.3654000139e+00 -2.8738363401e-01 2.3654000139e+00 -3.3348599360e+01 3.1106465185e-01 -2.8738363401e-01 3.1106465185e-01 -3.4125982720e+01" polarizability="4.2321545968e+01 1.0139792099e+00 4.1790602722e-01 1.0139792099e+00 4.4396961488e+01 -5.0911702124e-01 4.1790602722e-01 -5.0911702124e-01 4.2006534347e+01" charge=-1 multiplicity=1 method=wB97M-V basis=def2-svpd config_type=hso4- sample_index=340 temperature=300.0 units=atomic
S         0.1642664904      -0.0081383101      -0.0290136236  -2.208316238972e-02   7.079182465884e-02   9.795148316729e-02
O        -1.4956246251       0.1107340619       0.0007917929  -2.640104517840e-02  -5.363944936563e-02  -2.930531930341e-03
O         0.4215718321       1.4651035200       0.0163856886   1.491615029123e-02  -2.167956721523e-02  -7.287972116000e-03
O         0.4748166149      -0.7250594737       1.2536314414   2.359197291273e-03   4.188806243580e-03  -1.990702653299e-02
O         0.4605010167      -0.7196133428      -1.2127872125   2.361972394355e-02  -3.998321878978e-02  -6.850503054071e-02
H        -1.7911830408      -0.8612967313       0.0016623783   7.583286495041e-03   4.040659700882e-02   6.785828551641e-04
6
Properties=species:S:1:pos:R:3:forces:R:3 energy=-6.992865037219e+02 dipole="-6.9473102653e-01 -4.1732606733e-01 -1.3405306217e-01" quadrupole="-2.9829518603e+01 2.2893881323e+00 -3.3582185358e-01 2.2893881323e+00 -3.2423570256e+01 -2.4439027045e-01 -3.3582185358e-01 -2.4439027045e-01 -3.4851737738e+01" polarizability="4.1782733348e+01 1.4180443904e+00 1.6115661784e-01 1.4180443904e+00 4.3745800922e+01 6.7115144915e-01 1.6115661784e-01 6.7115144915e-01 4.3621153908e+01" charge=-1 multiplicity=1 method=wB97M-V basis=def2-svpd config_type=hso4- sample_index=341 temperature=300.0 units=atomic
S         0.1722781731       0.0296149742      -0.0307948412  -2.547978623280e-02  -4.827287088341e-02   2.662942507397e-02
O        -1.4841612824       0.0374085924      -0.0042184313  -3.017570538282e-02  -5.690172948589e-02  -1.723603389999e-03
O         0.4776175874       1.4277957739       0.0748446710   1.894153431915e-02   4.467206082569e-02  -1.964668806847e-02
O         0.4322766071      -0.6566063020       1.2734012255   1.485686183018e-02  -1.209063066926e-02  -1.677571922268e-02
O         0.4129082212      -0.7469772744      -1.2846167779   1.572692412457e-02   1.282087160596e-02   1.433132145188e-02
H        -1.6724233680      -0.9875220131       0.0444030174   6.164261417223e-03   5.975617773071e-02  -2.886921179621e-03
6
Properties=species:S:1:pos:R:3:forces:R:3 energy=-6.992902747257e+02 dipole="-7.3649364982e-01 -2.2363542148e-01 1.1206756698e-02" quadrupole="-2.9618842739e+01 2.5240730503e+00 -3.6753749657e-02 2.5240730503e+00 -3.2661035282e+01 -9.0710468631e-03 -3.6753749657e-02 -9.0710468631e-03 -3.4467133439e+01" polarizability="4.1162989834e+01 7.7340622474e-02 4.1975793336e-02 7.7340622474e-02 4.1845792873e+01 -3.5157477133e-02 4.1975793336e-02 -3.5157477133e-02 4.2226327596e+01" charge=-1 multiplicity=1 method=wB97M-V basis=def2-svpd config_type=hso4- sample_index=342 temperature=300.0 units=atomic
S         0.1611079219       0.0457390441       0.0018401366  -2.264411742207e-02  -1.009913661820e-01  -7.034329006028e-04
O        -1.5037566983       0.0736009991      -0.0052715311   5.681444331689e-03   6.442158061991e-02   5.827822983881e-04
O         0.4415164906       1.4210133419      -0.0010032862   2.903309162451e-02   8.514723187706e-02   5.601765869282e-04
O         0.4658320563      -0.7388432793       1.2340529906   4.088607753875e-03   1.082853104503e-02  -4.990542039220e-03
O         0.4589726453      -0.7359583681      -1.2318420435   6.024692981478e-03   9.114189794927e-03   3.797559117775e-03
H        -1.7122261028      -0.8097211194       0.0064390149  -2.216086317349e-02  -6.859826362205e-02   7.570792773211e-04
6
Properties=species:S:1:pos:R:3:forces:R:3 energy=-6.992846246723e+02 dipole="-9.1128272142e-01 -7.1716887963e-01 5.1593267137e-02" quadrupole="-2.9204530023e+01 2.3847818894e+00 1.0044080583e+00 2.3847818894e+00 -3.3595662333e+01 -9.9362119213e-02 1.0044080583e+00 -9.9362119213e-02 -3.4389968042e+01" polarizability="4.4784324087e+01 1.1946173927e+00 -1.2043543557e+00 1.1946173927e+00 4.5504785893e+01 1.2510328719e+00 -1.2043543557e+00 1.2510328719e+00 4.3792669296e+01" charge=-1 multiplicity=1 method=wB97M-V basis=def2-svpd config_type=hso4- sample_index=343 temperature=300.0 units=atomic
S         0.1526577354      -0.0181286305      -0.0047011636  -3.092135024358e-03   6.900115143662e-02  -7.362713193064e-02
O        -1.5368372406       0.1017124345       0.0962069961  -2.152212736241e-02  -4.761481426715e-02  -2.850745841074e-02
O         0.4524645513       1.4730751433      -0.0017652577   4.792919338126e-05  -4.289800540945e-02  -4.560797298315e-03
O         0.4186557569      -0.6872286451       1.2240366911   2.660068821011e-02  -3.997859356280e-02   4.894597345608e-02
O         0.5590461898      -0.7392889019      -1.3018938613  -2.259640971818e-02   2.036315961614e-02   4.722797062430e-02
H        -1.9287328061      -0.8175721328      -0.1225328809   2.054642059337e-02   4.116290178887e-02   1.041853743597e-02
6
Properties=species:S:1:pos:R:3:forces:R:3 energy=-6.992918839934e+02 dipole="-9.7988054518e-01 -5.0926343796e-01 1.2710759815e-01" quadrupole="-2.8234724220e+01 2.5296210036e+00 3.8897033554e-01 2.5296210036e+00 -3.3167686733e+01 -6.8873292731e-02 3.8897033554e-01 -6.8873292731e-02 -3.4332032215e+01" polarizability="4.2442984556e+01 1.5084636460e+00 -3.6037950113e-01 1.5084636460e+00 4.3407351375e+01 2.1052192931e-01 -3.6037950113e-01 2.1052192931e-01 4.1901090813e+01" charge=-1 multiplicity=1 method=wB97M-V basis=def2-svpd config_type=hso4- sample_index=344 temperature=300.0 units=atomic
S         0.1550679633       0.0170047310       0.0159468396  -1.323498395008e-02   2.929617800600e-03  -5.449075043978e-02
O        -1.4944469080       0.0450121552       0.0193027756  -4.388279446178e-02   6.261209641540e-03  -2.370516246246e-03
O         0.4751843206       1.4515992699      -0.0236141699   9.231481278267e-04  -4.936496203740e-04   6.789393667395e-03
O         0.4384658175      -0.7155298386       1.2170074568   2.231419220776e-02  -2.146869694221e-02   4.552281680971e-02
O         0.4748520871      -0.7057110129      -1.2426811887   5.301379931085e-03   5.484591625375e-04   3.772765322900e-03
H        -2.0183938534      -0.7888374464      -0.0348022791   2.856267250034e-02   1.227027488422e-02   7.819510265401e-04
6
Properties=species:S:1:pos:R:3:forces:R:3 energy=-6.992804273410e+02 dipole="-4.7283583136e-01 -3.6486235080e-01 -3.7478514296e-02" quadrupole="-3.0188070019e+01 2.3040647750e+00 -3.6252146981e-01 2.3040647750e+00 -3.1965867960e+01 -4.5297683410e-02 -3.6252146981e-01 -4.5297683410e-02 -3.3774072038e+01" polarizability="4.1885649869e+01 1.5012404845e+00 3.1570878987e-01 1.5012404845e+00 4.1745943083e+01 -1.5914418479e-01 3.1570878987e-01 -1.5914418479e-01 3.9844698727e+01" charge=-1 multiplicity=1 method=wB97M-V basis=def2-svpd config_type=hso4- sample_index=345 temperature=300.0 units=atomic
S         0.1822610154       0.0525903667      -0.0043251868  -7.324954156544e-02  -3.460223989893e-02   3.321220131317e-02
O        -1.5331093754       0.0113641354      -0.0307667760  -1.501125298697e-02  -2.503365189475e-02   9.812133122933e-03
O         0.5048270012       1.4235577840       0.0164673378   1.886375951494e-02   7.781666858645e-02  -2.604921837238e-03
O         0.4488356527      -0.7078848225       1.1860290095   2.147839287596e-02  -2.029483120665e-02   5.538548734253e-02
O         0.4015627576      -0.7118473488      -1.1657843398   3.724449172497e-02  -4.112287874931e-02  -9.226100334541e-02
H        -1.7373791686      -0.9794462972       0.0476906448   1.061299786670e-02   4.318036883205e-02  -3.528933516471e-03
6
Properties=species:S:1:pos:R:3:forces:R:3 energy=-6.992922193866e+02 dipole="-6.3857012751e-01 -4.2410218422e-01 -1.0804592215e-02" quadrupole="-2.9687027572e+01 2.3666875932e+00 -4.6206669101e-01 2.3666875932e+00 -3.2362772392e+01 -8.6684891773e-02 -4.6206669101e-01 -8.6684891773e-02 -3.4428448078e+01" polarizability="4.4962664948e+01 1.7044996460e+00 4.1414790463e-01 1.7044996460e+00 4.3081935999e+01 -1.0555198636e-01 4.1414790463e-01 -1.0555198636e-01 4.2991031224e+01" charge=-1 multiplicity=1 method=wB97M-V basis=def2-svpd config_type=hso4- sample_index=346 temperature=300.0 units=atomic
S         0.1751142487       0.0326576834      -0.0025027848  -4.086437153439e-02  -4.170431939926e-02   2.165511475222e-02
O        -1.5858668918      -0.0045695529      -0.0378188141   4.850780877735e-03   1.950679750848e-02   5.592662026899e-03
O         0.5428537552       1.4296845136       0.0206766872  -2.150745676794e-03   2.777270874864e-02  -3.881685846580e-03
O         0.4759296719      -0.6836300696       1.2644364832   2.523281513875e-03  -1.478794301022e-04  -9.252252317140e-03
O         0.4194419952      -0.6925770649      -1.2456713333   1.764317664928e-02  -9.046545541453e-03  -1.425665416864e-02
H        -1.9799424620      -0.8874024616       0.0596441530   1.799454362073e-02   3.656204380881e-03   1.225655345137e-04
6
Properties=species:S:1:pos:R:3:forces:R:3 energy=-6.992885576667e+02 dipole="-6.3526650413e-01 -3.4334946049e-01 -1.5269067197e-02" quadrupole="-2.9862844411e+01 2.7150733317e+00 -1.5079938719e-01 2.7150733317e+00 -3.3239921486e+01 3.8789427382e-01 -1.5079938719e-01 3.8789427382e-01 -3.4638072479e+01" polarizability="4.5195576649e+01 4.8997762997e-01 4.9385208112e-01 4.8997762997e-01 4.6139447909e+01 -1.4048097644e+00 4.9385208112e-01 -1.4048097644e+00 4.4769453549e+01" charge=-1 multiplicity=1 method=wB97M-V basis=def2-svpd config_type=hso4- sample_index=347 temperature=300.0 units=atomic
S         0.1877452802       0.0394014910       0.0165336244  -3.578216896248e-02  -4.078804918050e-02   1.915915102654e-02
O        -1.5604913990       0.0787783015      -0.0278538456   1.123617085603e-02  -2.588642754852e-03   8.840787804624e-03
O         0.4427101223       1.4954950165      -0.0595779822   9.268653361135e-03  -1.757550961599e-02   1.541948358799e-02
O         0.4863563249      -0.8202048827       1.2831855478  -6.220810880698e-03   5.034365118069e-02  -4.763859317173e-02
O         0.4508053582      -0.7191583540      -1.2292508622   1.296052988935e-02   3.743634451519e-03   3.954030431835e-03
H        -1.8751551715      -0.8422960754       0.0015198900   8.545717411637e-03   6.859347049975e-03   2.965115668601e-04
6
Properties=species:S:1:pos:R:3:forces:R:3 energy=-6.992877978216e+02 dipole="-9.8415908600e-01 -3.4763199740e-01 -2.4632634522e-01" quadrupole="-2.9968051237e+01 2.1702023154e+00 5.4385590574e-01 2.1702023154e+00 -3.2604270510e+01 4.2974869924e-01 5.4385590574e-01 4.2974869924e-01 -3.4561159285e+01" polarizability="4.4905880155e+01 1.4917624545e+00 -4.3585497249e-01 1.4917624545e+00 4.3252375224e+01 -1.6092408577e-01 -4.3585497249e-01 -1.6092408577e-01 4.2906328334e+01" charge=-1 multiplicity=1 method=wB97M-V basis=def2-svpd config_type=hso4- sample_index=348 temperature=300.0 units=atomic
S         0.1077941014       0.0501963708      -0.0278635819   3.153405692090e-02  -4.272733295737e-02   4.357783103147e-02
O        -1.6096274715      -0.0148731961       0.0722600858   2.608511495606e-02   7.038509140573e-02  -4.114497114197e-03
O         0.6016334653       1.4295683552      -0.0141238293  -2.416138620900e-02   1.415044388342e-02  -1.753317330617e-03
O         0.4474417616      -0.7063570315       1.2307833993  -7.024302022901e-03   1.190919854714e-02  -1.474705514133e-02
O         0.5383442090      -0.6945826828      -1.2270185354  -1.826827884788e-02  -1.484019842612e-03  -1.255994379089e-02
H        -1.8457250391      -0.8856959303      -0.1065872448  -8.166153740036e-03  -5.222719707945e-02  -1.034454015609e-02
6
Properties=species:S:1:pos:R:3:forces:R:3 energy=-6.992886893268e+02 dipole="-8.5042293549e-01 -5.3552436600e-01 -5.6181721899e-02" quadrupole="-3.0446195894e+01 1.9672296621e+00 1.4925861615e-01 1.9672296621e+00 -3.2829244310e+01 1.2232264428e-02 1.4925861615e-01 1.2232264428e-02 -3.4609350378e+01" polarizability="4.2920600009e+01 1.0102797639e+00 -2.5914675249e-01 1.0102797639e+00 4.4081859712e+01 3.5461855352e-01 -2.5914675249e-01 3.5461855352e-01 4.3202035999e+01" charge=-1 multiplicity=1 method=wB97M-V basis=def2-svpd config_type=hso4- sample_index=349 temperature=300.0 units=atomic
S         0.1252435416       0.0132659229      -0.0122265153   3.139372934964e-02   2.015725319967e-02   3.771617722202e-03
O        -1.5447296895       0.0698273814       0.0280712357   8.632016494509e-03  -7.298149913890e-02  -1.160138419420e-02
O         0.5057282783       1.4360607923       0.0140046780  -1.173748722891e-03   2.259943280851e-03  -6.213012372183e-03
O         0.4641290758      -0.6921409280       1.2509524280  -2.254823737459e-03  -7.958280572712e-03  -8.085486818050e-03
O         0.4997851720      -0.7196127195      -1.2667665963  -1.310966822169e-02   5.688266573403e-03   1.810068538069e-02
H        -1.5571544023      -0.9733247608      -0.0294571521  -2.354229044154e-02   5.285877450260e-02   3.997644459097e-03
6
Properties=species:S:1:pos:R:3:forces:R:3 energy=-6.992878278274e+02 dipole="-8.9187406652e-01 -5.6606134595e-01 -5.1724600545e-02" quadrupole="-2.9653312879e+01 1.9860885817e+00 -1.6338613808e-02 1.9860885817e+00 -3.2290553054e+01 -2.2667110289e-01 -1.6338613808e-02 -2.2667110289e-01 -3.5108919413e+01" polarizability="4.1777325446e+01 2.0200536660e+00 -1.4555842209e-01 2.0200536660e+00 4.3232874981e+01 7.7272618592e-01 -1.4555842209e-01 7.7272618592e-01 4.4128959285e+01" charge=-1 multiplicity=1 method=wB97M-V basis=def2-svpd config_type=hso4- sample_index=350 temperature=300.0 units=atomic
S         0.1427027603       0.0112218464      -0.0192500309   1.100152036148e-02  -9.726381562915e-03  -3.252069889201e-03
O        -1.4935446532      -0.0030163356       0.0171213604  -3.505100547449e-02  -3.886480969307e-02  -8.707538012012e-03
O         0.5455079957       1.4068662046       0.0535523948  -1.810848835682e-05   2.663218109632e-02  -1.762308040349e-02
O         0.4151463004      -0.6125421881       1.2920056211   1.494783087823e-02  -3.030171061382e-02  -3.780124830307e-03
O         0.4328348780      -0.6931928704      -1.3243048434   2.788290531141e-03   6.009147178817e-03   3.290496238125e-02
H        -1.6960089143      -1.0041669260       0.0073548662   6.350874004084e-03   4.625826328844e-02   4.377937311036e-04
6
Properties=species:S:1:pos:R:3:forces:R:3 energy=-6.992851241802e+02 dipole="-6.4021992231e-01 -8.3532828842e-01 -1.1473215722e-01" quadrupole="-2.9900126469e+01 1.6761110223e+00 7.0418327703e-01 1.6761110223e+00 -3.3014674364e+01 3.5100371439e-01 7.0418327703e-01 3.5100371439e-01 -3.3707952153e+01" polarizability="4.1954124352e+01 1.4470466154e+00 -6.2376348522e-01 1.4470466154e+00 4.2734463124e+01 -1.9334721652e-02 -6.2376348522e-01 -1.9334721652e-02 4.1052520812e+01" charge=-1 multiplicity=1 method=wB97M-V basis=def2-svpd config_type=hso4- sample_index=351 temperature=300.0 units=atomic
S         0.1696704765      -0.0190235086      -0.0114251962  -3.658971177101e-02   1.224809848643e-01   3.123403674217e-04
O        -1.5238531670       0.0380608670       0.0800776484   3.377251385100e-03   2.765805535943e-02  -1.320574351001e-02
O         0.4988649666       1.4559907531      -0.0308207475  -1.947610573485e-03  -3.187558670809e-02   3.658327832712e-03
O         0.3810558986      -0.6799996695       1.2229178754   3.708763235091e-02  -4.718062038077e-02   6.323887901416e-02
O         0.4919367108      -0.6637053716      -1.2423085980   1.302790631210e-02  -4.093865295704e-02  -4.851382774738e-02
H        -1.7386544869      -0.8508844303      -0.1225404050  -1.498740186509e-02  -3.007658379383e-02  -5.432857618618e-03
6
Properties=species:S:1:pos:R:3:forces:R:3 energy=-6.992934674845e+02 dipole="-5.1580913115e-01 -4.5850135670e-01 -2.3830528012e-03" quadrupole="-3.0802122042e+01 1.9154111806e+00 -1.8249707484e-01 1.9154111806e+00 -3.2712267325e+01 -2.3204811841e-01 -1.8249707484e-01 -2.3204811841e-01 -3.4575587405e+01" polarizability="4.3781850253e+01 1.2263198497e+00 9.0053268599e-02 1.2263198497e+00 4.4654758488e+01 5.0094848475e-01 9.0053268599e-02 5.0094848475e-01 4.3936476783e+01" charge=-1 multiplicity=1 method=wB97M-V basis=def2-svpd config_type=hso4- sample_index=352 temperature=300.0 units=atomic
S         0.1785846337       0.0284147734      -0.0087953292  -2.700244417896e-02   1.682832778559e-04  -1.686177961069e-03
O        -1.5552601061       0.0320427330      -0.0116465659   2.025672563531e-02  -2.738891112054e-02   1.940993447154e-03
O         0.5029241082       1.4708496085       0.0390420582   4.068876333428e-03  -1.276012972025e-02  -9.773621259339e-03
O         0.4467487778      -0.6953965239       1.2667205618   8.112546423681e-03  -1.250982043608e-04  -1.490843830208e-02
O         0.4267105467      -0.7451684987      -1.2784674405   9.000367340039e-03   1.744391935748e-02   2.578873775695e-02
H        -1.5975019413      -0.9590907179       0.0368919061  -1.440553691781e-02   2.267119998946e-02  -1.412361012797e-03
6
Properties=species:S:1:pos:R:3:forces:R:3 energy=-6.992881503767e+02 dipole="-8.0721625298e-01 -7.6602132006e-01 1.8485022455e-01" quadrupole="-2.9616912495e+01 1.9077588667e+00 1.4419450658e-01 1.9077588667e+00 -3.2425312534e+01 -1.5206064981e-01 1.4419450658e-01 -1.5206064981e-01 -3.4371900715e+01" polarizability="4.2990510488e+01 2.5494853730e+00 -2.2300784152e-01 2.5494853730e+00 4.3247631156e+01 1.2751152897e-01 -2.2300784152e-01 1.2751152897e-01 4.2301765256e+01" charge=-1 multiplicity=1 method=wB97M-V basis=def2-svpd config_type=hso4- sample_index=353 temperature=300.0 units=atomic
S         0.1526316592      -0.0060842183       0.0235653075  -1.782029906412e-02   6.344791475287e-02  -6.589354028870e-02
O        -1.5353856542      -0.0075155684      -0.0081238263  -2.295167678893e-02  -3.067875298530e-02   4.632509938775e-03
O         0.5613297510       1.4229723611      -0.0221145564  -1.243178847740e-02  -6.305807550667e-03   8.971353543758e-03
O         0.4315386847      -0.6498249877       1.2585171829   2.186247820599e-02  -4.433541523000e-02   5.453270751634e-02
O         0.4315202724      -0.6343050311      -1.2756769251   1.217876642369e-02  -2.607065746311e-02  -1.560222178909e-03
H        -1.8394577449      -0.9810333305       0.0024268953   1.914116924459e-02   4.401040289695e-02  -7.266628366418e-04
6
Properties=species:S:1:pos:R:3:forces:R:3 energy=-6.992879448600e+02 dipole="-6.2071092541e-01 -2.0246665473e-01 1.1008555182e-01" quadrupole="-2.9494417625e+01 2.7692527636e+00 6.8603458725e-01 2.7692527636e+00 -3.2492274939e+01 1.5651220630e-01 6.8603458725e-01 1.5651220630e-01 -3.4318723786e+01" polarizability="4.3119642631e+01 6.0706518412e-01 -5.2549327232e-01 6.0706518412e-01 4.2614069579e+01 -1.6466277819e-01 -5.2549327232e-01 -1.6466277819e-01 4.2255014342e+01" charge=-1 multiplicity=1 method=wB97M-V basis=def2-svpd config_type=hso4- sample_index=354 temperature=300.0 units=atomic
S         0.1838608106       0.0560404221       0.0212998220  -5.593412581829e-02  -1.151150359112e-01  -4.219646321509e-02
O        -1.5391644700       0.0481879995       0.0410398712  -9.168175904719e-04   2.343693075092e-02  -2.906986365847e-03
O         0.4599394808       1.4294530941      -0.0580236384   2.256196213439e-02   8.311546119571e-02   1.110116921034e-02
O         0.4193242854      -0.7633841662       1.2067857574   2.133029372608e-02   5.347855460167e-03   2.638069478773e-02
O         0.4890824474      -0.7140995409      -1.2279029331   3.606262312096e-03   1.056115221250e-02   8.207093347846e-03
H        -1.9041696712      -0.8292130283      -0.0822836968   9.319806035932e-03  -7.383499280872e-03  -6.120413775260e-04
6
Properties=species:S:1:pos:R:3:forces:R:3 energy=-6.992892517958e+02 dipole="-8.6790709195e-01 -4.0643225605e-01 1.8944136687e-01" quadrupole="-2.9979117132e+01 2.6674358871e+00 -2.3666467938e-01 2.6674358871e+00 -3.2763853631e+01 -3.9850654784e-01 -2.3666467938e-01 -3.9850654784e-01 -3.4685927008e+01" polarizability="4.5529789377e+01 1.3162498279e+00 4.9673916492e-02 1.3162498279e+00 4.5121812246e+01 3.4276514735e-01 4.9673916492e-02 3.4276514735e-01 4.3702026097e+01" charge=-1 multiplicity=1 method=wB97M-V basis=def2-svpd config_type=hso4- sample_index=355 temperature=300.0 units=atomic
S         0.1392139313       0.0335905591       0.0183380886   3.415773987767e-03  -3.993230513241e-02  -4.225327787634e-02
O        -1.5869663060       0.0691835078      -0.0396060221  -3.860219215852e-04  -6.803533169385e-02   1.563330259520e-02
O         0.5039414110       1.4453613164       0.0182883496  -2.902023327564e-03   1.267976171158e-02  -9.992813954476e-04
O         0.5225226687      -0.7164132323       1.2334340644  -9.491727805398e-03   1.712649016675e-03   3.606008034978e-03
O         0.4750527725      -0.7447258032      -1.2525550339  -9.049338676327e-03   2.350249444961e-02   3.207992079750e-02
H        -1.8428730280      -0.9622815440       0.0659027595   1.840193220361e-02   7.005120361615e-02  -8.100751438357e-03
6
Properties=species:S:1:pos:R:3:forces:R:3 energy=-6.992872766096e+02 dipole="-1.1167222540e+00 -5.4454264279e-01 -4.4489134097e-02" quadrupole="-2.9507579152e+01 2.1160411128e+00 -3.4186690104e-01 2.1160411128e+00 -3.3212286134e+01 -6.2747251752e-02 -3.4186690104e-01 -6.2747251752e-02 -3.4744561159e+01" polarizability="4.2722363433e+01 5.8576314129e-01 4.1334534540e-01 5.8576314129e-01 4.3142272803e+01 -4.5414416775e-02 4.1334534540e-01 -4.5414416775e-02 4.3845399015e+01" charge=-1 multiplicity=1 method=wB97M-V basis=def2-svpd config_type=hso4- sample_index=356 temperature=300.0 units=atomic
S         0.1022557873       0.0025485521      -0.0071620109   6.211262145865e-02   1.709679037426e-02   2.038224439914e-02
O        -1.5487515376       0.0625430922      -0.0265677698   2.303532437337e-02   9.369228141688e-02  -4.201467061413e-03
O         0.5204647811       1.4284259818       0.0235734975  -1.456842352791e-02  -8.036216780766e-03  -5.655127898670e-03
O         0.5268249799      -0.6853522078       1.2810145369  -2.455635274651e-02   2.197595994783e-03  -3.334389132380e-02
O         0.4846066132      -0.7008982209      -1.2662725633  -1.189133695583e-02  -1.945210674180e-03   1.456889727202e-02
H        -1.7519415091      -0.7975694305       0.0461845432  -3.418150106330e-02  -1.030225039378e-01   8.282790650400e-03
6
Properties=species:S:1:pos:R:3:forces:R:3 energy=-6.992751409316e+02 dipole="-4.7800302090e-01 -6.9777236148e-01 1.0444166655e-01" quadrupole="-3.0136422982e+01 2.1397179402e+00 -1.7816212433e-02 2.1397179402e+00 -3.3146151428e+01 -4.2598335642e-01 -1.7816212433e-02 -4.2598335642e-01 -3.3761742877e+01" polarizability="4.4370667929e+01 2.0153163639e-01 -2.5640030974e-01 2.0153163639e-01 4.3162392720e+01 1.0600433635e+00 -2.5640030974e-01 1.0600433635e+00 4.2312185942e+01" charge=-1 multiplicity=1 method=wB97M-V basis=def2-svpd config_type=hso4- sample_index=357 temperature=300.0 units=atomic
S         0.1917881539      -0.0137728102      -0.0016880749  -5.468797735513e-02   7.898461305696e-02  -6.219339766035e-02
O        -1.5927736526       0.0859978666      -0.0006696089   7.634362087084e-02   1.460884192890e-01  -7.238669317620e-03
O         0.4538078271       1.4635913585       0.0475001601   5.930279383051e-03  -2.973556168015e-02  -1.278483943731e-02
O         0.4746378016      -0.6680906310       1.2183728430   2.111284550813e-02  -4.828014157856e-02   6.311303513418e-02
O         0.4754571713      -0.7478061365      -1.2633403670   2.956117448415e-03   7.589614787046e-03   1.383173079176e-02
H        -1.8610597544      -0.7270446273       0.0304159129  -5.164929192900e-02  -1.545459164140e-01   5.161195268979e-03
6
Properties=species:S:1:pos:R:3:forces:R:3 energy=-6.992945204892e+02 dipole="-7.5560447795e-01 -4.9243220793e-01 -1.7860109322e-01" quadrupole="-3.0305724948e+01 2.3449673217e+00 -2.2235721115e-01 2.3449673217e+00 -3.2996156583e+01 1.9266364084e-01 -2.2235721115e-01 1.9266364084e-01 -3.3996426574e+01" polarizability="4.4148943696e+01 3.4717484977e-01 3.5816033776e-01 3.4717484977e-01 4.3257216486e+01 -3.1034633806e-01 3.5816033776e-01 -3.1034633806e-01 4.1728361359e+01" charge=-1 multiplicity=1 method=wB97M-V basis=def2-svpd config_type=hso4- sample_index=358 temperature=300.0 units=atomic
S         0.1397160973       0.0195100024      -0.0203691068  -3.834858676526e-03   2.189821334465e-02   6.252911201442e-02
O        -1.5956866615       0.0931348419      -0.0021077644   3.038029660317e-02   8.989926183987e-03  -2.344819938909e-03
O         0.4811637144       1.4477293336       0.0138934542  -6.559312686365e-04   2.341384243255e-03  -5.329739628666e-03
O         0.5176341652      -0.7337716523       1.2159664539  -1.335822123192e-02   8.538891764253e-03  -5.107213431781e-03
O         0.5037598632      -0.7324007781      -1.1872881933   2.777126252271e-03  -1.983855246678e-02  -5.052231452293e-02
H        -1.7419252245      -0.8418001895       0.0060048925  -1.530986616443e-02  -2.194414299921e-02   8.137385591885e-04
6
Properties=species:S:1:pos:R:3:forces:R:3 energy=-6.992891346702e+02 dipole="-1.0884486111e+00 -5.1707213660e-01 2.9651663656e-01" quadrupole="-2.9840706972e+01 2.0097652203e+00 4.6523834565e-01 2.0097652203e+00 -3.3048961125e+01 -6.8752397522e-02 4.6523834565e-01 -6.8752397522e-02 -3.4523955779e+01" polarizability="4.1841976401e+01 1.2458024895e+00 -5.6649795806e-01 1.2458024895e+00 4.3776115992e+01 -1.7527562080e-02 -5.6649795806e-01 -1.7527562080e-02 4.2356119139e+01" charge=-1 multiplicity=1 method=wB97M-V basis=def2-svpd config_type=hso4- sample_index=359 temperature=300.0 units=atomic
S         0.0976805721       0.0253925448       0.0426837299   6.542915815505e-02   2.833841811495e-02  -8.687845547692e-02
O        -1.5250244025       0.0389783669       0.0095144865  -1.502378904384e-02  -6.395927640127e-03   3.272027542010e-03
O         0.5387393496       1.4458446226      -0.0632920455  -1.777849643347e-02  -1.069249381014e-02   2.057753784127e-02
O         0.4676413465      -0.7356632471       1.2137558856   2.084113758913e-03  -1.344736257097e-02   3.887691897213e-02
O         0.5023055754      -0.6826533731      -1.2433252755  -1.875527147672e-02   2.070282541625e-03   2.515252387927e-02
H        -1.6219335510      -0.9242528359      -0.0405568034  -1.594226965154e-02   1.132812084492e-04  -1.078283830013e-03
6
Properties=species:S:1:pos:R:3:forces:R:3 energy=-6.992833494455e+02 dipole="-9.9566084557e-01 -6.9824094514e-01 1.6242357050e-01" quadrupole="-2.9601266601e+01 2.1422130254e+00 6.1990024279e-01 2.1422130254e+00 -3.3404918829e+01 3.1491706998e-01 6.1990024279e-01 3.1491706998e-01 -3.3852267760e+01" polarizability="4.1967043823e+01 2.0866904719e-01 -5.2329551322e-01 2.0866904719e-01 4.2574461445e+01 -6.2912423784e-01 -5.2329551322e-01 -6.2912423784e-01 4.1186737478e+01" charge=-1 multiplicity=1 method=wB97M-V basis=def2-svpd config_type=hso4- sample_index=360 temperature=300.0 units=atomic
S         0.1131631437      -0.0154231885       0.0361601342   3.120063958813e-02   8.286559403390e-02  -5.018233430254e-02
O        -1.5385154483       0.1224708484       0.0277062812   1.109449163259e-02   3.044476408583e-02   7.250942184457e-03
O         0.4573648720       1.4262882239      -0.0971039199  -6.313454590146e-05  -1.386250396173e-03   2.828416696060e-02
O         0.4916050551      -0.7580206856       1.2071951648   1.435737433741e-04  -1.895323863945e-02   4.471406327377e-02
O         0.5476666805      -0.6503112735      -1.2056016038  -1.089172918341e-02  -3.522093596269e-02  -2.311587774936e-02
H        -1.7106425625      -0.7716271069      -0.0863870129  -3.146759989649e-02  -5.772702285879e-02  -7.013589616924e-03
6
Properties=species:S:1:pos:R:3:forces:R:3 energy=-6.992761717604e+02 dipole="-1.1835908586e+00 -4.6292677761e-01 1.2976460804e-01" quadrupole="-2.8603388163e+01 2.9257595165e+00 8.4990130404e-01 2.9257595165e+00 -3.3090869393e+01 1.2377342066e-01 8.4990130404e-01 1.2377342066e-01 -3.4922473773e+01" polarizability="4.5080858254e+01 2.3429395084e+00 -6.9978866206e-01 2.3429395084e+00 4.5870765374e+01 2.9543440919e-01 -6.9978866206e-01 2.9543440919e-01 4.3862852481e+01" charge=-1 multiplicity=1 method=wB97M-V basis=def2-svpd config_type=hso4- sample_index=361 temperature=300.0 units=atomic
S         0.1219874516       0.0250226567       0.0195632209   3.279686935043e-02  -3.098592760560e-02  -5.563309009905e-02
O        -1.5230860743       0.0689443177       0.0596779821  -6.132375196639e-02  -7.136041515871e-02  -2.026011043679e-02
O         0.4932273188       1.4469231270      -0.0559816845  -6.865484365484e-03   1.935388584204e-03   1.309764320121e-02
O         0.4457616177      -0.7413934639       1.2308302816   6.738612622467e-03   1.552298122411e-03   1.101027513553e-02
O         0.5423884006      -0.7053407855      -1.2678249277  -2.208106996888e-02   1.575346612597e-02   3.788313362156e-02
H        -1.9922328859      -0.9394579474      -0.1047342364   5.073185257253e-02   8.308770436738e-02   1.390032607426e-02
6
Properties=species:S:1:pos:R:3:forces:R:3 energy=-6.992871579137e+02 dipole="-7.1922832749e-01 -5.6019170481e-01 7.2993280883e-02" quadrupole="-3.0215339091e+01 2.0697953262e+00 -1.3821283255e-01 2.0697953262e+00 -3.1981211190e+01 -1.3625310843e-02 -1.3821283255e-01 -1.3625310843e-02 -3.4403653281e+01" polarizability="4.2906629118e+01 1.5051043521e+00 1.9740092810e-01 1.5051043521e+00 4.1683377625e+01 -3.0748410399e-01 1.9740092810e-01 -3.0748410399e-01 4.1992950420e+01" charge=-1 multiplicity=1 method=wB97M-V basis=def2-svpd config_type=hso4- sample_index=362 temperature=300.0 units=atomic
S         0.1464742372       0.0072515877       0.0141525093  -2.550020187242e-02  -1.612921424220e-02  -3.787977778535e-03
O        -1.5615908395       0.0361686075      -0.0272768436   1.404277285715e-03  -5.672808684443e-02   1.104754057675e-02
O         0.5307595407       1.3696535149      -0.0178656602   1.262797342956e-02   8.091245266916e-02   7.348934288940e-03
O         0.4789400583      -0.6657028006       1.2665879951   7.488230318904e-04  -2.278905404684e-02   1.258525732155e-02
O         0.4453324999      -0.6343313528      -1.2514095810   1.053632515162e-02  -3.840352854905e-02  -2.384374264179e-02
H        -1.7167245506      -0.9840862785       0.0265357476   9.055932738278e-05   5.316460752065e-02  -3.309921887686e-03
6
Properties=species:S:1:pos:R:3:forces:R:3 energy=-6.992944293643e+02 dipole="-9.0986039339e-01 -5.3262795563e-01 9.0636349847e-02" quadrupole="-2.9162140851e+01 2.6294836887e+00 -7.2035966527e-02 2.6294836887e+00 -3.3251862267e+01 -1.0711630556e-01 -7.2035966527e-02 -1.0711630556e-01 -3.4663480950e+01" polarizability="4.4333459193e+01 1.4868724808e+00 2.6728662905e-02 1.4868724808e+00 4.5573833006e+01 -8.5368301510e-03 2.6728662905e-02 -8.5368301510e-03 4.3806257436e+01" charge=-1 multiplicity=1 method=wB97M-V basis=def2-svpd config_type=hso4- sample_index=363 temperature=300.0 units=atomic
S         0.1551569649       0.0146628322       0.0118372445  -2.989563493312e-03   1.613980534945e-04  -1.909381630377e-02
O        -1.5326585985       0.0726790141      -0.0174226606  -2.561365124557e-02  -4.529769969976e-02   6.355508103493e-03
O         0.4707928101       1.4749604381      -0.0048785424  -1.581948802401e-03  -2.564326838349e-02   3.206430749168e-03
O         0.4846028604      -0.7332319529       1.2569225025  -5.428469359092e-04   8.572289573427e-03  -1.059386833254e-02
O         0.4651041591      -0.7277950009      -1.2596039767   1.556877414507e-03   1.146147504058e-02   2.239397972358e-02
H        -1.9234646761      -0.8868674189       0.0218222821   2.917553495033e-02   5.078411027819e-02  -2.254963774376e-03
6
Properties=species:S:1:pos:R:3:forces:R:3 energy=-6.992904917512e+02 dipole="-8.2225881852e-01 -7.2775050439e-01 -8.8445034311e-03" quadrupole="-2.8938927847e+01 1.9983759394e+00 -3.0810245341e-01 1.9983759394e+00 -3.3232340526e+01 -1.0386313251e-01 -3.0810245341e-01 -1.0386313251e-01 -3.4323035654e+01" polarizability="4.2210312307e+01 1.7013023463e+00 2.3991560386e-01 1.7013023463e+00 4.4028496105e+01 7.3824250309e-02 2.3991560386e-01 7.3824250309e-02 4.2796033363e+01" charge=-1 multiplicity=1 method=wB97M-V basis=def2-svpd config_type=hso4- sample_index=364 temperature=300.0 units=atomic
S         0.1699770442      -0.0070618555      -0.0042854633  -2.196166990968e-02   6.360669513576e-02   1.471659970210e-02
O        -1.5006493286       0.0146767987      -0.0240818446  -6.280413024193e-03   5.135552429675e-02   9.051949181715e-04
O         0.5056351656       1.4778241019       0.0223260646  -8.065143246547e-03  -4.588829345071e-02  -5.648261304121e-03
O         0.4451401606      -0.6749594753       1.2706802173   1.495893346734e-02  -1.588491192990e-02   4.821203084607e-03
O         0.4081790213      -0.6933145902      -1.2627528929   2.477729737287e-02  -1.779409836646e-02  -1.773644808380e-02
H        -1.9119390244      -0.8194465526       0.0430550116  -3.399059046846e-03  -3.531833012572e-02   2.894893485917e-03
6
Properties=species:S:1:pos:R:3:forces:R:3 energy=-6.992755476086e+02 dipole="-8.0423746546e-01 -2.6291484499e-01 1.5187545532e-01" quadrupole="-2.9909907943e+01 2.9596737074e+00 4.3678319733e-01 2.9596737074e+00 -3.2564372079e+01 7.3316629211e-03 4.3678319733e-01 7.3316629211e-03 -3.5297765725e+01" polarizability="4.6808722543e+01 1.2380832043e+00 -4.6920600788e-01 1.2380832043e+00 4.5800207880e+01 6.6501550673e-02 -4.6920600788e-01 6.6501550673e-02 4.6205129426e+01" charge=-1 multiplicity=1 method=wB97M-V basis=def2-svpd config_type=hso4- sample_index=365 temperature=300.0 units=atomic
S         0.1598507475       0.0418861487       0.0230250905  -1.488660126026e-02  -1.071199812213e-01  -3.634867646343e-02
O        -1.5853612217       0.0749294613       0.0194572652  -6.244425275685e-03  -7.665561751600e-02  -5.098766788930e-03
O         0.4818623472       1.4310768909      -0.0407084453   1.120374598738e-02   4.763576269045e-02   9.332411252713e-03
O         0.4707638033      -0.7497490766       1.2861694986  -4.617520060615e-03   2.691570073670e-02  -3.579380796781e-02
O         0.5103952776      -0.7188326126      -1.3086222898  -1.585401270313e-02   2.829980749353e-02   6.298178788236e-02
H        -1.9052259670      -0.9713120644      -0.0439214069   3.037895804478e-02   8.091483205249e-02   4.995607601906e-03
6
Properties=species:S:1:pos:R:3:forces:R:3 energy=-6.992808223766e+02 dipole="-9.1970860215e-01 -1.4087977070e-01 -3.7701805086e-01" quadrupole="-2.9553931469e+01 2.8108638811e+00 5.4685614445e-01 2.8108638811e+00 -3.2530205389e+01 6.8742051028e-01 5.4685614445e-01 6.8742051028e-01 -3.5142036860e+01" polarizability="4.4973289355e+01 3.7358079654e-01 -2.1069947456e-01 3.7358079654e-01 4.3098822378e+01 -5.6392913190e-01 -2.1069947456e-01 -5.6392913190e-01 4.5038854600e+01" charge=-1 multiplicity=1 method=wB97M-V basis=def2-svpd config_type=hso4- sample_index=366 temperature=300.0 units=atomic
S         0.1378057241       0.0486791560      -0.0381949757  -8.356550503008e-03  -1.547220744127e-01   6.514251092601e-02
O        -1.5728730009       0.0640165315       0.0831635537   2.753590822635e-03  -1.152992055262e-02  -2.116143137644e-02
O         0.4919232878       1.3923312981      -0.0283316682   2.077626140670e-02   1.101955167129e-01   8.484710555495e-04
O         0.4506446788      -0.7411084903       1.2938816478  -7.983381657872e-03   3.382127223319e-02  -6.185230682252e-02
O         0.5510846115      -0.6994371606      -1.2647441240  -1.798251037978e-02   5.671248680040e-03   1.160585655679e-02
H        -1.8909002199      -0.8436486792      -0.1319324120   1.076517927075e-02   1.652349687948e-02   5.424361942927e-03
6
Properties=species:S:1:pos:R:3:forces:R:3 energy=-6.992916703033e+02 dipole="-9.4409766796e-01 -3.8687520437e-01 1.2570730651e-01" quadrupole="-3.0220261670e+01 2.0528621350e+00 4.8647092051e-02 2.0528621350e+00 -3.2399752901e+01 -2.9868359835e-01 4.8647092051e-02 -2.9868359835e-01 -3.5175644796e+01" polarizability="4.3591672184e+01 1.6875170691e+00 -2.3248455802e-01 1.6875170691e+00 4.3876846177e+01 6.0238210276e-01 -2.3248455802e-01 6.0238210276e-01 4.4532217119e+01" charge=-1 multiplicity=1 method=wB97M-V basis=def2-svpd config_type=hso4- sample_index=367 temperature=300.0 units=atomic
S         0.1178956739       0.0400692610       0.0078596002   3.350125619979e-02  -4.211089132407e-02  -3.457945731752e-02
O        -1.5591954042      -0.0058410688      -0.0027228526   1.488820293073e-03  -1.930688747221e-02   1.198118669183e-03
O         0.5793151295       1.4231531837       0.0187930649  -1.265322581178e-02   1.852437673198e-02  -4.354302910093e-03
O         0.4627794559      -0.6684329609       1.2720173385  -5.164909984613e-03  -5.089265876398e-03  -1.121425778088e-02
O         0.4642810101      -0.7084964844      -1.3047178260  -1.384087765262e-02   2.186307956844e-02   5.006664530872e-02
H        -1.6697245000      -0.9957216370       0.0173691233  -3.375609105690e-03   2.618216399816e-02  -1.124167801748e-03
6
Properties=species:S:1:pos:R:3:forces:R:3 energy=-6.992978685541e+02 dipole="-7.7827272656e-01 -4.6313040233e-01 -3.9993518234e-02" quadrupole="-2.9976006660e+01 2.4879761300e+00 -2.9138866644e-01 2.4879761300e+00 -3.2799678006e+01 -1.9302199290e-01 -2.9138866644e-01 -1.9302199290e-01 -3.4109885789e+01" polarizability="4.3931992549e+01 7.8455042166e-01 1.9216275338e-01 7.8455042166e-01 4.3267985378e+01 3.5176344494e-01 1.9216275338e-01 3.5176344494e-01 4.1719680727e+01" charge=-1 multiplicity=1 method=wB97M-V basis=def2-svpd config_type=hso4- sample_index=368 temperature=300.0 units=atomic
S         0.1453016091       0.0262292713      -0.0129039831  -1.266927891152e-02  -6.111285908587e-03   1.115076180816e-02
O        -1.5817124968       0.0748321998      -0.0158375303   1.269716847686e-02  -1.750563183710e-02   1.671354790710e-03
O         0.4894282867       1.4392591862       0.0429665103   6.960998488630e-04   1.792368717283e-02  -1.097056673676e-02
O         0.5105680350      -0.7009615732       1.2041507822  -2.958835818195e-03  -1.109126448214e-02   2.058962265861e-02
O         0.4821932074      -0.7500224473      -1.2077806833   1.121512814057e-04   1.013424641279e-03  -2.110943468679e-02
H        -1.8149936729      -0.8782281967       0.0435161563   2.118382535385e-03   1.576759547228e-02  -1.360603208588e-03
6
Properties=species:S:1:pos:R:3:forces:R:3 energy=-6.992948090686e+02 dipole="-9.7011879798e-01 -3.5005328817e-01 2.6128398063e-01" quadrupole="-2.9190004945e+01 2.6755450701e+00 -4.8902738228e-02 2.6755450701e+00 -3.3360095886e+01 -3.4432565327e-01 -4.8902738228e-02 -3.4432565327e-01 -3.4563626115e+01" polarizability="4.3096172241e+01 1.2118814974e-01 -9.2452560475e-02 1.2118814974e-01 4.4086377187e+01 3.1291506416e-01 -9.2452560475e-02 3.1291506416e-01 4.3308863645e+01" charge=-1 multiplicity=1 method=wB97M-V basis=def2-svpd config_type=hso4- sample_index=369 temperature=300.0 units=atomic
S         0.1390009763       0.0304259046       0.0301766179   1.168150238218e-02  -3.694297521486e-02  -5.954984522910e-02
O        -1.5344212369       0.0946594155      -0.0310879301   1.047449134588e-02   3.842623809860e-02   5.389461877644e-03
O         0.4495264408       1.4600897325      -0.0072803855   5.231005674990e-03   3.910162833105e-03   6.040283836480e-03
O         0.5151164619      -0.7512696284       1.2227346354  -6.154347545023e-03   7.557513691385e-03   9.340407048771e-03
O         0.4855414809      -0.7547293984      -1.2472392070  -9.830418823848e-03   2.730533110740e-02   3.637076541367e-02
H        -1.8627802546      -0.7710526727       0.0422442514  -1.137089402561e-02  -4.027849385440e-02   2.377041650063e-03
6
Properties=species:S:1:pos:R:3:forces:R:3 energy=-6.992905819538e+02 dipole="-9.2154870363e-01 -6.8823749439e-01 1.2860048104e-01" quadrupole="-2.9213046413e+01 2.3571421029e+00 -5.7221136277e-01 2.3571421029e+00 -3.3245765776e+01 -1.2693416581e-01 -5.7221136277e-01 -1.2693416581e-01 -3.3867724935e+01" polarizability="4.5140841235e+01 1.4013220245e+00 5.3598742157e-01 1.4013220245e+00 4.3786683588e+01 -4.2022609491e-01 5.3598742157e-01 -4.2022609491e-01 4.1539029111e+01" charge=-1 multiplicity=1 method=wB97M-V basis=def2-svpd config_type=hso4- sample_index=370 temperature=300.0 units=atomic
S         0.1358614702      -0.0021665166       0.0212660506  -6.406327985573e-03   6.653188684853e-02   5.588816557429e-04
O        -1.5982181530       0.0606141128      -0.0653933367   9.246488161764e-03   6.350447054893e-03   1.205557778460e-02
O         0.5177718379       1.4555205935      -0.0067177382  -1.882956655747e-02  -2.832046607286e-02   7.092863927523e-03
O         0.5492900677      -0.7146003159       1.2164043888  -7.637482341647e-03  -1.301254294849e-02   3.093424614915e-02
O         0.4636482164      -0.6868732015      -1.1917396153   1.121443012338e-02  -3.206965833377e-02  -5.070978246408e-02
H        -2.0214944017      -0.7988373312       0.0830824145   1.235048513516e-02   5.701856887219e-04   1.040455127772e-04
6
Properties=species:S:1:pos:R:3:forces:R:3 energy=-6.992943952969e+02 dipole="-1.0088641096e+00 -5.8654302602e-01 -1.6223951788e-01" quadrupole="-2.9640079931e+01 2.2240104924e+00 1.4504655705e-01 2.2240104924e+00 -3.3493080460e+01 2.5333094579e-01 1.4504655705e-01 2.5333094579e-01 -3.4501166118e+01" polarizability="4.2296433889e+01 5.2123753544e-01 -1.0430388741e-01 5.2123753544e-01 4.4396118944e+01 -1.0058389672e-01 -1.0430388741e-01 -1.0058389672e-01 4.3134772207e+01" charge=-1 multiplicity=1 method=wB97M-V basis=def2-svpd config_type=hso4- sample_index=371 temperature=300.0 units=atomic
S         0.1208464054       0.0015598116      -0.0197248263   4.583321273918e-02   3.860657578556e-02   3.615665197261e-02
O        -1.5155352694       0.1048966372       0.0333147639  -8.754373911952e-03  -2.349733439527e-02  -9.964991428915e-03
O         0.4603280117       1.4617653168       0.0008813083   7.554741645865e-05  -2.395240474986e-02  -3.994830763588e-03
O         0.4787504881      -0.7282486314       1.2527428892  -8.534277520307e-03   7.584284848509e-03  -2.453231841897e-02
O         0.5171916261      -0.7274766423      -1.2447681064  -1.125530333618e-02  -1.073161352078e-03   4.356315730760e-04
H        -1.6777082379      -0.8493289679      -0.0462945901  -1.739393261261e-02   2.320880841666e-03   1.895382600728e-03
6
Properties=species:S:1:pos:R:3:forces:R:3 energy=-6.992889267488e+02 dipole="-6.0850540466e-01 -4.7960016372e-01 2.9598040742e-01" quadrupole="-3.0682491901e+01 2.1275547255e+00 3.9243546342e-01 2.1275547255e+00 -3.2237268909e+01 -2.2014468735e-01 3.9243546342e-01 -2.2014468735e-01 -3.4077210623e+01" polarizability="4.5311790572e+01 1.5044513498e+00 -5.7591271553e-01 1.5044513498e+00 4.2645544183e+01 2.9415040787e-01 -5.7591271553e-01 2.9415040787e-01 4.1802464433e+01" charge=-1 multiplicity=1 method=wB97M-V basis=def2-svpd config_type=hso4- sample_index=372 temperature=300.0 units=atomic
S         0.1534613891       0.0307694408       0.0369043757  -3.084028428946e-02   4.839722906885e-03  -1.070032826401e-01
O        -1.6284357354       0.0146630187       0.0030357021   2.815676090049e-02   2.968710661861e-03   3.845341022110e-03
O         0.5597920810       1.4191959923      -0.0370399447  -6.410950860651e-03   2.972834716494e-02   1.239011192356e-02
O         0.4646317161      -0.6980352474       1.2007465654   1.632804713378e-02  -4.108790108128e-02   7.853780267008e-02
O         0.4879109772      -0.6795042744      -1.2397394167  -7.546761156586e-03  -1.394916577881e-03   1.283759378659e-02
H        -1.7981682995      -0.9407205648      -0.0174039694   2.924897502579e-04   4.980673030812e-03  -6.113943726744e-04
6
Properties=species:S:1:pos:R:3:forces:R:3 energy=-6.992922592846e+02 dipole="-1.0172975968e+00 -4.7277119689e-01 1.1923137098e-01" quadrupole="-2.9253498420e+01 2.5718945153e+00 7.0793507260e-02 2.5718945153e+00 -3.2671833484e+01 -1.1854914018e-01 7.0793507260e-02 -1.1854914018e-01 -3.4629025182e+01" polarizability="4.5161123510e+01 2.0056457559e+00 -1.5259880107e-01 2.0056457559e+00 4.4133395705e+01 1.1360262293e-01 -1.5259880107e-01 1.1360262293e-01 4.2957994851e+01" charge=-1 multiplicity=1 method=wB97M-V basis=def2-svpd config_type=hso4- sample_index=373 temperature=300.0 units=atomic
S         0.1244918679       0.0306246432       0.0144068367   1.438675703381e-02  -2.613703593234e-02  -3.363418847859e-02
O        -1.5844054326       0.0185042024      -0.0060035917  -1.528233210124e-02  -2.431752120395e-02   2.881544811269e-03
O         0.5582719845       1.4322231793      -0.0099576071  -1.762785581648e-02   8.793005180355e-03   4.124871842564e-03
O         0.4901914583      -0.6993509776       1.2325072784  -3.782936787074e-03  -6.005931393450e-03   1.407440470898e-02
O         0.4888451079      -0.6953683606      -1.2457112029  -9.557434638177e-03   4.808181874806e-03   1.304830343667e-02
H        -1.9793210600      -0.9266482147       0.0050309705   3.182950892631e-02   4.289010260109e-02  -5.189133503534e-04
6
Properties=species:S:1:pos:R:3:forces:R:3 energy=-6.992950096472e+02 dipole="-9.1770214872e-01 -5.9662089819e-01 2.5463626032e-02" quadrupole="-2.9536530553e+01 2.1394306575e+00 5.7793529471e-01 2.1394306575e+00 -3.3457926214e+01 2.2226382428e-01 5.7793529471e-01 2.2226382428e-01 -3.4483001939e+01" polarizability="4.1973928515e+01 1.2885583168e+00 -5.4654641147e-01 1.2885583168e+00 4.5258353779e+01 -6.3258281884e-02 -5.4654641147e-01 -6.3258281884e-02 4.3011886440e+01" charge=-1 multiplicity=1 method=wB97M-V basis=def2-svpd config_type=hso4- sample_index=374 temperature=300.0 units=atomic
S         0.1434835260       0.0144680833       0.0080073461   2.016356452092e-02   3.938908788791e-02  -2.553123878664e-02
O        -1.4959560385       0.0514105998       0.0510846864  -2.159301432455e-02  -8.638385536315e-03  -1.155637563332e-02
O         0.4863215641       1.4975560284      -0.0428087167  -6.804235182455e-03  -4.715072515947e-02   9.522684435708e-03
O         0.4147919600      -0.7473806454       1.2365406535   1.631760869804e-02   2.974099797619e-04   8.439124629209e-03
O         0.4928485937      -0.7150338764      -1.2558670122  -4.990763542336e-03   6.825806847839e-03   1.683057820335e-02
H        -1.7156237205      -0.8892123498      -0.0887428839  -3.098974972611e-03   9.319966737935e-03   2.331886158768e-03
6
Properties=species:S:1:pos:R:3:forces:R:3 energy=-6.992880980446e+02 dipole="-1.2479400620e+00 -3.5842333222e-01 -1.5780152554e-01" quadrupole="-2.8542556963e+01 2.8546700612e+00 3.3498174021e-01 2.8546700612e+00 -3.2974186571e+01 8.5250324377e-02 3.3498174021e-01 8.5250324377e-02 -3.4797428962e+01" polarizability="4.4220615760e+01 1.5379343630e+00 -2.8933715617e-01 1.5379343630e+00 4.4155116812e+01 4.8682802264e-01 -2.8933715617e-01 4.8682802264e-01 4.3007117775e+01" charge=-1 multiplicity=1 method=wB97M-V basis=def2-svpd config_type=hso4- sample_index=375 temperature=300.0 units=atomic
S         0.1042810532       0.0388886922      -0.0263073193   4.361211039803e-02  -6.194451837970e-02   1.800880616361e-02
O        -1.5425115965       0.0512818622       0.0513022935  -4.356358622231e-02  -3.159386929662e-02  -1.618982706761e-02
O         0.5201507124       1.4281894998       0.0223693212  -1.018965562527e-02   2.679049749237e-02  -1.000542185652e-02
O         0.4765652749      -0.7011259635       1.2168040926  -6.094500708234e-03   1.891202681399e-03  -3.200147753837e-03
O         0.5392946514      -0.7410745729      -1.2343929232  -2.117838573578e-02   1.743847905055e-02   6.196647070045e-03
H        -1.9922404906      -0.8751753945      -0.0569266416   3.740213147240e-02   4.737367817645e-02   5.238208710658e-03
6
Properties=species:S:1:pos:R:3:forces:R:3 energy=-6.992936889860e+02 dipole="-5.9167264819e-01 -4.5966860520e-01 -1.7355664194e-01" quadrupole="-2.9816290082e+01 2.5219320325e+00 4.6442349701e-01 2.5219320325e+00 -3.3094341316e+01 2.1625576672e-01 4.6442349701e-01 2.1625576672e-01 -3.4109724889e+01" polarizability="4.3151863225e+01 4.9555486970e-01 -4.5671326071e-01 4.9555486970e-01 4.4148346877e+01 3.0522758368e-01 -4.5671326071e-01 3.0522758368e-01 4.2323696042e+01" charge=-1 multiplicity=1 method=wB97M-V basis=def2-svpd config_type=hso4- sample_index=376 temperature=300.0 units=atomic
S         0.1865565619       0.0212157905      -0.0253173737  -4.502695222336e-02  -1.548977730400e-03   2.199132743370e-02
O        -1.5242251200       0.1009848242       0.0685399004  -4.901094688034e-03  -3.037514320384e-02  -2.135274554082e-02
O         0.4155140911       1.4659630078       0.0055877732   2.196800644013e-02   5.017251236886e-03  -6.829307300738e-03
O         0.4185788330      -0.7362890000       1.2136244470   2.206213816172e-02  -3.052425215660e-03   1.038071579826e-02
O         0.5065399583      -0.7592601188      -1.2318742392   3.147472985945e-03   7.208568515598e-03  -9.626888892367e-03
H        -1.7895078459      -0.8413154513      -0.0888031618   2.789208026757e-03   2.273562622083e-02   5.426827775805e-03
6
Properties=species:S:1:pos:R:3:forces:R:3 energy=-6.992874236116e+02 dipole="-6.2627711640e-01 -6.3593009156e-01 9.8394328029e-02" quadrupole="-2.9759877104e+01 2.2531172275e+00 -3.1619475520e-01 2.2531172275e+00 -3.3756522619e+01 -7.2170386872e-02 -3.1619475520e-01 -7.2170386872e-02 -3.4142107979e+01" polarizability="4.4264945302e+01 9.6115049791e-01 3.5807883618e-01 9.6115049791e-01 4.6805891738e+01 -3.4410190923e-01 3.5807883618e-01 -3.4410190923e-01 4.3464838109e+01" charge=-1 multiplicity=1 method=wB97M-V basis=def2-svpd config_type=hso4- sample_index=377 temperature=300.0 units=atomic
S         0.1901473923       0.0093324288       0.0167803860  -3.806300924839e-02   5.270828665321e-02  -7.891970916023e-03
O        -1.5445975793       0.0654508288      -0.0440723758   2.101480958765e-02   3.981338211196e-02   6.666680890645e-03
O         0.4549462449       1.5456375742      -0.0109493557  -4.839966740233e-04  -7.717215977130e-02   6.205353154232e-03
O         0.4798739337      -0.7727204197       1.2460699751   5.221559718861e-03   1.595928678179e-02  -5.031404596714e-03
O         0.4231679802      -0.7458215896      -1.2277574495   1.951918904523e-02   3.626728351811e-03  -3.436405902892e-03
H        -1.8567200205      -0.8088827546       0.0525846528  -7.173951336175e-03  -3.494186566587e-02   3.514710399585e-03
6
Properties=species:S:1:pos:R:3:forces:R:3 energy=-6.992904820061e+02 dipole="-1.0727564232e+00 -4.4875142656e-01 5.9344689045e-02" quadrupole="-2.9392604792e+01 2.2641572680e+00 -3.6227700909e-02 2.2641572680e+00 -3.2596111864e+01 -4.3869135434e-01 -3.6227700909e-02 -4.3869135434e-01 -3.4793827201e+01" polarizability="4.2464336363e+01 1.0662157680e+00 -2.5145584798e-01 1.0662157680e+00 4.2208559744e+01 1.0470203185e+00 -2.5145584798e-01 1.0470203185e+00 4.3069190176e+01" charge=-1 multiplicity=1 method=wB97M-V basis=def2-svpd config_type=hso4- sample_index=378 temperature=300.0 units=atomic
S         0.1096479931       0.0209944783      -0.0096306714   3.283895095454e-02  -3.328929502082e-02  -3.423007131201e-02
O        -1.5459657674       0.0302381128       0.0049197157   5.424253889288e-04   3.609879436411e-02  -4.641811378345e-03
O         0.5435123030       1.3929152106       0.0610030452  -5.467568245925e-03   4.722753781137e-02  -1.813639087175e-02
O         0.4843048811      -0.6271523065       1.2395247226  -1.363517460080e-03  -3.621329878268e-02   2.154059601689e-02
O         0.4897261689      -0.7243563763      -1.2875896336  -1.802213615396e-02   1.783564083006e-02   3.514110732139e-02
H        -1.7982709020      -0.8709182494       0.0298607290  -8.595036486718e-03  -3.170669292061e-02   3.123096977719e-04
6
Properties=species:S:1:pos:R:3:forces:R:3 energy=-6.992900071594e+02 dipole="-4.3693083907e-01 -4.2186051472e-01 -1.7262647646e-01" quadrupole="-3.0562465980e+01 2.1080128017e+00 -3.3287131480e-01 2.1080128017e+00 -3.2853484943e+01 -1.3638727119e-02 -3.3287131480e-01 -1.3638727119e-02 -3.4616222659e+01" polarizability="4.3726882382e+01 1.0400708136e+00 3.1018474134e-01 1.0400708136e+00 4.5268752285e+01 1.6432376094e-01 3.1018474134e-01 1.6432376094e-01 4.4536074923e+01" charge=-1 multiplicity=1 method=wB97M-V basis=def2-svpd config_type=hso4- sample_index=379 temperature=300.0 units=atomic
S         0.2026113914       0.0318975744      -0.0284235529  -4.983849800088e-02  -1.115852202467e-02   4.724772905573e-02
O        -1.5348222048       0.0388815945      -0.0059789744   1.414949430998e-02  -5.544828341332e-03  -2.208559501138e-03
O         0.4692769284       1.4883036325       0.0462021863   1.199170260120e-02  -1.860972073150e-02  -1.334821854973e-02
O         0.4322339478      -0.7155631184       1.2857294150   1.212235727107e-02   1.636846976815e-02  -4.108263360915e-02
O         0.4099182966      -0.7580999894      -1.2705518636   1.951950148580e-02   1.325074189310e-02   9.201379521453e-03
H        -1.6545762154      -0.9244180633       0.0291251581  -7.908442035036e-03   5.665801550848e-03   1.977279103710e-04
6
Properties=species:S:1:pos:R:3:forces:R:3 energy=-6.992802796827e+02 dipole="-7.0175995448e-01 -3.9675225773e-01 2.8040703692e-01" quadrupole="-3.0082029837e+01 2.6841449601e+00 -2.9750710496e-01 2.6841449601e+00 -3.2640404954e+01 -3.7213793011e-01 -2.9750710496e-01 -3.7213793011e-01 -3.4300020190e+01" polarizability="4.4862678555e+01 1.6583808461e+00 1.6335997879e-01 1.6583808461e+00 4.5332509116e+01 -1.2506226639e-01 1.6335997879e-01 -1.2506226639e-01 4.2362037943e+01" charge=-1 multiplicity=1 method=wB97M-V basis=def2-svpd config_type=hso4- sample_index=380 temperature=300.0 units=atomic
S         0.1624133513       0.0430515117       0.0367190176  -2.897837378224e-02  -3.303079927594e-02  -6.035896726161e-02
O        -1.5631906194       0.0666515427      -0.0642528022  -1.132612303372e-02  -8.165744194863e-02   2.827424879824e-02
O         0.4819364357       1.4592058575      -0.0091964014   5.813453601794e-03   1.670848459403e-02   8.239307688800e-03
O         0.5114891750      -0.7508314240       1.2031443761   2.625886939244e-03  -8.916023758694e-04   3.412065874979e-02
O         0.4361614500      -0.7377943918      -1.2081258993   9.695523469420e-03   1.108467511793e-02   2.972535891754e-03
H        -1.8189220060      -1.0051383770       0.0841957732   2.219650295693e-02   8.776149853904e-02  -1.328208952291e-02
6
Properties=species:S:1:pos:R:3:forces:R:3 energy=-6.992929575225e+02 dipole="-7.4689622253e-01 -6.4151423784e-01 8.6885615003e-03" quadrupole="-2.9797185753e+01 2.1715382488e+00 -3.0097308010e-01 2.1715382488e+00 -3.3223632232e+01 -9.3359079930e-02 -3.0097308010e-01 -9.3359079930e-02 -3.4398366064e+01" polarizability="4.4343595922e+01 2.0421621706e+00 2.8190809683e-01 2.0421621706e+00 4.6172327507e+01 -6.6746512071e-02 2.8190809683e-01 -6.6746512071e-02 4.3394589415e+01" charge=-1 multiplicity=1 method=wB97M-V basis=def2-svpd config_type=hso4- sample_index=381 temperature=300.0 units=atomic
S         0.1673307876       0.0161011699       0.0002366393  -1.683839858476e-02   4.094854225892e-02   1.030463563976e-02
O        -1.5497752288       0.0175051748      -0.0288539602  -5.640143952483e-03  -1.247889669456e-02   7.448539307500e-03
O         0.5229870473       1.5138786771       0.0136857143  -1.509228144163e-02  -6.173849188004e-02  -2.425549663349e-03
O         0.4640145220      -0.7202233901       1.2558291270   5.338219662903e-03   6.016154574809e-03  -7.824969408720e-03
O         0.4220119858      -0.7259719254      -1.2436826377   1.639871423485e-02   9.813128825975e-05  -5.371225882271e-03
H        -1.8520600973      -0.9305047247       0.0447547701   1.584579567436e-02   2.720336246802e-02  -2.139185743231e-03
6
Properties=species:S:1:pos:R:3:forces:R:3 energy=-6.992909956922e+02 dipole="-1.0032425365e+00 -6.3092123150e-01 -4.3789205183e-02" quadrupole="-2.9690496942e+01 2.4799284704e+00 -5.2027079457e-01 2.4799284704e+00 -3.3076241355e+01 -1.8262589041e-01 -5.2027079457e-01 -1.8262589041e-01 -3.4425296139e+01" polarizability="4.4541477698e+01 1.1234116908e+00 5.0931031209e-01 1.1234116908e+00 4.4379823657e+01 -2.0138353823e-03 5.0931031209e-01 -2.0138353823e-03 4.2924030805e+01" charge=-1 multiplicity=1 method=wB97M-V basis=def2-svpd config_type=hso4- sample_index=382 temperature=300.0 units=atomic
S         0.1194616085      -0.0038153946      -0.0095866632   2.601428250602e-02   3.127353171102e-02   2.608882704472e-02
O        -1.5701755745       0.1048741336      -0.0409296483  -5.412803676325e-03  -7.384349540527e-02   1.283995571683e-02
O         0.4860651705       1.4296575068       0.0423455751  -5.744407920454e-03  -2.202202349967e-03  -1.000269046162e-02
O         0.5504367551      -0.6865646537       1.2470889179  -1.985705722909e-02  -7.341538208543e-03  -1.062739346150e-02
O         0.4865686436      -0.7226483604      -1.2335122376  -4.425669669380e-03  -8.756126089253e-03  -1.056548870557e-02
H        -1.8231156044      -0.9090598795       0.0753463427   9.392247955585e-03   6.084043106791e-02  -7.700609893400e-03
6
Properties=species:S:1:pos:R:3:forces:R:3 energy=-6.992843134688e+02 dipole="-1.0696742988e+00 -1.8674582737e-01 1.9148615770e-01" quadrupole="-2.9084046998e+01 2.4754887783e+00 3.6922384588e-01 2.4754887783e+00 -3.2696637012e+01 -1.1977546378e-01 3.6922384588e-01 -1.1977546378e-01 -3.4840870298e+01" polarizability="4.0649307053e+01 4.3401738527e-01 -4.3852318065e-01 4.3401738527e-01 4.1789153146e+01 2.1121913585e-01 -4.3852318065e-01 2.1121913585e-01 4.2583702318e+01" charge=-1 multiplicity=1 method=wB97M-V basis=def2-svpd config_type=hso4- sample_index=383 temperature=300.0 units=atomic
S         0.1179547113       0.0534385156       0.0233609186   3.204861388390e-02  -1.073626407816e-01  -5.181142828195e-02
O        -1.4904221174       0.0384103508       0.0137170104  -9.557295024202e-03   9.897950813529e-02   4.098727923631e-03
O         0.4966493833       1.4103724635      -0.0285557806   1.294299780053e-02   7.854328482622e-02   6.807372727655e-03
O         0.4563128396      -0.7289294132       1.2241184032   3.389667711049e-03   1.936638766974e-03   1.376409791841e-02
O         0.4883025415      -0.7158030636      -1.2544625531  -1.281495924715e-02   1.882521692230e-02   3.183985610793e-02
H        -1.7443129276      -0.8159465386      -0.0289797944  -2.598958152566e-02  -9.094769129582e-02  -4.702592664268e-03
6
Properties=species:S:1:pos:R:3:forces:R:3 energy=-6.992793569309e+02 dipole="-6.8687843584e-01 -4.9618894194e-01 2.4970251759e-01" quadrupole="-3.0650416141e+01 1.6450750744e+00 4.0772426728e-01 1.6450750744e+00 -3.2724236506e+01 -1.2822309011e-01 4.0772426728e-01 -1.2822309011e-01 -3.4082066562e+01" polarizability="4.3677829248e+01 1.9189561222e+00 -5.4427483897e-01 1.9189561222e+00 4.3551131412e+01 1.6008732808e-01 -5.4427483897e-01 1.6008732808e-01 4.1829454052e+01" charge=-1 multiplicity=1 method=wB97M-V basis=def2-svpd config_type=hso4- sample_index=384 temperature=300.0 units=atomic
S         0.1420184809       0.0416345736       0.0329005299  -1.436799451227e-03   3.788820085691e-02  -9.098161052100e-02
O        -1.5881859214      -0.0365212813       0.0107463107   3.073197860529e-02   1.424501513469e-01   7.578746422722e-03
O         0.5953970827       1.4804710944      -0.0399470388  -2.635747898340e-02  -3.436357073328e-02   1.397254544763e-02
O         0.4300856158      -0.7179935250       1.1991625403   1.865972340943e-02  -2.590255193442e-02   6.494384186027e-02
O         0.4623986673      -0.6945678157      -1.2342323796  -2.925283417690e-03   6.945597248995e-03   1.119269314912e-02
H        -1.6900624435      -0.9037988000      -0.0299363013  -1.865534143294e-02  -1.269490021573e-01  -6.740323809642e-03
6
Properties=species:S:1:pos:R:3:forces:R:3 energy=-6.992873532119e+02 dipole="-9.3261816656e-01 -7.3461410958e-01 2.1253581779e-01" quadrupole="-2.9784525083e+01 2.0947258234e+00 -7.2033562718e-01 2.0947258234e+00 -3.3908472034e+01 -5.8383437171e-01 -7.2033562718e-01 -5.8383437171e-01 -3.3990876664e+01" polarizability="4.4701002617e+01 1.1311029004e+00 5.9532669510e-01 1.1311029004e+00 4.6056741796e+01 4.6653610105e-01 5.9532669510e-01 4.6653610105e-01 4.2641722201e+01" charge=-1 multiplicity=1 method=wB97M-V basis=def2-svpd config_type=hso4- sample_index=385 temperature=300.0 units=atomic
S         0.1305715821      -0.0029622187       0.0189276701   1.750384899023e-02   8.302135217148e-02  -3.952446086700e-02
O        -1.5793869019       0.0718467547      -0.0832464797   2.200745683806e-02   2.137573009163e-02   1.060412913504e-02
O         0.5057906790       1.5212366204       0.0435064402  -2.163430541024e-02  -7.433460595312e-02  -5.157114446347e-03
O         0.5574371528      -0.7153978843       1.2100128131  -8.639006034207e-03  -1.263826906782e-02   2.976182079479e-02
O         0.4468353821      -0.7604923842      -1.2158906664   1.443035917122e-03   7.896721272795e-03  -1.611064522429e-04
H        -1.8320702375      -0.8089547927       0.1365108471  -1.069746263176e-02  -2.532525095038e-02   4.422545389654e-03
6
Properties=species:S:1:pos:R:3:forces:R:3 energy=-6.992888165176e+02 dipole="-7.1214148534e-01 -4.6155292159e-01 -1.8297737100e-01" quadrupole="-2.9941207758e+01 2.3478612906e+00 -1.4653324050e-01 2.3478612906e+00 -3.2714373309e+01 -5.8924221830e-02 -1.4653324050e-01 -5.8924221830e-02 -3.4526883136e+01" polarizability="4.5824048986e+01 8.8565019494e-01 7.8636743062e-02 8.8565019494e-01 4.3443436692e+01 5.2614175565e-01 7.8636743062e-02 5.2614175565e-01 4.4090347631e+01" charge=-1 multiplicity=1 method=wB97M-V basis=def2-svpd config_type=hso4- sample_index=386 temperature=300.0 units=atomic
S         0.1598991692       0.0183161675      -0.0337390469  -1.520498186517e-02  -2.231796231299e-02   3.920042085682e-02
O        -1.6192397509       0.0312345831       0.0156791860   4.981283411897e-02   8.080526896203e-02  -6.319739333312e-03
O         0.5315029759       1.4337996743       0.0587342943  -8.413814622934e-03   5.990518874921e-03  -1.908402631578e-02
O         0.4804098655      -0.6598549227       1.2694359936  -4.269218459407e-03  -4.884580144831e-03  -2.614163732769e-02
O         0.4880399925      -0.7314383434      -1.2765404953  -5.288479695908e-03   1.104777910097e-02   1.317247958536e-02
H        -1.9492615634      -0.8129285424       0.0085832250  -1.665145922504e-02  -7.060224176663e-02  -9.009017974836e-04
6
Properties=species:S:1:pos:R:3:forces:R:3 energy=-6.992949532492e+02 dipole="-8.1818149573e-01 -3.1341362083e-01 -1.5078601216e-01" quadrupole="-2.9937024993e+01 2.4478383013e+00 -1.2272313338e-01 2.4478383013e+00 -3.2936974197e+01 3.8749778861e-01 -1.2272313338e-01 3.8749778861e-01 -3.4449159296e+01" polarizability="4.2208437193e+01 4.9697509656e-01 3.4817290891e-01 4.9697509656e-01 4.3723034929e+01 -8.5141051699e-01 3.4817290891e-01 -8.5141051699e-01 4.2394663202e+01" charge=-1 multiplicity=1 method=wB97M-V basis=def2-svpd config_type=hso4- sample_index=387 temperature=300.0 units=atomic
S         0.1433735582       0.0459025773      -0.0074333739   2.362031655204e-03  -4.089976102453e-02   5.208770300108e-02
O        -1.5259783754       0.0725450170      -0.0036474863  -2.075034090609e-03  -1.188335442899e-02   9.879929898950e-04
O         0.4679450974       1.4563809165      -0.0250103179   9.618743491648e-03   2.296402439914e-02   4.840520160583e-03
O         0.4821572703      -0.7793710664       1.2391316154  -9.022577917816e-03   3.315537237099e-02  -2.640629113181e-02
O         0.4710551199      -0.7250438467      -1.1949744634   8.112141537178e-03  -1.003272738268e-02  -3.223230737744e-02
H        -1.6736694852      -0.8896260749      -0.0132293078  -8.965770895073e-03   6.651457594123e-03   7.798726365125e-04
6
Properties=species:S:1:pos:R:3:forces:R:3 energy=-6.992855652987e+02 dipole="-7.3184963312e-01 -6.3683342978e-01 2.0648618594e-03" quadrupole="-2.9843809640e+01 1.9729999124e+00 4.8111022071e-01 1.9729999124e+00 -3.2542941366e+01 3.8504301720e-01 4.8111022071e-01 3.8504301720e-01 -3.4029199694e+01" polarizability="4.5142727206e+01 2.4216970627e+00 -2.7248927137e-01 2.4216970627e+00 4.3354724896e+01 -7.0351170151e-01 -2.7248927137e-01 -7.0351170151e-01 4.1881205150e+01" charge=-1 multiplicity=1 method=wB97M-V basis=def2-svpd config_type=hso4- sample_index=388 temperature=300.0 units=atomic
S         0.1516713831       0.0183009417       0.0146905672  -2.160173608376e-02   4.205686072277e-02   1.923537790445e-03
O        -1.6103426556      -0.0331799839       0.0297677960   1.612513281094e-02   4.076458815482e-02   8.337538162024e-04
O         0.5998388831       1.4436038909      -0.0704166684  -2.549041846810e-02  -1.448789521866e-02   2.087381753794e-02
O         0.4305134789      -0.7090534725       1.2374432864   1.185190249848e-02  -9.998842276310e-03   2.623367558997e-02
O         0.4790274938      -0.6234237190      -1.2220117448   9.710534299369e-03  -4.217142642549e-02  -4.774542214673e-02
H        -1.9770540255      -0.9041962685      -0.0777943209   9.368219356221e-03  -1.608792153511e-02  -2.065782012366e-03
6
Properties=species:S:1:pos:R:3:forces:R:3 energy=-6.992855757723e+02 dipole="-9.1712460118e-01 -6.6864167681e-01 1.2033345727e-01" quadrupole="-3.0146173494e+01 1.7987435445e+00 4.6308045155e-01 1.7987435445e+00 -3.3228150253e+01 -6.6523252983e-02 4.6308045155e-01 -6.6523252983e-02 -3.4492185679e+01" polarizability="4.4115613207e+01 1.3963726726e+00 -6.5862516880e-01 1.3963726726e+00 4.4383535238e+01 3.7338194414e-01 -6.5862516880e-01 3.7338194414e-01 4.3768766964e+01" charge=-1 multiplicity=1 method=wB97M-V basis=def2-svpd config_type=hso4- sample_index=389 temperature=300.0 units=atomic
S         0.1234040788       0.0012522090       0.0132809934   3.351821764145e-02   5.917914719037e-02  -5.306640495197e-02
O        -1.5834292218       0.0209094241       0.0334162650   3.477062744371e-02   9.347882099176e-02   3.679226685027e-03
O         0.5616888959       1.4719193854      -0.0203479497  -2.704963246975e-02  -4.941664491867e-02   5.525573684283e-03
O         0.4530893861      -0.6907036045       1.2515779874   3.457439894348e-03  -1.617172148385e-02   1.429750114480e-02
O         0.5091560622      -0.6922825787      -1.2883259649  -1.958711608495e-02   7.873783302990e-03   3.871021154667e-02
H        -1.7429370039      -0.8530820432      -0.0510742055  -2.517938747121e-02  -9.487751407705e-02  -9.201002248932e-03
6
Properties=species:S:1:pos:R:3:forces:R:3 energy=-6.992922622721e+02 dipole="-8.2565421626e-01 -3.8577688364e-01 2.5583874425e-02" quadrupole="-3.0375783861e+01 2.0491428328e+00 -3.9758006892e-01 2.0491428328e+00 -3.2814078411e+01 -3.1581525224e-01 -3.9758006892e-01 -3.1581525224e-01 -3.4133622648e+01" polarizability="4.2102901167e+01 6.2886879623e-01 3.5772866521e-01 6.2886879623e-01 4.2678121891e+01 3.2846609937e-01 3.5772866521e-01 3.2846609937e-01 4.1281660170e+01" charge=-1 multiplicity=1 method=wB97M-V basis=def2-svpd config_type=hso4- sample_index=390 temperature=300.0 units=atomic
S         0.1221767928       0.0383643332      -0.0040777064   2.190567348575e-02  -4.261938872636e-03  -2.465165509751e-03
O        -1.5516543266       0.0616160609      -0.0387191880   1.066681613316e-02  -7.437328909834e-03   7.632031003147e-03
O         0.5049834199       1.4377545869       0.0440477979   7.600452230418e-04   2.429810773815e-02  -8.984698209099e-03
O         0.5175622302      -0.7064295528       1.1965397484  -8.648424231154e-03  -9.205738312721e-03   2.346920111100e-02
O         0.4602063064      -0.7533589358      -1.1978704475  -2.996092920746e-04   3.406892037265e-03  -1.904085958336e-02
H        -1.5694928256      -0.8964928991       0.0751248168  -2.436597353891e-02  -6.820178443171e-03  -6.529520394806e-04
6
Properties=species:S:1:pos:R:3:forces:R:3 energy=-6.992496415438e+02 dipole="-9.0473603025e-01 -6.5221808158e-01 2.6694563069e-01" quadrupole="-2.9865109284e+01 1.9592651179e+00 1.3309930768e-01 1.9592651179e+00 -3.4080874335e+01 -2.0616247608e-01 1.3309930768e-01 -2.0616247608e-01 -3.4296314221e+01" polarizability="4.4069421967e+01 5.2954200436e-01 -2.1806312846e-01 5.2954200436e-01 4.6431281113e+01 5.7222566767e-02 -2.1806312846e-01 5.7222566767e-02 4.4118075535e+01" charge=-1 multiplicity=1 method=wB97M-V basis=def2-svpd config_type=hso4- sample_index=391 temperature=300.0 units=atomic
S         0.1357048223       0.0016775923       0.0375040210   2.635408388659e-02   6.176798374665e-02  -7.036618269290e-02
O        -1.5726775533       0.0590598341      -0.0185922254   9.286312393885e-02   2.716673111791e-01  -2.205328029795e-03
O         0.5047740219       1.5437457502      -0.0350398234  -2.172641290387e-02  -8.639681360849e-02   1.425845334529e-02
O         0.4969442727      -0.7643040644       1.2397241643  -5.569793235450e-03   6.897671397864e-03   6.332798460321e-03
O         0.4884972951      -0.7363016958      -1.2619464441  -1.276363658097e-02   2.143986719911e-02   4.258988764315e-02
H        -1.7841552865      -0.7201507852       0.0110342667  -7.915525597819e-02  -2.753345446923e-01   9.391593345363e-03
6
Properties=species:S:1:pos:R:3:forces:R:3 energy=-6.992891552223e+02 dipole="-8.2701040250e-01 -4.8779653892e-01 -3.2206437821e-01" quadrupole="-2.9613967675e+01 2.4487122007e+00 -4.8307071436e-01 2.4487122007e+00 -3.3573419431e+01 2.8958170614e-01 -4.8307071436e-01 2.8958170614e-01 -3.4588488838e+01" polarizability="4.3361075813e+01 9.6512248325e-01 6.2168228859e-01 9.6512248325e-01 4.6548824577e+01 -5.2931466697e-01 6.2168228859e-01 -5.2931466697e-01 4.3973663372e+01" charge=-1 multiplicity=1 method=wB97M-V basis=def2-svpd config_type=hso4- sample_index=392 temperature=300.0 units=atomic
S         0.1620473665       0.0273429211      -0.0399387149  -5.720778434701e-03   1.767481114067e-02   9.563635173658e-02
O        -1.5163368681       0.0696946947      -0.0092782745  -7.464052412907e-03  -1.062519958878e-02  -1.711389317132e-03
O         0.4587716329       1.5184360537       0.0352448913  -6.674917456282e-04  -5.149273484124e-02  -1.310083566658e-02
O         0.4783175718      -0.7598220736       1.2723578173  -5.837473433050e-03   3.400526424199e-02  -5.137616397216e-02
O         0.4439239622      -0.7677278803      -1.2196128538   1.542104252224e-02  -2.586552922473e-03  -2.959197565147e-02
H        -1.7812858073      -0.8733983196       0.0232605036   4.278568455171e-03   1.306932521261e-02   1.458809461056e-04
6
Properties=species:S:1:pos:R:3:forces:R:3 energy=-6.992883994122e+02 dipole="-6.4631085594e-01 -3.2890851608e-01 4.5399052489e-02" quadrupole="-2.9732448653e+01 2.8346225348e+00 6.1309758886e-02 2.8346225348e+00 -3.2602850452e+01 8.5706613312e-02 6.1309758886e-02 8.5706613312e-02 -3.4540924831e+01" polarizability="4.4866277713e+01 1.3233911804e+00 2.3425302705e-02 1.3233911804e+00 4.4717295664e+01 -3.1528864289e-01 2.3425302705e-02 -3.1528864289e-01 4.3278444457e+01" charge=-1 multiplicity=1 method=wB97M-V basis=def2-svpd config_type=hso4- sample_index=393 temperature=300.0 units=atomic
S         0.1817872920       0.0430751463       0.0114427035  -4.396353632357e-02  -7.420744209675e-02  -6.467253535873e-03
O        -1.5557384464       0.0651004208      -0.0047822551  -1.616296575424e-02  -5.640809689137e-02   2.568914063980e-03
O         0.4627656475       1.4489859751      -0.0257647104   1.433326798353e-02   3.712561947561e-02   6.694072152305e-03
O         0.4643113171      -0.7575898673       1.2417283623   5.906298457275e-03   1.911002485289e-02  -8.777251532553e-03
O         0.4621790043      -0.7235435562      -1.2337867999   8.531861960979e-03   8.056299534333e-03   5.666248401486e-03
H        -1.9061763074      -0.9374717200      -0.0072746338   3.136193548355e-02   6.625121567128e-02   3.452211051050e-04
6
Properties=species:S:1:pos:R:3:forces:R:3 energy=-6.992947413789e+02 dipole="-1.0704371598e+00 -4.0250345335e-01 6.1080323706e-02" quadrupole="-2.8384558712e+01 2.7519220829e+00 3.2995008500e-02 2.7519220829e+00 -3.2968171962e+01 -2.9714924594e-02 3.2995008500e-02 -2.9714924594e-02 -3.4391735812e+01" polarizability="4.3076075958e+01 1.0485795653e+00 -4.5090121146e-02 1.0485795653e+00 4.2672669707e+01 -3.1691976059e-02 -4.5090121146e-02 -3.1691976059e-02 4.1815024246e+01" charge=-1 multiplicity=1 method=wB97M-V basis=def2-svpd config_type=hso4- sample_index=394 temperature=300.0 units=atomic
S         0.1324846580       0.0252239696       0.0087322277   2.230914953571e-03  -4.463939179883e-02  -1.514892558044e-02
O        -1.5315757264       0.0664504158      -0.0046919300  -2.805764547765e-02   2.513281254148e-04   1.814700240280e-03
O         0.4810990370       1.4197163294      -0.0102182591   2.657125460896e-03   4.080489846049e-02   3.407360438529e-03
O         0.4962787290      -0.7185710172       1.2164372647  -4.408874659578e-04  -5.233836249491e-03   1.971850672157e-02
O         0.4936515865      -0.7082606457      -1.2191506269  -1.771818095992e-03  -3.677842100522e-03  -9.809421619266e-03
H        -2.0264387663      -0.7857329201       0.0017204677   2.534919270316e-02   1.246700475812e-02   1.054850887980e-05
6
Properties=species:S:1:pos:R:3:forces:R:3 energy=-6.992923514561e+02 dipole="-8.1416646262e-01 -6.0177948541e-01 1.2713755718e-01" quadrupole="-2.9406410065e+01 2.1072731005e+00 1.5361833271e-01 2.1072731005e+00 -3.2402429887e+01 -1.9408438629e-02 1.5361833271e-01 -1.9408438629e-02 -3.4390280073e+01" polarizability="4.2304222770e+01 2.2478360429e+00 -1.5320989272e-01 2.2478360429e+00 4.2900683426e+01 -9.1221994687e-02 -1.5320989272e-01 -9.1221994687e-02 4.1868734220e+01" charge=-1 multiplicity=1 method=wB97M-V basis=def2-svpd config_type=hso4- sample_index=395 temperature=300.0 units=atomic
S         0.1542265921       0.0181676895       0.0193217436  -1.933747318223e-02   1.793163331437e-02  -3.864734903589e-02
O        -1.5191483272      -0.0136170218      -0.0033082230  -2.994780810772e-02  -9.185769666260e-03   2.955896383413e-03
O         0.5510344534       1.4299302172      -0.0290661301  -7.618193341215e-03   8.702824365947e-03   9.970077783831e-03
O         0.4248082341      -0.6820619648       1.2455034338   2.085425497499e-02  -2.556362837551e-02   3.896638108309e-02
O         0.4291437870      -0.6525452563      -1.2514030270   1.618828930579e-02  -2.201050942619e-02  -1.341333227222e-02
H        -1.8467392857      -0.9589450484      -0.0091098640   1.986133643320e-02   3.022306532127e-02   1.865013062599e-04
6
Properties=species:S:1:pos:R:3:forces:R:3 energy=-6.992896883080e+02 dipole="-9.8534465174e-01 -2.2210713345e-01 1.2651187467e-01" quadrupole="-2.9890350622e+01 2.2014645688e+00 2.0534635313e-02 2.2014645688e+00 -3.2799497157e+01 -2.1056257854e-01 2.0534635313e-02 -2.1056257854e-01 -3.4618024176e+01" polarizability="4.1033673985e+01 4.9683718277e-01 -1.0332603650e-01 4.9683718277e-01 4.2542436607e+01 2.8004607936e-01 -1.0332603650e-01 2.8004607936e-01 4.2175181137e+01" charge=-1 multiplicity=1 method=wB97M-V basis=def2-svpd config_type=hso4- sample_index=396 temperature=300.0 units=atomic
S         0.1097088678       0.0565079926       0.0122411768   4.831851916591e-02  -6.538400718419e-02  -3.199994521246e-02
O        -1.5121066970       0.0464285567      -0.0100768564  -1.192905767204e-02   4.056946076050e-02   2.294387007885e-03
O         0.5064425328       1.4325651126       0.0028854215   4.858645346260e-03   4.607957045169e-02   7.878423968758e-04
O         0.4849931593      -0.7319694433       1.2081764107  -6.627657703564e-03   5.100790360085e-03   1.153443402816e-02
O         0.4771075771      -0.7450664784      -1.2264867463  -1.156736887979e-02   2.140550827679e-02   1.695822578682e-02
H        -1.5768849406      -0.8782401833       0.0176623515  -2.299929825150e-02  -4.779495361742e-02   3.943636534506e-04
6
Properties=species:S:1:pos:R:3:forces:R:3 energy=-6.992892105150e+02 dipole="-8.2410475151e-01 -6.8346995717e-01 -1.2524164942e-01" quadrupole="-2.8955329409e+01 2.5916303697e+00 8.8241514522e-02 2.5916303697e+00 -3.3729849909e+01 1.1476019956e-01 8.8241514522e-02 1.1476019956e-01 -3.3680706807e+01" polarizability="4.4975816645e+01 2.5047347640e-01 -3.9001958699e-02 2.5047347640e-01 4.4270834287e+01 2.7333040068e-02 -3.9001958699e-02 2.7333040068e-02 4.1510773441e+01" charge=-1 multiplicity=1 method=wB97M-V basis=def2-svpd config_type=hso4- sample_index=397 temperature=300.0 units=atomic
S         0.1592390984      -0.0133231162      -0.0171892356  -2.871564545826e-02   7.822489367948e-02   3.220762270422e-02
O        -1.5834471357       0.1311637918       0.0212985368   2.667570160656e-02   2.452371623807e-02  -3.267873342619e-03
O         0.4259013436       1.4789797345       0.0110926017   4.571422656365e-04  -4.252227162181e-02  -5.789880792368e-03
O         0.5112717156      -0.7333278512       1.1940688650   2.024669708887e-03  -1.111612517119e-02   2.933167507609e-02
O         0.5338661988      -0.7456305395      -1.1906012660   3.967947162304e-03  -1.844090507870e-02  -5.090309768731e-02
H        -2.0602461487      -0.6758033615      -0.0241568525  -4.423407240875e-03  -3.064095215770e-02  -1.567112241805e-03
6
Properties=species:S:1:pos:R:3:forces:R:3 energy=-6.992898843843e+02 dipole="-6.7940127270e-01 -3.2704581724e-01 1.7089210126e-02" quadrupole="-2.9536785900e+01 2.3371646020e+00 -3.2854826759e-02 2.3371646020e+00 -3.2972297411e+01 -1.2634483000e-01 -3.2854826759e-02 -1.2634483000e-01 -3.4470461679e+01" polarizability="4.1102045642e+01 4.7521856260e-01 -3.6488771344e-02 4.7521856260e-01 4.3205416980e+01 3.1320010171e-01 -3.6488771344e-02 3.1320010171e-01 4.2760979340e+01" charge=-1 multiplicity=1 method=wB97M-V basis=def2-svpd config_type=hso4- sample_index=398 temperature=300.0 units=atomic
S         0.1782043504       0.0405733618      -0.0025832656  -2.871702636136e-02  -4.335958370362e-02  -8.065988523486e-03
O        -1.4850191111       0.0475322190      -0.0010261658   7.794827674136e-03   9.724132194954e-02  -2.057365399068e-03
O         0.4492305917       1.4665378983       0.0167500450   1.675189550837e-02   1.494966472689e-02  -3.886057080409e-03
O         0.4334737892      -0.7295467511       1.2388088752   1.653768049478e-02   5.058784239102e-03  -1.577241025252e-04
O         0.4314599469      -0.7548100473      -1.2499267379   1.352212466813e-02   1.778473735952e-02   1.309252022498e-02
H        -1.7224346166      -0.8120021280       0.0111843256  -2.587722810723e-02  -9.175046707520e-02   1.061798075485e-03
6
Properties=species:S:1:pos:R:3:forces:R:3 energy=-6.992874095494e+02 dipole="-9.1682896077e-01 -7.0581909134e-01 -2.5299905438e-01" quadrupole="-2.9039414442e+01 2.4905438204e+00 -1.5413490660e-01 2.4905438204e+00 -3.3127145332e+01 6.3161602207e-03 -1.5413490660e-01 6.3161602207e-03 -3.3986187764e+01" polarizability="4.3635279726e+01 1.6913756341e+00 1.0445481471e-01 1.6913756341e+00 4.3982486354e+01 4.6220233341e-01 1.0445481471e-01 4.6220233341e-01 4.1341122196e+01" charge=-1 multiplicity=1 method=wB97M-V basis=def2-svpd config_type=hso4- sample_index=399 temperature=300.0 units=atomic
S         0.1453343607      -0.0062572414      -0.0429362239  -1.525136410277e-02   6.492178902954e-02   6.479223865710e-02
O        -1.5358187848       0.0871539715       0.0245156543  -3.040040434190e-02  -5.278265546141e-02  -1.170970547838e-02
O         0.4703862027       1.4425243653       0.0649740046  -1.720856402287e-03  -9.342403928528e-03  -2.314127308916e-02
O         0.4790204589      -0.6624858523       1.2104465051   8.611694454332e-03  -3.027126562290e-02   2.579511009418e-02
O         0.4949492041      -0.7395645817      -1.2136379888   1.005937650726e-02  -2.517294481561e-02  -5.710373564768e-02
H        -1.9404780240      -0.8713892266      -0.0009526211   2.866256107103e-02   5.272245258076e-02   1.330850093224e-03
6
Properties=species:S:1:pos:R:3:forces:R:3 energy=-6.992902580859e+02 dipole="-5.7267978526e-01 -6.5698795955e-01 -9.0937389631e-02" quadrupole="-3.0688236458e+01 2.1433570091e+00 -4.9155155598e-02 2.1433570091e+00 -3.3134535983e+01 -1.8013845181e-02 -4.9155155598e-02 -1.8013845181e-02 -3.3778918282e+01" polarizability="4.4642479640e+01 8.6991060638e-01 -6.4773732232e-04 8.6991060638e-01 4.4738795764e+01 2.5578756913e-01 -6.4773732232e-04 2.5578756913e-01 4.1566705133e+01" charge=-1 multiplicity=1 method=wB97M-V basis=def2-svpd config_type=hso4- sample_index=400 temperature=300.0 units=atomic
S         0.1648387732       0.0052818110      -0.0169898450  -2.758449780223e-02   7.830718066286e-02   2.158059495600e-02
O        -1.5911927696       0.0987053806       0.0107955973   2.659937049765e-02  -5.523647049576e-02  -5.243037721435e-03
O         0.4664586164       1.4817845225       0.0265717519   1.313349906876e-03  -3.497158944253e-02  -9.045323236769e-03
O         0.4852089152      -0.7202473038       1.1977856337   5.915107429876e-03  -1.508666301992e-02   3.050635619665e-02
O         0.4931913293      -0.7529274098      -1.2009516605   5.205508758391e-03  -1.128563082809e-02  -3.881767541020e-02
H        -1.6931377489      -0.9100321364      -0.0011997232  -1.143784843252e-02   3.833583821457e-02   9.988604030230e-04
6
Properties=species:S:1:pos:R:3:forces:R:3 energy=-6.992642352902e+02 dipole="-9.7163525442e-01 -4.4510871831e-01 -4.2330403462e-02" quadrupole="-2.8997526400e+01 3.0356109204e+00 -5.1233939672e-01 3.0356109204e+00 -3.2964407705e+01 -1.2666158604e-01 -5.1233939672e-01 -1.2666158604e-01 -3.4120797686e+01" polarizability="4.3027912618e+01 2.0570373286e+00 3.5495820771e-01 2.0570373286e+00 4.5244058247e+01 -2.2261724566e-01 3.5495820771e-01 -2.2261724566e-01 4.0841516045e+01" charge=-1 multiplicity=1 method=wB97M-V basis=def2-svpd config_type=hso4- sample_index=401 temperature=300.0 units=atomic
S         0.1403425240       0.0314657116      -0.0065747962  -3.819377627174e-03  -1.808548062349e-02   3.185829382261e-02
O        -1.4869478632       0.1264374106      -0.0423686717  -6.668682729897e-02  -1.036963000293e-01   1.696590922695e-02
O         0.4153321791       1.4471853230       0.0306402786   1.956827795732e-02   3.495222673266e-02  -5.307500946832e-03
O         0.5245351231      -0.7473642556       1.1778972437  -1.695095480640e-03   1.401859503288e-03   2.975344266692e-02
O         0.4595502358      -0.7658593742      -1.1569850715   1.663163021597e-02  -1.509860094690e-02  -6.221540303971e-02
H        -1.8615863098      -0.9827080390       0.0705441479   3.605401280980e-02   1.004889456809e-01  -1.110714779866e-02
6
Properties=species:S:1:pos:R:3:forces:R:3 energy=-6.992817070987e+02 dipole="-8.5591223840e-01 -6.1742028112e-01 5.1211542455e-02" quadrupole="-3.0236125736e+01 2.5549632425e+00 1.2718678024e-01 2.5549632425e+00 -3.2781784293e+01 6.9207164761e-02 1.2718678024e-01 6.9207164761e-02 -3.4566245161e+01" polarizability="4.7529271413e+01 1.7857459593e+00 -8.7435481047e-02 1.7857459593e+00 4.5765988674e+01 -1.8632721260e-01 -8.7435481047e-02 -1.8632721260e-01 4.3968469964e+01" charge=-1 multiplicity=1 method=wB97M-V basis=def2-svpd config_type=hso4- sample_index=402 temperature=300.0 units=atomic
S         0.1351847208       0.0023549002       0.0109578289   9.490110722740e-03   1.699562247618e-02  -1.291436657875e-02
O        -1.6288040284       0.0866732760       0.0023596586   9.757284587398e-03  -9.241922423045e-02  -2.363863952920e-04
O         0.5169906671       1.4367884888      -0.0254918364  -1.177060140589e-02  -9.056408936502e-03   7.709105333609e-03
O         0.5147069160      -0.7176795890       1.2564625996  -1.303381377310e-02   2.235834396664e-03  -1.034452574136e-02
O         0.5229429675      -0.6880358348      -1.2544435569  -1.448784695418e-02  -4.403739296468e-03   1.426315699265e-02
H        -1.8881578884      -0.9923028806      -0.0161515993   1.997560710589e-02   8.662797316861e-02   1.522966270337e-03
6
Properties=species:S:1:pos:R:3:forces:R:3 energy=-6.992950561945e+02 dipole="-9.8852462482e-01 -5.0224859933e-01 1.6829012937e-01" quadrupole="-2.8954260830e+01 2.6225360794e+00 4.8569070802e-01 2.6225360794e+00 -3.2972846294e+01 3.9504731222e-02 4.8569070802e-01 3.9504731222e-02 -3.4464515196e+01" polarizability="4.4190854793e+01 1.3022339563e+00 -4.4539264197e-01 1.3022339563e+00 4.3661810098e+01 -8.6741511666e-02 -4.4539264197e-01 -8.6741511666e-02 4.2711846381e+01" charge=-1 multiplicity=1 method=wB97M-V basis=def2-svpd config_type=hso4- sample_index=403 temperature=300.0 units=atomic
S         0.1371016947       0.0152832936       0.0269999740   2.258368564339e-03  -1.018191406452e-02  -5.592496746592e-02
O        -1.5577189715       0.0612279701       0.0188726273  -1.516109590768e-02  -1.501781362598e-02  -1.162193231837e-03
O         0.4990383267       1.4317434370      -0.0526993174  -5.612689120672e-03   1.069452515730e-02   1.523328266890e-02
O         0.4731950619      -0.7290972294       1.2301767353   4.260833409925e-03  -7.630685379004e-03   2.349748228324e-02
O         0.5135103564      -0.6817748780      -1.2477322095  -1.033150484179e-02  -2.112535873048e-03   1.621019772901e-02
H        -1.9866320480      -0.8377781585      -0.0497154966   2.454950284190e-02   2.426545302237e-02   2.148524808742e-03
6
Properties=species:S:1:pos:R:3:forces:R:3 energy=-6.992950727358e+02 dipole="-9.1164824552e-01 -6.8433895318e-01 9.4791200639e-02" quadrupole="-2.9584665089e+01 2.0169563124e+00 -5.3376162540e-01 2.0169563124e+00 -3.3216985217e+01 -1.5569910354e-01 -5.3376162540e-01 -1.5569910354e-01 -3.4569263746e+01" polarizability="4.3108814732e+01 1.5326600571e+00 5.8452579563e-01 1.5326600571e+00 4.4568496872e+01 -3.8387951133e-01 5.8452579563e-01 -3.8387951133e-01 4.3666675985e+01" charge=-1 multiplicity=1 method=wB97M-V basis=def2-svpd config_type=hso4- sample_index=404 temperature=300.0 units=atomic
S         0.1422607728      -0.0031024313       0.0154273677   1.464860626951e-02   5.055941586280e-02   1.902342069820e-03
O        -1.5295715472       0.0359476744      -0.0660827011  -5.747081441626e-03   2.801015952214e-03   1.576326768101e-02
O         0.5183428405       1.4690554348       0.0020776381  -1.294314044036e-02  -4.099679668382e-02   4.128674000238e-03
O         0.5032768211      -0.7021943900       1.2897273764  -9.601292434339e-03   2.769262350007e-03  -2.177021016229e-02
O         0.4138120077      -0.6823425041      -1.2617268632   1.540207168172e-02  -1.426532334968e-02   6.337167568198e-04
H        -1.7901212342      -0.8804210340       0.0879526328  -1.793882696862e-03  -7.963292214610e-04  -6.123989009152e-04
6
Properties=species:S:1:pos:R:3:forces:R:3 energy=-6.992843347630e+02 dipole="-1.2653888022e+00 -6.2414916796e-01 -2.3017510739e-01" quadrupole="-2.9202886307e+01 2.2327203284e+00 -7.4949917443e-01 2.2327203284e+00 -3.3563352478e+01 1.9808595042e-01 -7.4949917443e-01 1.9808595042e-01 -3.4420682572e+01" polarizability="4.2921477502e+01 1.4806058857e+00 9.7773481341e-01 1.4806058857e+00 4.5031723298e+01 -7.9219759356e-01 9.7773481341e-01 -7.9219759356e-01 4.2425609731e+01" charge=-1 multiplicity=1 method=wB97M-V basis=def2-svpd config_type=hso4- sample_index=405 temperature=300.0 units=atomic
S         0.0863129253       0.0159172486      -0.0226331515   7.222298324330e-02   5.670438838869e-02   1.012935296199e-01
O        -1.5383156680       0.0435413251      -0.0517828499  -1.945264575818e-02   7.890975182077e-03   6.980579605689e-03
O         0.5458247953       1.4791587455       0.0275667608  -3.204485071389e-02  -4.613743674743e-02  -7.916088268227e-03
O         0.5490719358      -0.7258410903       1.2444285423  -3.200425456003e-02   1.953576590508e-02  -2.983198211189e-02
O         0.4607940309      -0.7141134106      -1.1792563220   1.264495005750e-02  -3.470053032816e-02  -7.094523160139e-02
H        -1.8036429493      -0.8736626526       0.0760943439  -1.352268245931e-03  -3.298532609733e-03   5.089769189223e-04
6
Properties=species:S:1:pos:R:3:forces:R:3 energy=-6.992962492112e+02 dipole="-9.1766593007e-01 -6.8549177805e-01 8.5692780195e-02" quadrupole="-2.9429292278e+01 2.2464423287e+00 3.6130623559e-01 2.2464423287e+00 -3.2942680212e+01 -1.3903100131e-02 3.6130623559e-01 -1.3903100131e-02 -3.4162054960e+01" polarizability="4.2606523215e+01 1.3466000800e+00 -3.9718138238e-01 1.3466000800e+00 4.3075000749e+01 2.0787999594e-01 -3.9718138238e-01 2.0787999594e-01 4.1628489458e+01" charge=-1 multiplicity=1 method=wB97M-V basis=def2-svpd config_type=hso4- sample_index=406 temperature=300.0 units=atomic
S         0.1361304024      -0.0043953341       0.0103309827   6.399313008867e-04   5.546583350172e-02  -4.511844191352e-02
O        -1.5364224179       0.0677735522       0.0245600205  -1.282925646645e-02  -2.893840574543e-02  -5.475038959316e-03
O         0.4956807634       1.4312904218      -0.0205111519  -4.202460156639e-03  -2.679974166618e-03   5.300157149501e-03
O         0.4596487946      -0.6914121307       1.2208303563   1.384553132008e-02  -3.434025138211e-02   4.901284725486e-02
O         0.5008550159      -0.6836390618      -1.2432573609  -3.791163515348e-03  -1.511538656163e-02  -5.668565338695e-03
H        -1.8210712326      -0.8837106689      -0.0408990428   6.244579959381e-03   2.565488228063e-02   1.910674605984e-03
6
Properties=species:S:1:pos:R:3:forces:R:3 energy=-6.992839722445e+02 dipole="-7.3459524386e-01 -4.1278664164e-01 4.6895290313e-02" quadrupole="-2.9527618573e+01 2.3539565352e+00 -2.7211507339e-01 2.3539565352e+00 -3.2480986367e+01 -4.1394270219e-01 -2.7211507339e-01 -4.1394270219e-01 -3.4361793775e+01" polarizability="4.3287297104e+01 5.2127989435e-01 4.6386279127e-03 5.2127989435e-01 4.1372214485e+01 9.0601425675e-01 4.6386279127e-03 9.0601425675e-01 4.2587717617e+01" charge=-1 multiplicity=1 method=wB97M-V basis=def2-svpd config_type=hso4- sample_index=407 temperature=300.0 units=atomic
S         0.1587465493       0.0186541405      -0.0098021647  -3.190133162873e-02  -5.085185164512e-02  -2.668432502592e-02
O        -1.5766369030       0.0389479363      -0.0148565351   5.276540071573e-02   1.141332473552e-01  -9.559979155774e-03
O         0.5069372442       1.3947190951       0.0644180190   8.200861644734e-03   6.591146640116e-02  -1.684640359657e-02
O         0.4873093059      -0.6363205214       1.2407445816   5.962249657121e-03  -3.502680443109e-02   2.475436280817e-02
O         0.4634050455      -0.7267561813      -1.2736597241  -1.166793737285e-03   1.151836652529e-02   1.966347628981e-02
H        -1.9162641759      -0.7720047271       0.0566756910  -3.391607634149e-02  -1.056634846330e-01   8.572568439127e-03
6
Properties=species:S:1:pos:R:3:forces:R:3 energy=-6.992770650109e+02 dipole="-8.8797821584e-01 -5.9899104927e-01 -2.2364482333e-01" quadrupole="-2.9352103196e+01 2.8835893506e+00 -5.1505175844e-01 2.8835893506e+00 -3.2892190960e+01 3.1476858381e-01 -5.1505175844e-01 3.1476858381e-01 -3.4363363366e+01" polarizability="4.8364615096e+01 1.2653989241e+00 8.5042548227e-01 1.2653989241e+00 4.4280919813e+01 -8.4585474670e-01 8.5042548227e-01 -8.4585474670e-01 4.3452527851e+01" charge=-1 multiplicity=1 method=wB97M-V basis=def2-svpd config_type=hso4- sample_index=408 temperature=300.0 units=atomic
S         0.1420794813      -0.0137234090      -0.0203854450  -1.184149675325e-02   1.328612770649e-02   9.456143156864e-02
O        -1.6302279344       0.1263233509      -0.0257995154  -1.044986270899e-02  -7.496713901462e-02   5.461258801348e-03
O         0.4700111320       1.4013301785       0.0069941474  -3.542509824719e-04   2.635423449471e-02  -1.463289007880e-03
O         0.5677311496      -0.7071309963       1.2763726929  -2.617694328232e-02   8.845971774747e-03  -3.926132121143e-02
O         0.5181906661      -0.6788716166      -1.2185911640   6.132278525618e-03  -4.160982822140e-02  -5.538882839904e-02
H        -2.1055557522      -0.8429324009       0.0312314286   4.260520697616e-02   6.801480143072e-02  -3.853431126738e-03
6
Properties=species:S:1:pos:R:3:forces:R:3 energy=-6.992815636950e+02 dipole="-6.6609631363e-01 -4.2119213352e-01 -2.4187421838e-01" quadrupole="-2.8957317675e+01 2.7314515841e+00 8.4003010481e-02 2.7314515841e+00 -3.2704644848e+01 4.9123113543e-01 8.4003010481e-02 4.9123113543e-01 -3.4551593264e+01" polarizability="4.2792635758e+01 9.1504310254e-01 2.2088558344e-01 9.1504310254e-01 4.2937276786e+01 -7.3257571222e-01 2.2088558344e-01 -7.3257571222e-01 4.3144141824e+01" charge=-1 multiplicity=1 method=wB97M-V basis=def2-svpd config_type=hso4- sample_index=409 temperature=300.0 units=atomic
S         0.1941346455       0.0097736742      -0.0198068156  -5.862787583464e-02  -6.075647526227e-02   7.349610694940e-02
O        -1.4843201942       0.1033420537       0.0278330467  -4.496816975685e-02  -5.363338086015e-02  -1.003877238716e-02
O         0.3961510231       1.4048967211      -0.0242032401   3.888130081261e-02   8.188726462173e-02   3.200440839319e-03
O         0.4347305276      -0.7313178764       1.2895992283   1.379333187930e-02   1.418327609579e-02  -3.810745502970e-02
O         0.4635037765      -0.6836188433      -1.2505077859   2.184626198133e-02  -2.985769724119e-02  -3.387945899206e-02
H        -1.9158827021      -0.8316683529      -0.0553269630   2.912256338333e-02   4.820728179262e-02   5.405360168461e-03
6
Properties=species:S:1:pos:R:3:forces:R:3 energy=-6.992884354989e+02 dipole="-9.5318317921e-01 -5.0427159004e-01 -1.9713512557e-01" quadrupole="-2.9835347163e+01 2.5105081169e+00 4.0780101492e-01 2.5105081169e+00 -3.3172100171e+01 4.6605621422e-01 4.0780101492e-01 4.6605621422e-01 -3.4937303246e+01" polarizability="4.5899083230e+01 1.4604450592e+00 -2.4291415851e-01 1.4604450592e+00 4.6320287986e+01 -3.6126950546e-01 -2.4291415851e-01 -3.6126950546e-01 4.5186286268e+01" charge=-1 multiplicity=1 method=wB97M-V basis=def2-svpd config_type=hso4- sample_index=410 temperature=300.0 units=atomic
S         0.1342370706       0.0192051371      -0.0190006136   2.280863010542e-02  -6.086491923530e-03   3.576944566617e-02
O        -1.5800559779       0.0628879388       0.0560483532  -9.825151660721e-04  -5.687023798709e-02  -1.981648449793e-02
O         0.5134909430       1.4724959752      -0.0270818184  -1.360141584713e-02  -3.058755055536e-02   2.369671381885e-03
O         0.4603925781      -0.7444938033       1.2850073202  -8.717828816297e-03   2.667207969877e-02  -4.931896381637e-02
O         0.5314401784      -0.7105620767      -1.2707184982  -1.645823055356e-02   8.797220985867e-03   2.130840152133e-02
H        -1.8518555744      -0.9369253932      -0.0921751049   1.692777410645e-02   5.810382093607e-02   9.689244002829e-03
6
Properties=species:S:1:pos:R:3:forces:R:3 energy=-6.992823676375e+02 dipole="-1.0012885406e+00 -5.5213538217e-01 -8.5094953570e-02" quadrupole="-2.9570966132e+01 2.5795395992e+00 -1.0172543424e-01 2.5795395992e+00 -3.3033356511e+01 6.1110872264e-01 -1.0172543424e-01 6.1110872264e-01 -3.4787774132e+01" polarizability="4.5827279373e+01 1.7290234054e+00 5.9576111958e-01 1.7290234054e+00 4.5823133566e+01 -1.7386605857e+00 5.9576111958e-01 -1.7386605857e+00 4.4337586729e+01" charge=-1 multiplicity=1 method=wB97M-V basis=def2-svpd config_type=hso4- sample_index=411 temperature=300.0 units=atomic
S         0.1279274189       0.0153190503       0.0142791487   1.873831242010e-02   4.830923660115e-03   4.689976426372e-02
O        -1.5823061830       0.0599455728      -0.0213402679  -1.038636195229e-02  -5.862146959079e-02   7.209208590923e-03
O         0.5227691388       1.4514601050      -0.0816566434  -1.510100778654e-02  -1.396601703432e-02   2.387302352522e-02
O         0.5148032864      -0.7803545669       1.2997643174  -2.337667709191e-02   3.856606504668e-02  -5.194132448178e-02
O         0.4863775269      -0.6425758515      -1.2245503400   4.082164753133e-03  -3.393526480251e-02  -2.680163512381e-02
H        -1.9107138191      -0.9447294467      -0.0211721805   2.601433154536e-02   6.315537778372e-02   8.151197086604e-04
6
Properties=species:S:1:pos:R:3:forces:R:3 energy=-6.992870399163e+02 dipole="-4.8135762854e-01 -5.6236495307e-01 -5.2888922378e-02" quadrupole="-3.1274984732e+01 1.7240797980e+00 -3.4095813531e-01 1.7240797980e+00 -3.2750263713e+01 -4.2075175567e-02 -3.4095813531e-01 -4.2075175567e-02 -3.3975088403e+01" polarizability="4.4401377768e+01 1.1044393851e+00 4.5744786597e-01 1.1044393851e+00 4.4107929893e+01 -1.8369434552e-01 4.5744786597e-01 -1.8369434552e-01 4.1973850021e+01" charge=-1 multiplicity=1 method=wB97M-V basis=def2-svpd config_type=hso4- sample_index=412 temperature=300.0 units=atomic
S         0.1628907759       0.0175104089      -0.0062006573  -1.939521612004e-02   5.602404032940e-02   3.148857960304e-02
O        -1.5950744031       0.0593046593      -0.0305692282   3.855457586734e-02  -6.018776134694e-02   9.744262574106e-03
O         0.5063931726       1.4635509259       0.0187499880   8.008242166024e-05  -1.621473240822e-02  -3.919556988269e-03
O         0.4922338604      -0.7160064508       1.2329974625  -2.544241102499e-03  -2.425128084598e-03   2.910782994782e-03
O         0.4443247764      -0.7218247075      -1.2115101649   1.309811884764e-02  -1.900840812443e-02  -3.650139228115e-02
H        -1.5307720194      -0.9634036450       0.0483887138  -2.980465823972e-02   4.186603534509e-02  -3.717800186832e-03
6
Properties=species:S:1:pos:R:3:forces:R:3 energy=-6.992897865919e+02 dipole="-4.7068097810e-01 -3.3290775802e-01 -9.1207985073e-04" quadrupole="-3.0561279331e+01 2.1470821863e+00 1.1935722025e-01 2.1470821863e+00 -3.2076792507e+01 3.5402050284e-01 1.1935722025e-01 3.5402050284e-01 -3.4246117000e+01" polarizability="4.4152991151e+01 1.5530718093e+00 1.0420264689e-01 1.5530718093e+00 4.2644227774e+01 -9.0774215412e-01 1.0420264689e-01 -9.0774215412e-01 4.2181286413e+01" charge=-1 multiplicity=1 method=wB97M-V basis=def2-svpd config_type=hso4- sample_index=413 temperature=300.0 units=atomic
S         0.1805985214       0.0536250431       0.0153454402  -5.328589772555e-02  -5.646199192330e-02   2.125963229817e-02
O        -1.5861820065      -0.0184775473      -0.0013481101   1.761879898080e-02   3.728479021836e-02   4.283911479690e-03
O         0.5503951213       1.4343485751      -0.0605310723   4.164386425191e-03   4.523821485267e-02   1.576832338850e-02
O         0.4306988944      -0.7464460932       1.2463200052   1.031989341216e-02   1.732523784052e-02  -3.709663493968e-03
O         0.4338598939      -0.6590619111      -1.2135696088   1.950105782835e-02  -2.694603229194e-02  -3.741662135790e-02
H        -1.7824840511      -0.9460020118      -0.0325054533   1.676219648060e-03  -1.644980250120e-02  -1.227928847252e-04
6
Properties=species:S:1:pos:R:3:forces:R:3 energy=-6.992940429768e+02 dipole="-8.8282509211e-01 -5.8966331705e-01 -1.7416673551e-01" quadrupole="-2.8696700134e+01 2.4253175119e+00 -5.1447913685e-01 2.4253175119e+00 -3.3248234119e+01 5.3888689595e-02 -5.1447913685e-01 5.3888689595e-02 -3.4468378699e+01" polarizability="4.3129227039e+01 1.0467670312e+00 5.0940868659e-01 1.0467670312e+00 4.3749690227e+01 -1.5557623014e-01 5.0940868659e-01 -1.5557623014e-01 4.3247163998e+01" charge=-1 multiplicity=1 method=wB97M-V basis=def2-svpd config_type=hso4- sample_index=414 temperature=300.0 units=atomic
S         0.1649664339      -0.0034348989      -0.0245168902  -1.902924885221e-02   2.190352228076e-02   6.647014763954e-02
O        -1.5151798639       0.0695849628      -0.0230335553  -1.282637162141e-02   1.276319482297e-02   5.455171611909e-04
O         0.4582742132       1.4484556321       0.0402545781   4.613910439461e-03  -1.163971845616e-02  -1.183542578510e-02
O         0.4874993275      -0.6883512177       1.2819780352  -1.114986176812e-03   1.152536433377e-03  -3.080042667782e-02
O         0.4416737622      -0.7144652571      -1.2527362802   1.757821395724e-02  -1.710093625905e-02  -2.477757836013e-02
H        -1.9800660028      -0.7687676748       0.0477052060   1.076000772528e-02  -7.002896716853e-03   3.639160843676e-04
6
Properties=species:S:1:pos:R:3:forces:R:3 energy=-6.992905474137e+02 dipole="-6.8150774602e-01 -6.2027915288e-01 -1.3240780810e-01" quadrupole="-3.0467056337e+01 2.1456483960e+00 -4.2101296749e-01 2.1456483960e+00 -3.3588582535e+01 -3.5740665227e-02 -4.2101296749e-01 -3.5740665227e-02 -3.4227139530e+01" polarizability="4.5036270722e+01 8.8986952289e-01 4.8254162294e-01 8.8986952289e-01 4.6602973639e+01 1.6816059996e-02 4.8254162294e-01 1.6816059996e-02 4.3562601526e+01" charge=-1 multiplicity=1 method=wB97M-V basis=def2-svpd config_type=hso4- sample_index=415 temperature=300.0 units=atomic
S         0.1622429551       0.0107296544      -0.0212099693  -6.807767792694e-03   5.549409578979e-02   4.772740577663e-02
O        -1.5807748318       0.0801663675      -0.0221163552   2.725102950203e-02  -1.098005430366e-02   1.747865531527e-03
O         0.4777623223       1.5255789357       0.0401010253  -6.935097566095e-03  -6.761788100148e-02  -1.151121524363e-02
O         0.5030644932      -0.7406744176       1.2469025651  -8.568561204471e-03   1.703755151141e-02  -2.574752119766e-02
O         0.4604698888      -0.7710082675      -1.2250176524   5.679002060726e-03   4.896693858306e-03  -1.213779255419e-02
H        -1.7204008419      -0.8759089951       0.0473409383  -1.060629170463e-02   1.204328407075e-03  -1.068920041683e-04
6
Properties=species:S:1:pos:R:3:forces:R:3 energy=-6.992890885329e+02 dipole="-8.0705031603e-01 -3.0449117769e-01 6.4123346682e-02" quadrupole="-2.9254526444e+01 2.7920544593e+00 -2.3828156901e-02 2.7920544593e+00 -3.2520602526e+01 -2.2870311345e-01 -2.3828156901e-02 -2.2870311345e-01 -3.4567854900e+01" polarizability="4.3006151912e+01 1.5165904696e+00 -1.2257744547e-01 1.5165904696e+00 4.3771900669e+01 4.5697492143e-01 -1.2257744547e-01 4.5697492143e-01 4.2371347237e+01" charge=-1 multiplicity=1 method=wB97M-V basis=def2-svpd config_type=hso4- sample_index=416 temperature=300.0 units=atomic
S         0.1627745259       0.0508057554       0.0006605495  -2.869599755606e-02  -8.390147163997e-02  -2.421336700622e-02
O        -1.5161207732       0.0412547552      -0.0034648574  -3.788172038799e-02  -4.169365694421e-02   1.004166410126e-03
O         0.4814617749       1.4388397984       0.0222253868   1.281064489500e-02   5.261127585510e-02  -4.685985387858e-03
O         0.4540321392      -0.7129384935       1.2138876093   1.389620622649e-02  -5.396620140271e-03   2.163119597948e-02
O         0.4505483104      -0.7499637236      -1.2349307383   7.252895335217e-03   1.900516962951e-02   7.932376030862e-03
H        -1.8816765547      -0.9410186079       0.0185533909   3.260450645288e-02   5.931058773522e-02  -1.710513541073e-03
6
Properties=species:S:1:pos:R:3:forces:R:3 energy=-6.992931086053e+02 dipole="-7.9037106813e-01 -5.6202763035e-01 -1.0840175715e-01" quadrupole="-2.9890777920e+01 2.1150614395e+00 1.7243793167e-01 2.1150614395e+00 -3.2390343263e+01 2.5395145467e-01 1.7243793167e-01 2.5395145467e-01 -3.3953714733e+01" polarizability="4.2384791978e+01 1.3558635146e+00 -5.8359643467e-02 1.3558635146e+00 4.1526441752e+01 -2.5016465939e-01 -5.8359643467e-02 -2.5016465939e-01 4.0540776527e+01" charge=-1 multiplicity=1 method=wB97M-V basis=def2-svpd config_type=hso4- sample_index=417 temperature=300.0 units=atomic
S         0.1380530476       0.0179993511      -0.0088910849  -2.027086623097e-02   2.318208831904e-02   3.539867583622e-02
O        -1.5639101523       0.0286039358       0.0247744046   5.908494709686e-03   8.109741654959e-03  -5.469091978935e-03
O         0.5355863619       1.4063582026      -0.0159865020  -2.571214833319e-03   3.899586147359e-02   2.623746786828e-03
O         0.4553980735      -0.6888025115       1.2140002864   8.290629180568e-03  -2.274872394744e-02   3.422417307585e-02
O         0.4862887775      -0.6662784934      -1.2025498893   1.119161406429e-02  -4.417638701686e-02  -6.716402076993e-02
H        -1.7784633093      -0.9063973903      -0.0434125844  -2.620764293297e-03  -3.292696088184e-03   3.947128824944e-04
6
Properties=species:S:1:pos:R:3:forces:R:3 energy=-6.992946865692e+02 dipole="-7.8586612407e-01 -4.7241589496e-01 -1.2033026531e-01" quadrupole="-2.8831336892e+01 2.6880323288e+00 9.7240613821e-02 2.6880323288e+00 -3.2970763499e+01 2.3210889861e-01 9.7240613821e-02 2.3210889861e-01 -3.4214671629e+01" polarizability="4.2621837364e+01 6.6433517470e-01 4.3923408542e-02 6.6433517470e-01 4.2668461955e+01 -2.8863236350e-01 4.3923408542e-02 -2.8863236350e-01 4.1909799861e+01" charge=-1 multiplicity=1 method=wB97M-V basis=def2-svpd config_type=hso4- sample_index=418 temperature=300.0 units=atomic
S         0.1724554867       0.0096533317      -0.0105763652  -3.858204565370e-02  -2.150804729977e-02   3.558596317548e-02
O        -1.5098883694       0.1018426677       0.0185320279  -2.433566241415e-02  -1.723747310928e-02  -4.786861243800e-03
O         0.4178637613       1.4235526934      -0.0103890697   2.317555066929e-02   4.284430016636e-02   8.317880464645e-04
O         0.4630281313      -0.7268021592       1.2405295867   9.342694737359e-03   1.713620886417e-04  -1.623930297562e-03
O         0.4840012320      -0.7080292210      -1.2256709431   1.284686338428e-02  -1.971887796396e-02  -3.139951615135e-02
H        -1.9499519397      -0.7790090471      -0.0325246636   1.756007468761e-02   1.546758756250e-02   1.430889620309e-03
6
Properties=species:S:1:pos:R:3:forces:R:3 energy=-6.992843223655e+02 dipole="-5.4937384458e-01 -4.7573584930e-01 1.3386470269e-01" quadrupole="-2.9986449801e+01 2.7494360742e+00 2.9803688928e-01 2.7494360742e+00 -3.2955322312e+01 -9.8966677732e-02 2.9803688928e-01 -9.8966677732e-02 -3.4003295051e+01" polarizability="4.5468117240e+01 1.4186875801e+00 -3.3282282679e-01 1.4186875801e+00 4.5736307693e+01 2.4854978489e-01 -3.3282282679e-01 2.4854978489e-01 4.2116562643e+01" charge=-1 multiplicity=1 method=wB97M-V basis=def2-svpd config_type=hso4- sample_index=419 temperature=300.0 units=atomic
S         0.1903407843       0.0313172849       0.0163590651  -5.431272016803e-02   7.377592702225e-03  -5.286510207033e-02
O        -1.5727665974       0.0871622106       0.0114463154  -8.569100276976e-03  -6.659704234921e-02  -2.457599498298e-03
O         0.4457287680       1.4866345152      -0.0178547946   8.987889853644e-03  -1.456924606250e-02   5.576256755229e-03
O         0.4589209899      -0.7606854915       1.1828638190   1.888603007844e-02  -1.129160394466e-02   5.184100404693e-02
O         0.4841866599      -0.7563580315      -1.2080281591   5.695946695448e-03   1.372374379586e-02  -4.363745486177e-03
H        -1.9089960646      -0.9312571201      -0.0212387243   2.931633304193e-02   7.134875171968e-02   2.231423995003e-03
6
Properties=species:S:1:pos:R:3:forces:R:3 energy=-6.992874609344e+02 dipole="-6.5083603604e-01 -4.0606553504e-01 -2.3725685407e-01" quadrupole="-3.0807797092e+01 2.1678359159e+00 -1.0406492624e+00 2.1678359159e+00 -3.2631787478e+01 -7.8536663711e-02 -1.0406492624e+00 -7.8536663711e-02 -3.4310953967e+01" polarizability="4.5512574192e+01 1.3642631099e+00 1.2480462493e+00 1.3642631099e+00 4.4461434963e+01 -3.2091063930e-01 1.2480462493e+00 -3.2091063930e-01 4.2975379621e+01" charge=-1 multiplicity=1 method=wB97M-V basis=def2-svpd config_type=hso4- sample_index=420 temperature=300.0 units=atomic
S         0.1520143715       0.0418577515      -0.0330591968  -1.218688454571e-02  -3.684744233642e-03   9.817925268953e-02
O        -1.6108296657       0.0264553933      -0.0712635086   2.345295838225e-02  -2.468597049312e-02   1.556644510396e-02
O         0.5407804126       1.4573462853       0.0716958374  -8.778185869692e-03  -1.180335139050e-03  -1.789880942707e-02
O         0.5362556369      -0.7043672106       1.2558072232  -2.022744612209e-02   1.772904903177e-02  -3.580758645122e-02
O         0.4156545341      -0.7443407862      -1.1970821224   1.942457797152e-02  -1.818620708415e-02  -5.384085389441e-02
H        -1.7270703788      -0.9484005465       0.1255541458  -1.705236768850e-03   3.001380143437e-02  -6.173199535104e-03
6
Properties=species:S:1:pos:R:3:forces:R:3 energy=-6.992945841699e+02 dipole="-8.6414281194e-01 -4.7702981111e-01 4.5843814365e-02" quadrupole="-3.0124313208e+01 2.3346895452e+00 6.1990944307e-02 2.3346895452e+00 -3.2988481899e+01 8.2510304658e-02 6.1990944307e-02 8.2510304658e-02 -3.4865145421e+01" polarizability="4.4632927958e+01 1.3005141278e+00 1.1267906517e-03 1.3005141278e+00 4.5552858391e+01 -3.1859118369e-01 1.1267906517e-03 -3.1859118369e-01 4.4566267311e+01" charge=-1 multiplicity=1 method=wB97M-V basis=def2-svpd config_type=hso4- sample_index=421 temperature=300.0 units=atomic
S         0.1401826574       0.0257050863       0.0113310629   1.617482118597e-02  -9.444034174579e-03  -8.769251884228e-03
O        -1.5671086038       0.0510777196      -0.0040552817   6.473691591658e-03  -4.385106461896e-02   2.439235800356e-03
O         0.5152038484       1.4695112008      -0.0256021419  -9.558357642152e-03  -2.256924994513e-02   7.671215756023e-03
O         0.4800044471      -0.7430447846       1.2763143001  -9.262318661600e-03   2.125651519778e-02  -3.165894477024e-02
O         0.4789000216      -0.7096060783      -1.2689890308  -7.451947840412e-03   1.126358102897e-02   3.023688628543e-02
H        -1.7490877480      -0.9521094906      -0.0081095514   3.611569280947e-03   4.339212461122e-02   1.079211605638e-04
6
Properties=species:S:1:pos:R:3:forces:R:3 energy=-6.992934494693e+02 dipole="-6.9212040396e-01 -6.2527698076e-01 4.5390734469e-02" quadrupole="-3.0554905905e+01 1.9443630481e+00 -1.2485105327e-01 1.9443630481e+00 -3.2623252905e+01 -5.7352205043e-02 -1.2485105327e-01 -5.7352205043e-02 -3.4098451167e+01" polarizability="4.5885336128e+01 2.0095437351e+00 1.3021946088e-01 2.0095437351e+00 4.3856215295e+01 -6.9557312437e-02 1.3021946088e-01 -6.9557312437e-02 4.2312875524e+01" charge=-1 multiplicity=1 method=wB97M-V basis=def2-svpd config_type=hso4- sample_index=422 temperature=300.0 units=atomic
S         0.1462847743       0.0182185465       0.0067287205  -8.600530028191e-03   4.370661449266e-02  -5.964566984455e-03
O        -1.6343834350      -0.0031593285      -0.0172029026   3.047154544716e-02   2.403891483120e-02   3.241240354683e-03
O         0.5866799051       1.4561540408      -0.0018801185  -2.472787146649e-02  -2.587126885461e-02   1.954188433754e-03
O         0.4852874132      -0.6893003470       1.2332929191  -5.302078483735e-04  -1.350044253346e-02   2.052713791332e-02
O         0.4633942631      -0.6831511083      -1.2289740524   3.342332033777e-03  -1.542213394774e-02  -2.021636111682e-02
H        -1.8411290416      -0.9330790801       0.0220862790   5.009755411844e-06  -1.282813943710e-02   4.653810277482e-04
6
Properties=species:S:1:pos:R:3:forces:R:3 energy=-6.992959529389e+02 dipole="-6.6842824244e-01 -3.5830350450e-01 9.4113098891e-03" quadrupole="-2.9918071497e+01 2.2851774573e+00 -3.2580572839e-01 2.2851774573e+00 -3.2592870590e+01 6.7492684593e-02 -3.2580572839e-01 6.7492684593e-02 -3.4333456901e+01" polarizability="4.1943159511e+01 9.7462306595e-01 4.1628543233e-01 9.7462306595e-01 4.2844807596e+01 -5.4766753832e-01 4.1628543233e-01 -5.4766753832e-01 4.1987567700e+01" charge=-1 multiplicity=1 method=wB97M-V basis=def2-svpd config_type=hso4- sample_index=423 temperature=300.0 units=atomic
S         0.1665806326       0.0434720850       0.0082156518  -2.884833481568e-02  -3.865252241808e-02   2.170996357798e-02
O        -1.5199983452       0.0300595293      -0.0392017440  -3.539505690295e-03   2.086288695340e-02   9.700766918676e-03
O         0.4908661640       1.4478810849      -0.0128294166   1.006357414355e-02   2.972370268951e-02   5.377637025889e-03
O         0.4678753784      -0.7431802653       1.2437272713   2.999508473251e-03   1.521557800293e-02  -7.084027280083e-03
O         0.4134511923      -0.7059832771      -1.2107266580   2.388611915204e-02  -1.502708967279e-02  -3.036593418315e-02
H        -1.7176267633      -0.8981857782       0.0430373321  -4.563443024576e-03  -1.216453493911e-02   7.181803891764e-04
6
Properties=species:S:1:pos:R:3:forces:R:3 energy=-6.992859198321e+02 dipole="-8.6765422389e-01 -6.8142571503e-01 3.5392635680e-01" quadrupole="-2.8906815414e+01 2.3419849213e+00 -2.6881924558e-01 2.3419849213e+00 -3.3067687518e+01 -3.7367785073e-01 -2.6881924558e-01 -3.7367785073e-01 -3.3753733042e+01" polarizability="4.3164372201e+01 1.5086285083e+00 4.0716657993e-02 1.5086285083e+00 4.2854741959e+01 -1.4967604557e-02 4.0716657993e-02 -1.4967604557e-02 4.0621477073e+01" charge=-1 multiplicity=1 method=wB97M-V basis=def2-svpd config_type=hso4- sample_index=424 temperature=300.0 units=atomic
S         0.1506995113      -0.0017643024       0.0458780360  -3.273871163102e-02   7.496761139438e-02  -9.763751007487e-02
O        -1.5410411728       0.0611305447      -0.0635373215  -1.815312598540e-02  -7.692869098862e-03   1.830044563023e-02
O         0.4873818218       1.4398510429      -0.0236802148  -4.294152181607e-03  -5.635798719467e-03   1.407817552941e-02
O         0.5119752787      -0.7066587849       1.1942957240   2.015125365594e-02  -5.133191573214e-02   9.824064555810e-02
O         0.4420596990      -0.6798498889      -1.2034623182   1.597812227257e-02  -2.565802137723e-02  -3.029282916801e-02
H        -1.9799553633      -0.8112276356       0.0765789068   1.903020324015e-02   1.541875632087e-02  -2.634426238611e-03
6
Properties=species:S:1:pos:R:3:forces:R:3 energy=-6.992894511149e+02 dipole="-8.4091847382e-01 -5.9442421198e-01 2.5522410428e-01" quadrupole="-2.9879927279e+01 2.2943425191e+00 5.4562554609e-02 2.2943425191e+00 -3.3535817770e+01 -3.4140106499e-01 5.4562554609e-02 -3.4140106499e-01 -3.4331779411e+01" polarizability="4.2762863282e+01 1.6386614835e-02 -1.6830819692e-01 1.6386614835e-02 4.4442786977e+01 3.3231275138e-01 -1.6830819692e-01 3.3231275138e-01 4.3146723677e+01" charge=-1 multiplicity=1 method=wB97M-V basis=def2-svpd config_type=hso4- sample_index=425 temperature=300.0 units=atomic
S         0.1431335662      -0.0071058965       0.0305574480   1.545604350415e-02   4.845005823294e-02  -6.986823299387e-02
O        -1.5187775788       0.1453122066      -0.0243850917   1.234270746110e-03  -4.225066623702e-02   9.656854059493e-03
O         0.4095091130       1.4594101914      -0.0112017707   1.768407145115e-02  -1.616691609219e-02   7.184636197309e-03
O         0.5120188198      -0.7380252386       1.2349070697  -1.883402801879e-03  -1.056186890771e-02   1.832923434137e-02
O         0.4924048502      -0.7393812082      -1.2623462201  -1.017740656491e-02   1.308742758524e-02   3.714621300170e-02
H        -1.6622647433      -0.8201697780       0.0314942150  -2.233101105877e-02   7.469369299039e-03  -2.461088518876e-03
6
Properties=species:S:1:pos:R:3:forces:R:3 energy=-6.992918020666e+02 dipole="-1.0415200833e+00 -2.1398184017e-01 1.4335441486e-01" quadrupole="-2.9467248817e+01 2.6996651524e+00 1.2168748280e-01 2.6996651524e+00 -3.2779847996e+01 -2.7832923356e-01 1.2168748280e-01 -2.7832923356e-01 -3.5120598249e+01" polarizability="4.3215448523e+01 9.3671776048e-01 -2.9979673888e-01 9.3671776048e-01 4.4359844733e+01 5.7721969361e-01 -2.9979673888e-01 5.7721969361e-01 4.4182617181e+01" charge=-1 multiplicity=1 method=wB97M-V basis=def2-svpd config_type=hso4- sample_index=426 temperature=300.0 units=atomic
S         0.1227351684       0.0588818759       0.0110347968   2.838824264390e-02  -9.793251103833e-02  -3.509523188147e-02
O        -1.5314885761       0.0421102518       0.0012944495  -1.823518036571e-02  -1.687537394069e-02   4.138108709360e-04
O         0.5099482218       1.4428537478       0.0099882886   6.530750453830e-04   3.608178283715e-02  -1.345004622206e-03
O         0.4783661234      -0.7269852449       1.2363478608  -5.730017202300e-03   1.365766391144e-02  -9.061508056543e-03
O         0.4871319881      -0.7581090867      -1.2700899566  -1.593174062057e-02   3.766050317546e-02   4.575273879254e-02
H        -1.7891197789      -0.9210866743       0.0076286543   1.088466638724e-02   2.737452145501e-02  -6.690083623856e-04
6
Properties=species:S:1:pos:R:3:forces:R:3 energy=-6.992964167736e+02 dipole="-7.8885111902e-01 -4.7274575044e-01 1.5137689070e-01" quadrupole="-2.9760496631e+01 2.4619459588e+00 -1.6744555410e-01 2.4619459588e+00 -3.2519226867e+01 -2.1759976004e-01 -1.6744555410e-01 -2.1759976004e-01 -3.4520576770e+01" polarizability="4.4410872679e+01 8.3290824672e-01 8.1479515140e-02 8.3290824672e-01 4.2450330453e+01 9.0004724776e-02 8.1479515140e-02 9.0004724776e-02 4.3145485880e+01" charge=-1 multiplicity=1 method=wB97M-V basis=def2-svpd config_type=hso4- sample_index=427 temperature=300.0 units=atomic
S         0.1497753554       0.0113315622       0.0178485021  -1.680013998354e-02  -3.518904353527e-02  -3.369266050733e-02
O        -1.5847591487       0.0633240990      -0.0311054815   1.390215047610e-02  -5.197835916277e-03   7.844062598815e-03
O         0.5013229208       1.3987575202      -0.0003833990   6.466824255761e-03   5.073159327630e-02   2.680597395313e-03
O         0.5081598275      -0.6851584492       1.2604121723  -4.834950816816e-03  -1.224434108688e-02   4.417163943323e-03
O         0.4719713288      -0.6859677435      -1.2671660677  -2.987232011547e-03  -3.004915306320e-03   1.971215016777e-02
H        -1.8818978335      -0.8582028939       0.0433514077   4.166699806495e-03   4.907090615665e-03  -9.329527847079e-04
6
Properties=species:S:1:pos:R:3:forces:R:3 energy=-6.992915086900e+02 dipole="-9.0947880144e-01 -5.8024420362e-01 2.0471922727e-01" quadrupole="-2.9304229907e+01 2.4211230164e+00 -7.8793727588e-02 2.4211230164e+00 -3.2962938732e+01 -1.4940727817e-01 -7.8793727588e-02 -1.4940727817e-01 -3.4604127289e+01" polarizability="4.4734276255e+01 2.2381302941e+00 8.5918902607e-03 2.2381302941e+00 4.5322664910e+01 -1.9094930950e-01 8.5918902607e-03 -1.9094930950e-01 4.3446800896e+01" charge=-1 multiplicity=1 method=wB97M-V basis=def2-svpd config_type=hso4- sample_index=428 temperature=300.0 units=atomic
S         0.1482901228       0.0183625631       0.0298625866  -1.004784724481e-03   1.165819423858e-02  -4.551030787067e-02
O        -1.5521907707       0.0210039592      -0.0336872524  -2.371158370618e-02  -3.305671866213e-02   1.253755905053e-02
O         0.5327727583       1.4697183000      -0.0265956872  -1.560335563626e-02  -2.933571421560e-02   1.156912168896e-02
O         0.4786226685      -0.7208221014       1.2547857003   2.163366531774e-03  -2.298155905667e-04   7.520455099318e-03
O         0.4438740771      -0.6888738189      -1.2563271067   5.894731538642e-03   1.089364494602e-03   1.721144900380e-02
H        -1.9415630512      -0.9360495315       0.0331970779   3.226612682775e-02   4.996479916158e-02  -3.295541931036e-03
6
Properties=species:S:1:pos:R:3:forces:R:3 energy=-6.992787549343e+02 dipole="-7.0392625776e-01 -2.9044585251e-01 4.1952731879e-02" quadrupole="-3.0109422746e+01 2.1183197456e+00 4.2604234321e-01 2.1183197456e+00 -3.1914527294e+01 2.1875826669e-01 4.2604234321e-01 2.1875826669e-01 -3.4421578659e+01" polarizability="4.1240364159e+01 5.1468276120e-01 -3.6006459982e-01 5.1468276120e-01 3.9686937025e+01 -2.6980425417e-01 -3.6006459982e-01 -2.6980425417e-01 4.1560811128e+01" charge=-1 multiplicity=1 method=wB97M-V basis=def2-svpd config_type=hso4- sample_index=429 temperature=300.0 units=atomic
S         0.1438892542       0.0327306139       0.0123046945  -3.142778260892e-02  -1.161552578915e-01  -1.115688764267e-02
O        -1.5402191525       0.0375928341       0.0308200993   1.210270689986e-02   6.010198769357e-02   1.959125129210e-03
O         0.5077439429       1.3500374237      -0.0493807761   3.622024533560e-02   1.613058842222e-01   9.234343827819e-03
O         0.4381564862      -0.6957041952       1.2473577544   8.340824456417e-03  -1.292338239302e-02   1.337452010888e-02
O         0.4881116006      -0.6442922270      -1.2497884779  -2.590970247496e-03  -2.576424334124e-02  -6.861205190038e-03
H        -1.6451174272      -0.8619722098      -0.0664443263  -2.268003167264e-02  -6.648382006234e-02  -6.516152531961e-03
6
Properties=species:S:1:pos:R:3:forces:R:3 energy=-6.992952132121e+02 dipole="-7.1415308155e-01 -5.4293463524e-01 -8.2542144926e-02" quadrupole="-3.0161519515e+01 2.2188266370e+00 -7.3657430016e-02 2.2188266370e+00 -3.2480573458e+01 3.4139604490e-02 -7.3657430016e-02 3.4139604490e-02 -3.4343942284e+01" polarizability="4.4006881246e+01 1.8647865170e+00 8.5133371096e-02 1.8647865170e+00 4.3920733529e+01 3.5985775115e-02 8.5133371096e-02 3.5985775115e-02 4.2310079245e+01" charge=-1 multiplicity=1 method=wB97M-V basis=def2-svpd config_type=hso4- sample_index=430 temperature=300.0 units=atomic
S         0.1554891995       0.0245401099      -0.0120993014  -1.995966060931e-02   7.492410319797e-03   2.377625715661e-02
O        -1.5695076843       0.0229866988       0.0041665377  -8.299814941388e-04  -4.486844139633e-02  -2.544652223078e-03
O         0.5344256839       1.4432973420       0.0152221023  -6.029120067838e-03   3.450198565062e-03  -5.279989478339e-03
O         0.4569586743      -0.6899436999       1.2402605002   5.943717350644e-03  -8.070380158330e-03   4.990778497977e-03
O         0.4571870311      -0.7045968779      -1.2354346133   8.642467405577e-03  -1.157759024053e-02  -2.127275885655e-02
H        -1.7864880278      -0.9877237213       0.0012046147   1.221192247056e-02   5.364981985798e-02   3.198751988891e-04
6
Properties=species:S:1:pos:R:3:forces:R:3 energy=-6.992746199771e+02 dipole="-8.6675468405e-01 -5.2907177685e-01 -1.1919275825e-03" quadrupole="-2.8996479353e+01 2.8958288810e+00 5.9447277098e-02 2.8958288810e+00 -3.2708992547e+01 -1.3506759572e-01 5.9447277098e-02 -1.3506759572e-01 -3.4545170803e+01" polarizability="4.7352792717e+01 2.6212743281e+00 -1.7893268203e-01 2.6212743281e+00 4.5171220971e+01 4.6145281038e-01 -1.7893268203e-01 4.6145281038e-01 4.3309187176e+01" charge=-1 multiplicity=1 method=wB97M-V basis=def2-svpd config_type=hso4- sample_index=431 temperature=300.0 units=atomic
S         0.1574328145       0.0087790191      -0.0072581212  -2.124349035310e-02  -2.236620187014e-02  -1.240726918353e-02
O        -1.5800659318       0.0785100668       0.0114610411  -3.828563648489e-02  -7.719920888032e-02  -4.104034698968e-03
O         0.4852401354       1.4219032279       0.0237788499   1.278053926449e-03   2.455011406060e-02  -7.372469596900e-03
O         0.4879004816      -0.6796075738       1.2402335003   3.929844469871e-03  -1.646908895812e-02   1.102276398244e-02
O         0.5022277047      -0.7193755146      -1.2607501742  -5.030301187359e-03   5.629559412796e-03   1.208726597979e-02
H        -2.1086321068      -0.9358305966      -0.0012113716   5.928674451101e-02   8.586727664032e-02   7.194716038901e-04
6
Properties=species:S:1:pos:R:3:forces:R:3 energy=-6.992957358262e+02 dipole="-8.6395412183e-01 -6.6910134117e-01 1.2731811995e-01" quadrupole="-2.9149416158e+01 2.0857399849e+00 2.2854220459e-02 2.0857399849e+00 -3.2955359702e+01 -3.3282210428e-02 2.2854220459e-02 -3.3282210428e-02 -3.4485555399e+01" polarizability="4.1768080626e+01 1.5763414602e+00 -1.4731018780e-02 1.5763414602e+00 4.3364371167e+01 -2.0313758816e-01 -1.4731018780e-02 -2.0313758816e-01 4.2765793617e+01" charge=-1 multiplicity=1 method=wB97M-V basis=def2-svpd config_type=hso4- sample_index=432 temperature=300.0 units=atomic
S         0.1574516569      -0.0022025950       0.0204092618  -7.845214087277e-03   4.138147126442e-02  -2.927622780948e-02
O        -1.4949199579       0.0280139741      -0.0168960204  -2.155305136158e-02   1.511007020813e-02   6.158377264555e-03
O         0.5017991423       1.4480359669      -0.0273717002  -2.628943313395e-03  -1.695992785488e-02   1.037317672145e-02
O         0.4431807693      -0.6960640501       1.2721091274   1.318252856766e-02  -1.422271817562e-02   1.127306665356e-02
O         0.4280127710      -0.6621937419      -1.2693567630   1.601606715352e-02  -1.853146528106e-02   1.390344218937e-03
H        -1.8273771491      -0.8704356711       0.0092221310   2.832872787320e-03  -6.693795544447e-03   1.133077009030e-04
6
Properties=species:S:1:pos:R:3:forces:R:3 energy=-6.992925278630e+02 dipole="-7.2097095724e-01 -4.9994229734e-01 -1.1980192456e-01" quadrupole="-2.9728808820e+01 2.1751246911e+00 3.4610767657e-01 2.1751246911e+00 -3.2654370703e+01 2.6297409281e-01 3.4610767657e-01 2.6297409281e-01 -3.4038403757e+01" polarizability="4.2483810901e+01 8.8222349356e-01 -2.4868350024e-01 8.8222349356e-01 4.1797135996e+01 -1.8800207124e-01 -2.4868350024e-01 -1.8800207124e-01 4.1354870120e+01" charge=-1 multiplicity=1 method=wB97M-V basis=def2-svpd config_type=hso4- sample_index=433 temperature=300.0 units=atomic
S         0.1562806714       0.0200117338      -0.0111799786  -2.748752217884e-02   5.736122756546e-03   2.418248923412e-02
O        -1.5578068301       0.0327385392       0.0414585950   2.989395138398e-02   8.782000230410e-02   1.068753287522e-03
O         0.5105675969       1.4281385070      -0.0169827058   3.059661829621e-04   2.222027631809e-02   1.603737515949e-03
O         0.4363823482      -0.7033072376       1.2253153589   1.284453573383e-02  -1.206238554319e-02   1.874919865274e-02
O         0.4907437116      -0.6868773056      -1.2236850814   6.529251042397e-03  -2.329910839898e-02  -3.610148641602e-02
H        -1.8263536081      -0.8183842471      -0.0654898903  -2.212729005400e-02  -8.036630262764e-02  -9.478884648897e-03
6
Properties=species:S:1:pos:R:3:forces:R:3 energy=-6.992844649228e+02 dipole="-8.8155295734e-01 -4.7360362948e-01 1.2160532384e-01" quadrupole="-2.9615922024e+01 2.1977148339e+00 4.3346149842e-01 2.1977148339e+00 -3.3731229578e+01 2.7767165093e-01 4.3346149842e-01 2.7767165093e-01 -3.4485464958e+01" polarizability="4.2310808662e+01 6.3088565617e-01 -3.1519425015e-01 6.3088565617e-01 4.5797130859e+01 -8.0814133075e-01 -3.1519425015e-01 -8.0814133075e-01 4.3629661005e+01" charge=-1 multiplicity=1 method=wB97M-V basis=def2-svpd config_type=hso4- sample_index=434 temperature=300.0 units=atomic
S         0.1482415209       0.0283498170       0.0305125044   1.717592199719e-02   1.460312494061e-02  -3.381445378676e-02
O        -1.5134340012       0.0560800943       0.0152092251   2.024842287647e-02   1.063922081325e-01   1.072085769574e-02
O         0.4747436161       1.5213196564      -0.0767783171  -7.253357406811e-03  -5.588211107068e-02   2.117651113750e-02
O         0.4460915549      -0.8054011358       1.2430214410   2.464469684654e-03   2.777787849759e-02  -1.104848273243e-02
O         0.4815415462      -0.7182837525      -1.2394272469  -2.661911397068e-03   1.215105365950e-02   2.178428427046e-02
H        -1.7294313514      -0.7988278444      -0.0594285417  -2.996321132559e-02  -1.050045763081e-01  -8.769811824276e-03
6
Properties=species:S:1:pos:R:3:forces:R:3 energy=-6.992860449127e+02 dipole="-1.0020708559e+00 -5.3314411809e-01 -1.8587165319e-01" quadrupole="-2.8290717644e+01 2.7279549743e+00 1.7008883846e-01 2.7279549743e+00 -3.2876124858e+01 1.0912097652e-01 1.7008883846e-01 1.0912097652e-01 -3.4408597522e+01" polarizability="4.3992819269e+01 1.6295658050e+00 -8.3374138782e-02 1.6295658050e+00 4.2829543501e+01 2.9771400210e-01 -8.3374138782e-02 2.9771400210e-01 4.2174979317e+01" charge=-1 multiplicity=1 method=wB97M-V basis=def2-svpd config_type=hso4- sample_index=435 temperature=300.0 units=atomic
S         0.1468772747      -0.0008652139      -0.0282330972  -1.442329193882e-02  -1.972596450579e-02   3.286946367862e-02
O        -1.5206578801       0.0884549174       0.0398554465  -5.415043223327e-02  -4.792266529450e-02  -1.428747871653e-02
O         0.4563654449       1.3975010773       0.0269646390   1.214269855641e-02   5.176204546050e-02  -1.102031871047e-02
O         0.4665775024      -0.6672798225       1.2403280655   8.173806916670e-03  -2.206996218593e-02   7.527723530576e-03
O         0.5114499061      -0.7056807469      -1.2481673548   7.329830749034e-04  -1.439549002017e-02  -1.958243041579e-02
H        -2.0659274418      -0.8092904451      -0.0402354202   4.744963564039e-02   5.234413722146e-02   4.432375731758e-03
6
Properties=species:S:1:pos:R:3:forces:R:3 energy=-6.992784134051e+02 dipole="-9.9738326355e-01 -5.9559231654e-01 1.1454214122e-01" quadrupole="-2.9273254802e+01 2.2551116918e+00 9.3036000934e-02 2.2551116918e+00 -3.2161522657e+01 3.2223046133e-02 9.3036000934e-02 3.2223046133e-02 -3.4902519642e+01" polarizability="4.2259329090e+01 3.0473211835e+00 -6.7422966334e-02 3.0473211835e+00 4.4150342289e+01 -2.5938635494e-01 -6.7422966334e-02 -2.5938635494e-01 4.2713037541e+01" charge=-1 multiplicity=1 method=wB97M-V basis=def2-svpd config_type=hso4- sample_index=436 temperature=300.0 units=atomic
S         0.1326952311       0.0237687795       0.0200824275   1.573893544565e-02  -7.288531634081e-03  -2.497328429466e-02
O        -1.4894430171      -0.0193401412      -0.0098173317  -6.518490794620e-02  -6.502375564762e-02   5.477198214803e-03
O         0.5669085582       1.4180738572      -0.0346155194  -9.016985299167e-03   1.911995147139e-02   1.183495916885e-02
O         0.4266389119      -0.6816154444       1.2698126721   1.295579921405e-02  -1.219044349463e-02   1.163679131182e-02
O         0.4213960115      -0.6392974807      -1.2654900484   1.434899192342e-02  -2.130802869194e-02  -3.551120643852e-03
H        -1.7912764545      -1.0829579791      -0.0042856727   3.115857174686e-02   8.675899426883e-02  -4.050928934797e-04
6
Properties=species:S:1:pos:R:3:forces:R:3 energy=-6.992756343133e+02 dipole="-7.8556936317e-01 -4.9718222433e-01 -3.2900301784e-01" quadrupole="-3.0027791185e+01 2.5578255453e+00 4.8774719939e-01 2.5578255453e+00 -3.2774477904e+01 5.8434654303e-01 4.8774719939e-01 5.8434654303e-01 -3.4419546636e+01" polarizability="4.5204222479e+01 2.0362064069e+00 -2.4427856247e-01 2.0362064069e+00 4.5963040997e+01 -1.9491996118e-02 -2.4427856247e-01 -1.9491996118e-02 4.2927994814e+01" charge=-1 multiplicity=1 method=wB97M-V basis=def2-svpd config_type=hso4- sample_index=437 temperature=300.0 units=atomic
S         0.1520679665       0.0285887133      -0.0391799917  -1.405358755759e-02  -3.963296078195e-03   7.164009596701e-02
O        -1.5602004932       0.0659588556       0.0863377552  -1.439419307641e-02  -9.109920294863e-02  -3.847102523905e-02
O         0.4943284221       1.4606178378      -0.0109173035  -1.147211785090e-03  -2.846615766263e-03  -5.012929242095e-03
O         0.4236547050      -0.7350954690       1.2308810164   8.848555619888e-03   1.239671303857e-02  -1.712215007046e-02
O         0.5292761249      -0.7243730438      -1.2206603035  -9.052166194339e-04  -9.054345059273e-03  -3.092319766542e-02
H        -1.8147549653      -1.0247330936      -0.1251500762   2.165842787257e-02   9.456296773387e-02   1.994313606932e-02
6
Properties=species:S:1:pos:R:3:forces:R:3 energy=-6.992932524154e+02 dipole="-7.9978321054e-01 -4.2894150349e-01 2.1395772736e-02" quadrupole="-3.0001436995e+01 2.2087013938e+00 -8.5979798363e-03 2.2087013938e+00 -3.2517799028e+01 -8.0804814917e-02 -8.5979798363e-03 -8.0804814917e-02 -3.4344655394e+01" polarizability="4.3087539737e+01 2.1712348770e+00 -3.2497430999e-02 2.1712348770e+00 4.4335599316e+01 1.6343246380e-01 -3.2497430999e-02 1.6343246380e-01 4.1740074286e+01" charge=-1 multiplicity=1 method=wB97M-V basis=def2-svpd config_type=hso4- sample_index=438 temperature=300.0 units=atomic
S         0.1435397541       0.0552221642       0.0000645630  -5.059159615003e-03  -1.264229339739e-02  -9.176205538693e-03
O        -1.5455645216      -0.0210461973      -0.0012148987  -1.576520069429e-02  -1.355529967420e-02   2.389716795567e-04
O         0.5667794661       1.4740255199       0.0079334866  -1.659702612037e-02  -1.138148289257e-02  -1.898248582158e-03
O         0.4405131158      -0.7144461693       1.2023912623   1.278007772820e-02  -4.913783707412e-03   3.059613730773e-02
O         0.4392050636      -0.7274740642      -1.2095777710   1.024355073227e-02   4.078496468169e-03  -1.935516952530e-02
H        -1.7629502662      -1.0070578493       0.0065499039   1.441383148499e-02   3.844611242792e-02  -4.193295593885e-04
6
Properties=species:S:1:pos:R:3:forces:R:3 energy=-6.992966683708e+02 dipole="-7.6337859684e-01 -4.3425506533e-01 2.1919075101e-01" quadrupole="-3.0032786363e+01 2.4156528647e+00 -1.7516400539e-01 2.4156528647e+00 -3.2719723781e+01 -4.7510279558e-01 -1.7516400539e-01 -4.7510279558e-01 -3.4434039772e+01" polarizability="4.3851692400e+01 8.5266326473e-01 -4.6932475913e-02 8.5266326473e-01 4.3444406082e+01 6.0586036012e-01 -4.6932475913e-02 6.0586036012e-01 4.2799660968e+01" charge=-1 multiplicity=1 method=wB97M-V basis=def2-svpd config_type=hso4- sample_index=439 temperature=300.0 units=atomic
S         0.1500732227       0.0257189437       0.0186833379  -1.317772085888e-02  -2.234318196882e-02  -6.070062155086e-02
O        -1.5680522015       0.0655489166      -0.0349080559   9.285175566450e-03  -2.504640190298e-02   1.057687510214e-02
O         0.4915751387       1.4334490662       0.0246066061   4.544323615150e-03   2.477363505933e-02  -2.892125591468e-03
O         0.5027120906      -0.6957329382       1.2258998166   1.949136222636e-03  -1.806897121550e-02   2.768340999112e-02
O         0.4627974840      -0.7383407013      -1.2565865907  -3.697177911159e-03   1.810416516786e-02   2.891658192059e-02
H        -1.7782459844      -0.8979542724       0.0641206187   1.065063094575e-03   2.257919777810e-02  -3.639595877352e-03
6
Properties=species:S:1:pos:R:3:forces:R:3 energy=-6.992831493804e+02 dipole="-4.9353404611e-01 -5.2316865807e-01 -3.8557436606e-01" quadrupole="-3.0379403437e+01 2.2134956986e+00 -6.3554471027e-01 2.2134956986e+00 -3.3038035956e+01 4.3083734092e-01 -6.3554471027e-01 4.3083734092e-01 -3.4138847416e+01" polarizability="4.4151633803e+01 6.2928417724e-01 8.9892058138e-01 6.2928417724e-01 4.4366374676e+01 -9.2485674107e-01 8.9892058138e-01 -9.2485674107e-01 4.3063352315e+01" charge=-1 multiplicity=1 method=wB97M-V basis=def2-svpd config_type=hso4- sample_index=440 temperature=300.0 units=atomic
S         0.1905442018       0.0162579306      -0.0430433507  -5.096371957610e-02   4.681951005051e-02   1.468717970798e-01
O        -1.5657700499       0.0664140611      -0.0185963259   3.026872186976e-02   4.097457717982e-02  -2.772930969074e-03
O         0.4616434621       1.4799253156       0.0274643637   7.905932874985e-03  -2.473276784321e-02  -1.077372254968e-02
O         0.4806940137      -0.7405972416       1.2815966643  -3.304477558751e-03   2.658941629088e-02  -5.208637509202e-02
O         0.4302203244      -0.7255060442      -1.2059347274   3.070750146846e-02  -4.490156297493e-02  -8.455467586840e-02
H        -1.7563174872      -0.8383389496       0.0291560087  -1.459605012330e-02  -4.469900905828e-02   3.315875261350e-03
6
Properties=species:S:1:pos:R:3:forces:R:3 energy=-6.992942718713e+02 dipole="-9.4747263976e-01 -3.3397749140e-01 -6.3506485126e-02" quadrupole="-2.9357080004e+01 2.8196977693e+00 -3.0535902319e-01 2.8196977693e+00 -3.2886440748e+01 5.2693633922e-02 -3.0535902319e-01 5.2693633922e-02 -3.4613052183e+01" polarizability="4.3316212705e+01 8.0470539520e-01 3.6079552181e-01 8.0470539520e-01 4.3974290657e+01 -3.1465862721e-01 3.6079552181e-01 -3.1465862721e-01 4.2798349273e+01" charge=-1 multiplicity=1 method=wB97M-V basis=def2-svpd config_type=hso4- sample_index=441 temperature=300.0 units=atomic
S         0.1384566156       0.0379325044      -0.0054625747   4.292138741241e-03  -6.470890183140e-02   2.711313075683e-02
O        -1.5336183751       0.0885316146      -0.0230924894  -2.203591460831e-02  -4.953062256417e-02   6.632130750523e-03
O         0.4611224968       1.4368411512       0.0082079486   1.069041018759e-02   3.941401014216e-02  -1.207444768113e-03
O         0.5126348549      -0.7455927925       1.2383719695  -1.266525891652e-02   2.087443818554e-02  -2.005501355898e-02
O         0.4756545095      -0.7387696338      -1.2144281902   1.401818764146e-03   3.934470319690e-03  -9.483809756347e-03
H        -1.8438092093      -0.8931293216       0.0325815825   1.833419572239e-02   4.995293108703e-02  -3.007717468214e-03
6
Properties=species:S:1:pos:R:3:forces:R:3 energy=-6.992936242667e+02 dipole="-9.5141400326e-01 -4.4989937335e-01 -2.9066246501e-02" quadrupole="-2.9201647963e+01 2.5793811996e+00 1.4272030632e-01 2.5793811996e+00 -3.3067415478e+01 -2.1680553154e-01 1.4272030632e-01 -2.1680553154e-01 -3.4850997022e+01" polarizability="4.5046004507e+01 1.2386774585e+00 -3.4330582695e-01 1.2386774585e+00 4.4818904815e+01 9.0184573459e-01 -3.4330582695e-01 9.0184573459e-01 4.4541552504e+01" charge=-1 multiplicity=1 method=wB97M-V basis=def2-svpd config_type=hso4- sample_index=442 temperature=300.0 units=atomic
S         0.1437511748       0.0224809245      -0.0163027725   7.207142080863e-03  -2.735602256604e-02  -7.750031501961e-03
O        -1.5678979039       0.0447629286       0.0265750634  -1.335393230150e-03   2.522666103787e-03  -7.362537140531e-03
O         0.5120811991       1.4548065696       0.0436936162  -1.000261337801e-02  -1.023960319886e-02  -1.381941813883e-02
O         0.4684638966      -0.6792974082       1.2560305999   7.490839715336e-04  -4.010466239800e-03  -1.282564707929e-02
O         0.5013155817      -0.7523447722      -1.2928628598  -1.441391943024e-02   2.953106129870e-02   4.192779313256e-02
H        -1.9716456384      -0.8468144147      -0.0099028368   1.777243655545e-02   9.605575798386e-03  -2.237207107974e-04
6
Properties=species:S:1:pos:R:3:forces:R:3 energy=-6.992929171681e+02 dipole="-1.0435739910e+00 -6.0333726325e-01 -2.5612778404e-01" quadrupole="-2.8710135146e+01 2.4674266949e+00 -3.3934519545e-01 2.4674266949e+00 -3.3493205977e+01 3.2243193309e-01 -3.3934519545e-01 3.2243193309e-01 -3.4516367164e+01" polarizability="4.2371997831e+01 4.3270629776e-01 5.3013474800e-01 4.3270629776e-01 4.3545584490e+01 -6.0761908147e-01 5.3013474800e-01 -6.0761908147e-01 4.3201053725e+01" charge=-1 multiplicity=1 method=wB97M-V basis=def2-svpd config_type=hso4- sample_index=443 temperature=300.0 units=atomic
S         0.1378764210      -0.0116583601      -0.0274609984   1.460215893817e-02   3.277898897969e-02   8.537175697679e-02
O        -1.5023407709       0.1122377649      -0.0062661160  -1.116659428711e-02   1.398103915181e-02  -1.759177153424e-03
O         0.4335156892       1.4396975468       0.0144960726   8.609531703548e-03  -7.287978383854e-03  -5.883483465134e-03
O         0.5066881484      -0.7160815146       1.2862765714  -1.344190118640e-02   1.126773980855e-02  -4.485612219496e-02
O         0.4826401288      -0.7047517789      -1.2400724275   9.030235647180e-03  -2.614329627747e-02  -3.370402361875e-02
H        -1.8919663663      -0.7454166372       0.0096960030  -7.704864131453e-03  -2.457138624615e-02   8.512432970095e-04
6
Properties=species:S:1:pos:R:3:forces:R:3 energy=-6.992899776533e+02 dipole="-1.1229443965e+00 -5.5943584103e-01 4.8189024223e-02" quadrupole="-2.9175951391e+01 2.1718495215e+00 -9.9657934262e-01 2.1718495215e+00 -3.3485970056e+01 -4.1665787247e-01 -9.9657934262e-01 -4.1665787247e-01 -3.4788150163e+01" polarizability="4.2100257653e+01 7.1095701294e-01 1.0029537237e+00 7.1095701294e-01 4.3986541396e+01 2.0508131147e-02 1.0029537237e+00 2.0508131147e-02 4.4161778965e+01" charge=-1 multiplicity=1 method=wB97M-V basis=def2-svpd config_type=hso4- sample_index=444 temperature=300.0 units=atomic
S         0.1155860849      -0.0015816052       0.0000834301   5.896025657176e-02   2.183208880403e-02   1.717141566466e-02
O        -1.4976074236       0.0782438078      -0.0980230221  -2.296360414078e-02   6.888138005394e-03   1.520682745958e-02
O         0.4796542071       1.4439923421       0.0612639993  -3.644567756571e-03  -1.500246043274e-02  -1.092148805619e-02
O         0.5583216866      -0.6823154955       1.2938389024  -2.704277995990e-02   2.834589104170e-03  -3.807321177644e-02
O         0.4160839891      -0.7265332495      -1.2663571136   8.598205974795e-03   2.698562548673e-04   1.403462196653e-02
H        -1.7526305377      -0.7991346710       0.1611875960  -1.389525904546e-02  -1.680276067359e-02   2.624514251466e-03
6
Properties=species:S:1:pos:R:3:forces:R:3 energy=-6.992860472817e+02 dipole="-8.1811905593e-01 -2.3440766925e-01 -1.8928664543e-01" quadrupole="-2.9687642422e+01 2.5267247501e+00 -4.9150509973e-01 2.5267247501e+00 -3.2369023785e+01 -4.8930002640e-03 -4.9150509973e-01 -4.8930002640e-03 -3.4361130260e+01" polarizability="4.1973761462e+01 2.3096816827e-01 4.9873655676e-01 2.3096816827e-01 4.0977837164e+01 3.0808488905e-02 4.9873655676e-01 3.0808488905e-02 4.1642753686e+01" charge=-1 multiplicity=1 method=wB97M-V basis=def2-svpd config_type=hso4- sample_index=445 temperature=300.0 units=atomic
S         0.1401275239       0.0447220324      -0.0277178836  -1.927788022382e-02  -1.089033843200e-01   5.585949478367e-02
O        -1.5472808769       0.0594018720      -0.0198467359   1.828161863141e-02   6.814834443034e-02  -5.076421466793e-03
O         0.4853426048       1.3882338704       0.0496865120   2.327033309321e-02   1.147350288013e-01  -1.037541990296e-02
O         0.5063693939      -0.6924744334       1.2310669860  -1.008744655213e-02   1.528433589909e-03  -1.133540240464e-02
O         0.4640216942      -0.7331249531      -1.2080545817   6.714354142118e-03  -8.728470692425e-03  -3.421625809858e-02
H        -1.7727067912      -0.8183404290       0.0488369209  -1.889973324489e-02  -6.677612875047e-02   5.142648425663e-03
6
Properties=species:S:1:pos:R:3:forces:R:3 energy=-6.992940736674e+02 dipole="-7.3239250986e-01 -3.5062836829e-01 9.7259284186e-02" quadrupole="-3.0156716859e+01 2.2981022414e+00 -1.7217940748e-01 2.2981022414e+00 -3.2798857915e+01 -8.7438078299e-02 -1.7217940748e-01 -8.7438078299e-02 -3.3950168264e+01" polarizability="4.2265926553e+01 7.5683695992e-01 1.9036625257e-01 7.5683695992e-01 4.2999745323e+01 -1.7575380110e-01 1.9036625257e-01 -1.7575380110e-01 4.0796868781e+01" charge=-1 multiplicity=1 method=wB97M-V basis=def2-svpd config_type=hso4- sample_index=446 temperature=300.0 units=atomic
S         0.1452200171       0.0509875618       0.0150903993  -1.185435353314e-02  -1.332325091236e-02  -1.467482358988e-02
O        -1.5502989782       0.0487614331      -0.0306045079   9.477241636208e-03   2.191769914933e-02   7.470272358219e-03
O         0.4958403791       1.4629748856      -0.0090981064   1.272077500718e-03   1.375269248895e-02   4.862904724744e-03
O         0.4919635974      -0.7575496158       1.1760459015   2.200288751845e-03   1.105385293634e-03   4.071407615500e-02
O         0.4544482186      -0.7403478045      -1.1687169193   9.721785929499e-03  -3.962285872809e-03  -3.883984175252e-02
H        -1.6841565282      -0.8868525329       0.0364838734  -1.078971404193e-02  -1.950062791723e-02   4.502410767720e-04
6
Properties=species:S:1:pos:R:3:forces:R:3 energy=-6.992905550211e+02 dipole="-1.0020048747e+00 -5.0371075855e-01 2.5374303912e-01" quadrupole="-2.9068053388e+01 2.5357307013e+00 -2.9615710278e-01 2.5357307013e+00 -3.3014725982e+01 -4.7187240062e-01 -2.9615710278e-01 -4.7187240062e-01 -3.5076452889e+01" polarizability="4.3969508335e+01 6.2997901783e-01 6.4966167437e-02 6.2997901783e-01 4.3494878026e+01 4.6071379778e-01 6.4966167437e-02 4.6071379778e-01 4.5349712978e+01" charge=-1 multiplicity=1 method=wB97M-V basis=def2-svpd config_type=hso4- sample_index=447 temperature=300.0 units=atomic
S         0.1394800535      -0.0073687948       0.0256988302   1.228503272300e-02  -2.367498469952e-02  -5.142654505552e-02
O        -1.5342558166       0.0953497922      -0.0496570380  -1.002268043418e-02  -2.163729011047e-02   1.278396388776e-02
O         0.4623963968       1.4041673428       0.0174722374   9.873501356082e-03   2.972384379717e-02  -4.550631785439e-04
O         0.5244111674      -0.6723513431       1.3020326272  -1.157137569414e-02  -9.521135073065e-03  -1.875961375210e-02
O         0.4661106989      -0.7016109885      -1.3258335581  -8.259953448057e-03   1.233717812229e-02   6.103686250215e-02
H        -1.9019098912      -0.8052885158       0.0798964310   7.616858438225e-03   1.270646494348e-02  -3.116149469785e-03
6
Properties=species:S:1:pos:R:3:forces:R:3 energy=-6.992771287154e+02 dipole="-8.5839967101e-01 -4.8496354114e-01 1.3568608620e-01" quadrupole="-2.8818753902e+01 2.8018321321e+00 6.2483832871e-01 2.8018321321e+00 -3.2731069844e+01 -2.5243185270e-01 6.2483832871e-01 -2.5243185270e-01 -3.4388899469e+01" polarizability="4.5973942965e+01 2.2249832445e+00 -7.3751994723e-01 2.2249832445e+00 4.4237971519e+01 9.8671956166e-01 -7.3751994723e-01 9.8671956166e-01 4.2564250607e+01" charge=-1 multiplicity=1 method=wB97M-V basis=def2-svpd config_type=hso4- sample_index=448 temperature=300.0 units=atomic
S         0.1597301615       0.0184810325       0.0063008482  -3.007657375549e-02  -1.798536948844e-02  -8.403075502453e-02
O        -1.5639112688       0.0574559126       0.0472690648  -4.254323578536e-02  -5.373416314286e-02  -1.432954072212e-02
O         0.4913606251       1.4262863531       0.0053086427   1.729439071640e-03   2.842588426925e-02  -3.228786930467e-03
O         0.4442132309      -0.6792545700       1.2030074356   2.452845989208e-02  -4.248928150158e-02   6.807697261997e-02
O         0.5184334701      -0.7256849123      -1.2649854519  -1.051992178850e-02   1.678115230986e-02   2.679029780371e-02
H        -2.1005716292      -0.8885012814      -0.0540121396   5.684104793582e-02   6.901928155703e-02   6.671038045350e-03
6
Properties=species:S:1:pos:R:3:forces:R:3 energy=-6.992918078613e+02 dipole="-7.5733257599e-01 -5.0102950666e-01 2.9184398907e-01" quadrupole="-2.9554034681e+01 2.7061000609e+00 -5.8293768674e-02 2.7061000609e+00 -3.3090185586e+01 -3.1582498622e-01 -5.8293768674e-02 -3.1582498622e-01 -3.4078121561e+01" polarizability="4.3871768108e+01 6.7575092746e-01 -5.1472459953e-02 6.7575092746e-01 4.4039816177e+01 5.5532255308e-02 -5.1472459953e-02 5.5532255308e-02 4.1895596217e+01" charge=-1 multiplicity=1 method=wB97M-V basis=def2-svpd config_type=hso4- sample_index=449 temperature=300.0 units=atomic
S         0.1623325356       0.0139346586       0.0378688019  -2.900555765581e-02   8.247593214030e-03  -7.670641565746e-02
O        -1.5453887515       0.1193754587      -0.0409099831  -1.101368320182e-02  -5.651557911353e-02   1.642110944391e-02
O         0.4250007851       1.4480349560      -0.0210665120   1.530776784409e-02   1.250924101032e-02   1.046097346333e-02
O         0.5153029814      -0.7489347613       1.2004503016   6.966439324827e-03  -1.604654494550e-02   4.916864910538e-02
O         0.4746690880      -0.7314512626      -1.2171381775   2.511817774454e-03   4.924686400251e-03   6.081653691684e-03
H        -1.8681760616      -0.8516000042       0.0478407863   1.526620495462e-02   4.690904403151e-02  -5.457936070451e-03
6
Properties=species:S:1:pos:R:3:forces:R:3 energy=-6.992934331447e+02 dipole="-1.0140963209e+00 -3.7021966704e-01 -2.5005365828e-01" quadrupole="-2.9073975585e+01 2.4843143218e+00 5.7954080858e-01 2.4843143218e+00 -3.2941997475e+01 5.3289204515e-01 5.7954080858e-01 5.3289204515e-01 -3.4909027601e+01" polarizability="4.3666479476e+01 1.3788273586e+00 -3.0304701947e-01 1.3788273586e+00 4.4118185059e+01 -4.1233974685e-01 -3.0304701947e-01 -4.1233974685e-01 4.4047797587e+01" charge=-1 multiplicity=1 method=wB97M-V basis=def2-svpd config_type=hso4- sample_index=450 temperature=300.0 units=atomic
S         0.1349134570       0.0361547808      -0.0233338856   1.482128895575e-02  -4.933580033624e-02   4.267757743745e-02
O        -1.5348295786       0.0205897465       0.0729548966  -1.700445615329e-02   8.233991770348e-03  -1.549161714012e-02
O         0.5255703244       1.4458679963      -0.0317629828  -8.294580285204e-03   7.696769891496e-03   2.770014823397e-03
O         0.4218081747      -0.7310057787       1.2727604977   4.207536454199e-03   2.270930832344e-02  -3.808481959492e-02
O         0.5152830380      -0.6945214053      -1.2605766748  -9.194280674576e-03   1.797090440791e-03   5.938296892968e-03
H        -1.9114444480      -0.8608024164      -0.1174027084   1.544907280672e-02   8.901584477494e-03   2.200627104848e-03
6
Properties=species:S:1:pos:R:3:forces:R:3 energy=-6.992882271523e+02 dipole="-8.5634488269e-01 -4.9220275684e-01 -3.3131671884e-01" quadrupole="-2.9933543639e+01 2.2341049908e+00 7.8132250348e-01 2.2341049908e+00 -3.2977992442e+01 4.9767369956e-01 7.8132250348e-01 4.9767369956e-01 -3.3819818071e+01" polarizability="4.3081314788e+01 5.5060039218e-01 -7.4163361605e-01 5.5060039218e-01 4.2384668036e+01 2.3932591823e-01 -7.4163361605e-01 2.3932591823e-01 4.0925977905e+01" charge=-1 multiplicity=1 method=wB97M-V basis=def2-svpd config_type=hso4- sample_index=451 temperature=300.0 units=atomic
S         0.1269019094       0.0185967294      -0.0448045216   2.263190505337e-03   2.305241369616e-02   5.576731607476e-02
O        -1.5638335571       0.0813114734       0.1146238268   8.171210755787e-03  -4.209913219137e-03  -2.822725943766e-02
O         0.4884050109       1.4272135752      -0.0016086263   9.279708837395e-04   2.324658283239e-02  -9.459837050014e-03
O         0.4315180054      -0.7084338873       1.1793231755   1.108309779872e-02  -1.867666492127e-02   3.127692829554e-02
O         0.5765844195      -0.7249987714      -1.1935790129  -8.953954288069e-03  -1.800192672843e-02  -5.145604497221e-02
H        -1.7443001710      -0.8240336750      -0.1560904890  -1.354301698483e-02  -5.394661746726e-03   2.134715332740e-03
6
Properties=species:S:1:pos:R:3:forces:R:3 energy=-6.992740278881e+02 dipole="-7.6308782845e-01 -4.9613956991e-01 -9.1693215183e-02" quadrupole="-2.8532398265e+01 2.8736761271e+00 2.4587092592e-01 2.8736761271e+00 -3.3032855486e+01 2.1361790929e-01 2.4587092592e-01 2.1361790929e-01 -3.4407869786e+01" polarizability="4.6265708746e+01 2.5328698772e+00 -8.7363165696e-03 2.5328698772e+00 4.5423684697e+01 -1.3628394443e-01 -8.7363165696e-03 -1.3628394443e-01 4.3038307128e+01" charge=-1 multiplicity=1 method=wB97M-V basis=def2-svpd config_type=hso4- sample_index=452 temperature=300.0 units=atomic
S         0.1870709925       0.0123398027      -0.0078245615  -4.646100844231e-02  -1.674804273903e-02   1.940166426674e-02
O        -1.5253126072       0.0836411441       0.0288630251  -6.203059891297e-02  -6.478158879622e-02  -1.059072721545e-02
O         0.4348855273       1.4509360782      -0.0157687731   1.306937641850e-02   8.787849649654e-03   1.907983225041e-03
O         0.4450356840      -0.7312226540       1.2461163307   1.540028174793e-02   3.878674946938e-03  -3.187582381408e-03
O         0.4826278006      -0.7129133672      -1.2408290325   1.225480509862e-02  -7.675070164638e-03  -1.381162377996e-02
H        -2.1309022184      -0.8682023115      -0.0480985615   6.780038850339e-02   7.657070921424e-02   6.312937001676e-03
6
Properties=species:S:1:pos:R:3:forces:R:3 energy=-6.992905431526e+02 dipole="-1.0357372786e+00 -7.7995429709e-01 -2.6491805045e-01" quadrupole="-2.8701579103e+01 2.2435431687e+00 -2.3307611441e-01 2.2435431687e+00 -3.3162441384e+01 2.1479009815e-01 -2.3307611441e-01 2.1479009815e-01 -3.4451044992e+01" polarizability="4.2862587638e+01 1.5721470891e+00 3.4103539801e-01 1.5721470891e+00 4.3393436744e+01 -1.8134587860e-01 3.4103539801e-01 -1.8134587860e-01 4.2885062551e+01" charge=-1 multiplicity=1 method=wB97M-V basis=def2-svpd config_type=hso4- sample_index=453 temperature=300.0 units=atomic
S         0.1376953595      -0.0278087997      -0.0344799271   7.199698342741e-03   6.911487566636e-02   8.663218734512e-02
O        -1.5114891888       0.0715482694       0.0096113846  -3.038832441915e-02  -2.131398067022e-02  -5.723546645828e-03
O         0.4850609492       1.4230657738       0.0347248446  -3.749593511613e-03  -1.177773412315e-02  -1.355073164465e-02
O         0.4769055757      -0.6511084569       1.2851573923  -1.967950435783e-03  -1.745850957157e-02  -2.366227754677e-02
O         0.4736849288      -0.6764757775      -1.2603830376   1.250090928488e-02  -3.821186986679e-02  -4.407666604985e-02
H        -1.9326668875      -0.8254282779       0.0007875193   1.632092161101e-02   1.966364350217e-02   4.167780420438e-04
6
Properties=species:S:1:pos:R:3:forces:R:3 energy=-6.992875297887e+02 dipole="-1.3850491496e+00 -4.8386132213e-01 1.1687195988e-01" quadrupole="-2.7624672610e+01 2.8269741426e+00 -1.4167470652e-01 2.8269741426e+00 -3.3535533867e+01 -1.1947055944e-01 -1.4167470652e-01 -1.1947055944e-01 -3.4663606716e+01" polarizability="4.3431719747e+01 1.6336261657e+00 4.1031216688e-02 1.6336261657e+00 4.4249601633e+01 -8.1981993046e-02 4.1031216688e-02 -8.1981993046e-02 4.2507960811e+01" charge=-1 multiplicity=1 method=wB97M-V basis=def2-svpd config_type=hso4- sample_index=454 temperature=300.0 units=atomic
S         0.1042366205       0.0137791425       0.0156607163   5.765592700838e-02  -1.602372708829e-02  -2.083202441061e-02
O        -1.4929431102       0.0858175483      -0.0252905930  -7.978602781985e-02  -3.333144086129e-02   7.852397764616e-03
O         0.4714907972       1.4406071200      -0.0077036474  -6.409179606941e-03   2.144391618387e-03   4.635968232105e-03
O         0.5241198682      -0.7273160758       1.2244534947  -1.110326589760e-02   1.478101364194e-03   8.106747432908e-03
O         0.4949164451      -0.7165500706      -1.2246366046  -7.360677110973e-03   2.097955926601e-03   3.026189513513e-03
H        -2.0585072556      -0.7842448099       0.0308795098   4.697663547297e-02   4.357608834861e-02  -2.807062283067e-03
6
Properties=species:S:1:pos:R:3:forces:R:3 energy=-6.992879607514e+02 dipole="-8.7141758428e-01 -1.7218000639e-01 9.3666524817e-02" quadrupole="-2.9734456506e+01 2.4368015357e+00 1.7264947151e-01 2.4368015357e+00 -3.2398422581e+01 9.4775079372e-02 1.7264947151e-01 9.4775079372e-02 -3.4915188416e+01" polarizability="4.0753602779e+01 7.1297711436e-01 -1.0360766854e-01 7.1297711436e-01 4.2502091355e+01 -3.0981871790e-01 -1.0360766854e-01 -3.0981871790e-01 4.2822382106e+01" charge=-1 multiplicity=1 method=wB97M-V basis=def2-svpd config_type=hso4- sample_index=455 temperature=300.0 units=atomic
S         0.1380759491       0.0604834671       0.0182341908   8.887247876928e-03  -1.249016607970e-01  -1.726431013910e-02
O        -1.4807762044       0.0425042273       0.0002583748  -3.204826122553e-02  -2.248684370876e-02   2.448181178829e-03
O         0.4823385533       1.4143594903      -0.0380016843   2.552692689613e-02   9.602974127285e-02   8.399148860811e-03
O         0.4460314049      -0.7516556746       1.2468302194   2.934444850234e-03   1.952785715189e-02  -1.140677372619e-02
O         0.4545360101      -0.7076527708      -1.2446271596   1.991811396890e-03   9.002306974446e-03   1.758954106916e-02
H        -1.6070989523      -0.9405052495      -0.0195023936  -7.278002181073e-03   2.279069255544e-02   2.697838983394e-04
6
Properties=species:S:1:pos:R:3:forces:R:3 energy=-6.992884729512e+02 dipole="-8.6706799690e-01 -6.2968089265e-01 1.2531402919e-01" quadrupole="-2.9874774282e+01 1.8598561921e+00 -5.3948488849e-01 1.8598561921e+00 -3.2956308000e+01 -4.7984930555e-01 -5.3948488849e-01 -4.7984930555e-01 -3.4773406014e+01" polarizability="4.4419424234e+01 2.6634235052e+00 3.7626588567e-01 2.6634235052e+00 4.5754758842e+01 5.7089856594e-01 3.7626588567e-01 5.7089856594e-01 4.4415151359e+01" charge=-1 multiplicity=1 method=wB97M-V basis=def2-svpd config_type=hso4- sample_index=456 temperature=300.0 units=atomic
S         0.1449484463       0.0205973855       0.0054370323   1.067475591184e-02   2.745282469690e-02  -2.000472366470e-02
O        -1.5552948097      -0.0423304765      -0.0572568804  -4.561115448666e-03   1.625228876765e-02   1.101478673339e-02
O         0.5967393836       1.4934103676       0.0495920493  -3.031971567398e-02  -5.591710794807e-02  -1.059972786021e-02
O         0.4705519335      -0.6592574548       1.2791432727   2.813058794926e-04  -7.953301502525e-03  -7.249371952014e-03
O         0.3913295069      -0.7153247736      -1.2881905699   1.354123042678e-02   1.384544315571e-02   2.777481463145e-02
H        -1.8309335586      -0.9610028617       0.1043118242   1.039244279515e-02   6.390165322654e-03  -9.792563252448e-04
6
Properties=species:S:1:pos:R:3:forces:R:3 energy=-6.992881705251e+02 dipole="-7.3724722322e-01 -3.3111660486e-01 1.6247059885e-01" quadrupole="-2.9438064483e+01 2.6718076834e+00 -4.4309598475e-01 2.6718076834e+00 -3.2488435853e+01 -3.3922870638e-01 -4.4309598475e-01 -3.3922870638e-01 -3.4562109898e+01" polarizability="4.3952781125e+01 1.7755141490e+00 2.1460211845e-01 1.7755141490e+00 4.4091147113e+01 1.0075603732e-01 2.1460211845e-01 1.0075603732e-01 4.2809996283e+01" charge=-1 multiplicity=1 method=wB97M-V basis=def2-svpd config_type=hso4- sample_index=457 temperature=300.0 units=atomic
S         0.1704276556       0.0488748598       0.0164228051  -3.576890755609e-02  -7.248913584823e-02  -2.745148136867e-02
O        -1.5348545157       0.0221401506      -0.0566259119  -3.100351259653e-02  -3.699293415989e-02   1.975179933925e-02
O         0.5017872535       1.4447446081       0.0188723358   7.221239699601e-03   3.762343119524e-02  -7.173401671227e-04
O         0.4817893340      -0.7148061133       1.2348890216   6.329123058007e-03   1.516331851517e-03   1.096959271566e-02
O         0.4079414262      -0.7311331618      -1.2349798488   1.864867952699e-02   1.179221607640e-02   6.158133464190e-03
H        -1.9099965276      -0.9467950499       0.0870219997   3.456035358188e-02   5.848038173299e-02  -8.717290867447e-03
6
Properties=species:S:1:pos:R:3:forces:R:3 energy=-6.992802467129e+02 dipole="-8.6866819611e-01 -4.1290710490e-01 -1.6067671395e-01" quadrupole="-2.8809728491e+01 2.3791770016e+00 -1.8987458515e-02 2.3791770016e+00 -3.2928129141e+01 2.6881362472e-01 -1.8987458515e-02 2.6881362472e-01 -3.4577156989e+01" polarizability="4.2636307115e+01 2.7532767814e-01 1.7979570346e-01 2.7532767814e-01 4.2032953345e+01 -4.6924188642e-01 1.7979570346e-01 -4.6924188642e-01 4.3407722799e+01" charge=-1 multiplicity=1 method=wB97M-V basis=def2-svpd config_type=hso4- sample_index=458 temperature=300.0 units=atomic
S         0.1573119467       0.0116721721      -0.0144135027  -1.790976285681e-02  -3.910010126381e-02   4.649462027393e-02
O        -1.5431629144       0.0495285238       0.0102300887   7.464949277627e-02   1.505918976130e-01   3.591736643770e-03
O         0.4822873807       1.4165692808      -0.0072034665   5.316832782459e-03   3.205313737761e-02   5.671342996030e-04
O         0.4710703484      -0.7047175462       1.2890503787  -2.848970631031e-03   1.107821174642e-02  -3.711539179463e-02
O         0.4777001600      -0.6816843686      -1.2620500922   5.214148126505e-03  -1.411706637564e-02  -7.845167449887e-03
H        -1.9822265240      -0.6880876818      -0.0211605148  -6.447425279879e-02  -1.404855850181e-01  -5.681861870388e-03
6
Properties=species:S:1:pos:R:3:forces:R:3 energy=-6.992895867733e+02 dipole="-9.9655617995e-01 -3.7370355264e-01 -2.0814329050e-01" quadrupole="-2.9071976836e+01 2.7658448383e+00 5.7565681965e-02 2.7658448383e+00 -3.2957486888e+01 3.5076507048e-01 5.7565681965e-02 3.5076507048e-01 -3.4548987181e+01" polarizability="4.6039134482e+01 1.5341145678e+00 1.9391191023e-01 1.5341145678e+00 4.4703037566e+01 -4.7299811149e-01 1.9391191023e-01 -4.7299811149e-01 4.3162632537e+01" charge=-1 multiplicity=1 method=wB97M-V basis=def2-svpd config_type=hso4- sample_index=459 temperature=300.0 units=atomic
S         0.1315092157       0.0410045623      -0.0199516715   8.303248791214e-03  -4.298363744133e-02   5.457987885749e-02
O        -1.5977276417       0.0350284884       0.0213315635  -8.322429901387e-03  -7.126603790329e-03  -5.963480187867e-03
O         0.5348250357       1.4537751099      -0.0087151644  -1.632828168358e-02   9.720340241124e-04  -6.307601841096e-04
O         0.4931206415      -0.7410945140       1.2374760958  -1.281907680102e-02   2.547399984313e-02  -2.477682365576e-02
O         0.5130416067      -0.7159049245      -1.2080419469  -4.017360814045e-03  -3.829835039433e-03  -2.497849192523e-02
H        -2.0574975383      -0.8578887103      -0.0374536888   3.319122778492e-02   2.750281384029e-02   1.833997769665e-03
6
Properties=species:S:1:pos:R:3:forces:R:3 energy=-6.992759570715e+02 dipole="-5.5180141601e-01 -5.5694811487e-01 -7.1414222469e-02" quadrupole="-3.0144783182e+01 2.3703531299e+00 -3.5069266406e-01 2.3703531299e+00 -3.3555626565e+01 -6.7551715331e-02 -3.5069266406e-01 -6.7551715331e-02 -3.3618153447e+01" polarizability="4.4031057322e+01 -1.9005862401e-01 3.4200587742e-01 -1.9005862401e-01 4.4371845943e+01 1.2840410857e-01 3.4200587742e-01 1.2840410857e-01 4.1590780435e+01" charge=-1 multiplicity=1 method=wB97M-V basis=def2-svpd config_type=hso4- sample_index=460 temperature=300.0 units=atomic
S         0.1805019503       0.0131669382      -0.0135101533  -4.013524205836e-02   5.927400396029e-02   3.233826773277e-02
O        -1.5841385578       0.1097696458      -0.0192098303   6.961049862267e-02   1.487381820228e-01  -9.829221360917e-03
O         0.4270125978       1.5080248607       0.0316643203   6.922283412801e-03  -4.729981086336e-02  -8.367938178962e-03
O         0.5103717532      -0.7554771726       1.1922039078   1.279930333816e-03   3.821338029590e-03   1.960761035076e-02
O         0.4759754461      -0.7821528765      -1.1798303403   1.079393986143e-02  -5.217048976361e-03  -4.491934869809e-02
H        -1.8103493408      -0.7130231999       0.0404224827  -4.844387800882e-02  -1.592847889868e-01   1.116866887386e-02
6
Properties=species:S:1:pos:R:3:forces:R:3 energy=-6.992929039633e+02 dipole="-7.8228409304e-01 -5.6344370105e-01 -9.5567398815e-02" quadrupole="-3.0242836301e+01 2.0119014819e+00 4.2849753315e-01 2.0119014819e+00 -3.2895876343e+01 1.6481266856e-03 4.2849753315e-01 1.6481266856e-03 -3.4622765772e+01" polarizability="4.3653421927e+01 1.5602124983e+00 -6.2079813982e-01 1.5602124983e+00 4.4855522120e+01 8.3194901680e-01 -6.2079813982e-01 8.3194901680e-01 4.3721206698e+01" charge=-1 multiplicity=1 method=wB97M-V basis=def2-svpd config_type=hso4- sample_index=461 temperature=300.0 units=atomic
S         0.1478010389       0.0174679256      -0.0229214627   6.095656512803e-03   2.230838807937e-02  -3.043763292851e-03
O        -1.5471153849       0.0302796251       0.0655292765   1.192820702439e-03  -3.579187050076e-02  -2.333390155832e-02
O         0.5255135811       1.4663345063       0.0262922493  -8.895867471509e-03  -2.523406469634e-02  -1.212510552417e-02
O         0.4119116318      -0.6763610102       1.2471217181   1.636145285007e-02  -1.503868619747e-02   2.759813005959e-03
O         0.4979598319      -0.7360641863      -1.2887645023  -1.133339389882e-02   1.800243493371e-02   2.960597534666e-02
H        -1.6882729173      -0.9597205066      -0.0713176249  -3.403651966288e-03   3.582658280261e-02   6.079614664070e-03
6
Properties=species:S:1:pos:R:3:forces:R:3 energy=-6.992804697852e+02 dipole="-8.5360867474e-01 -5.6221995914e-01 5.8886091244e-03" quadrupole="-2.9524795751e+01 2.1981562039e+00 6.1158438210e-01 2.1981562039e+00 -3.3290945040e+01 9.2807870989e-02 6.1158438210e-01 9.2807870989e-02 -3.4097358742e+01" polarizability="4.4487871147e+01 7.7017011541e-01 -6.6068285834e-01 7.7017011541e-01 4.3747546066e+01 1.2317815045e-01 -6.6068285834e-01 1.2317815045e-01 4.2565534877e+01" charge=-1 multiplicity=1 method=wB97M-V basis=def2-svpd config_type=hso4- sample_index=462 temperature=300.0 units=atomic
S         0.1421574073       0.0119306242       0.0017470357   9.162970094256e-04   3.230847047532e-02  -2.954417420948e-02
O        -1.6018989055       0.0366252129       0.0493908699   7.900287960848e-02   1.538312831872e-01   1.641281814605e-02
O         0.5289919910       1.4731535055      -0.0234967164  -2.060259226322e-02  -3.765889980440e-02   4.478478918037e-03
O         0.4579425047      -0.7175143190       1.2168638960   6.645622119159e-03  -1.021125957739e-02   2.470167425146e-02
O         0.5310565642      -0.7100955096      -1.2419207702  -1.321473934504e-02   4.668152791272e-03   7.302943534690e-03
H        -1.9593180888      -0.7356996962      -0.0760818034  -5.277678938897e-02  -1.428929265485e-01  -2.337722970641e-02
6
Properties=species:S:1:pos:R:3:forces:R:3 energy=-6.992753354832e+02 dipole="-1.0835770256e+00 -4.4434171981e-01 2.7325899540e-01" quadrupole="-2.8554653563e+01 3.0778503671e+00 1.5950373321e-01 3.0778503671e+00 -3.2947399417e+01 -3.4634992255e-01 1.5950373321e-01 -3.4634992255e-01 -3.4473111277e+01" polarizability="4.4691526998e+01 1.7606398581e+00 -3.7425731592e-01 1.7606398581e+00 4.4198873141e+01 3.8921520786e-01 -3.7425731592e-01 3.8921520786e-01 4.2170228859e+01" charge=-1 multiplicity=1 method=wB97M-V basis=def2-svpd config_type=hso4- sample_index=463 temperature=300.0 units=atomic
S         0.1309749280       0.0149797440       0.0301869767   1.911789778237e-03  -4.005741896913e-02  -8.069370758416e-02
O        -1.5246465726       0.1233857993      -0.0137390981  -5.876795203273e-02  -8.499512228614e-02   7.668807371300e-03
O         0.4363548168       1.4105075977      -0.0120916547   1.460156911393e-02   5.491887514984e-02   5.445576436681e-03
O         0.5169468586      -0.7203230937       1.1989180053   4.823461412996e-03  -2.358180071790e-02   5.044751295038e-02
O         0.5129124947      -0.7264158951      -1.2345581125  -1.221542602639e-02   1.084765818148e-02   2.002826592157e-02
H        -2.0157288566      -0.8866638245       0.0175357842   4.961679627815e-02   8.280154607837e-02  -2.937803394705e-03
6
Properties=species:S:1:pos:R:3:forces:R:3 energy=-6.992898780870e+02 dipole="-6.7453258413e-01 -2.5098667440e-01 1.2351045732e-02" quadrupole="-2.9902386324e+01 2.7514525347e+00 2.1257769855e-01 2.7514525347e+00 -3.2616929516e+01 -1.6232924424e-01 2.1257769855e-01 -1.6232924424e-01 -3.3979354015e+01" polarizability="4.4045955896e+01 6.4410334989e-01 -3.4442503401e-01 6.4410334989e-01 4.3137765023e+01 6.0328560604e-01 -3.4442503401e-01 6.0328560604e-01 4.1219285054e+01" charge=-1 multiplicity=1 method=wB97M-V basis=def2-svpd config_type=hso4- sample_index=464 temperature=300.0 units=atomic
S         0.1614824613       0.0609087287      -0.0074122988  -3.748995183406e-02  -6.699479325764e-02  -2.605503012195e-02
O        -1.5849734119       0.0542133408       0.0240541837   1.324591890156e-02   1.646792208298e-02  -5.430472699559e-03
O         0.4866729091       1.4518535535       0.0219572408   6.837846509767e-03   4.415131533579e-02  -6.083440088268e-03
O         0.4686129040      -0.7344344873       1.1523004569   1.304780471177e-02  -1.219120892011e-02   5.795023698154e-02
O         0.5014855454      -0.7788116287      -1.1822974595  -2.982510273440e-03   2.129846544914e-02  -2.007611723353e-02
H        -1.8816813603      -0.8607739251      -0.0181334543   7.365764140876e-03  -2.799960531906e-03  -3.503431400470e-04
6
Properties=species:S:1:pos:R:3:forces:R:3 energy=-6.992844006685e+02 dipole="-1.1299721928e+00 -8.7390926805e-01 2.8570041108e-01" quadrupole="-2.8998306163e+01 2.0812145486e+00 -3.4178460281e-01 2.0812145486e+00 -3.3985582309e+01 -5.6672767698e-01 -3.4178460281e-01 -5.6672767698e-01 -3.4036668829e+01" polarizability="4.3526262647e+01 1.1774134271e+00 9.6685885250e-02 1.1774134271e+00 4.5036625921e+01 6.0494538978e-01 9.6685885250e-02 6.0494538978e-01 4.2363504030e+01" charge=-1 multiplicity=1 method=wB97M-V basis=def2-svpd config_type=hso4- sample_index=465 temperature=300.0 units=atomic
S         0.1134911628      -0.0283587613       0.0281645522   3.047520932175e-02   1.133543573051e-01  -8.307583696130e-02
O        -1.5476553384       0.0828777292      -0.0539370316   1.086079091136e-02   3.246043229084e-02   5.694705005895e-03
O         0.5004184093       1.4914046944       0.0213328798  -2.278421814138e-02  -6.714781081162e-02  -1.585596086138e-05
O         0.5397899700      -0.6864156221       1.2125523375   2.787449317877e-03  -3.983993724062e-02   6.028583791989e-02
O         0.4767442997      -0.7225648987      -1.2413386533  -7.104655695336e-03  -4.038688161021e-04   1.215563030279e-02
H        -1.8976799406      -0.7673273040       0.0883379422  -1.429347185804e-02  -3.841813719241e-02   4.953590170081e-03
6
Properties=species:S:1:pos:R:3:forces:R:3 energy=-6.992831977993e+02 dipole="-4.5474447743e-01 -4.3509826722e-01 2.6258632189e-01" quadrupole="-3.0250015301e+01 2.1865141169e+00 2.2380270205e-01 2.1865141169e+00 -3.2283147814e+01 -2.4864190734e-01 2.2380270205e-01 -2.4864190734e-01 -3.4033368987e+01" polarizability="4.2297596399e+01 3.5664268495e-01 -3.2047369159e-01 3.5664268495e-01 4.0826391626e+01 2.7487966082e-01 -3.2047369159e-01 2.7487966082e-01 4.1608708423e+01" charge=-1 multiplicity=1 method=wB97M-V basis=def2-svpd config_type=hso4- sample_index=466 temperature=300.0 units=atomic
S         0.1865530918       0.0163429345       0.0317631237  -6.368068622419e-02  -2.897521470583e-02  -8.752927838659e-02
O        -1.5497598439       0.0628992844      -0.0101177476   2.952162274952e-02   7.369036019942e-02   4.662141549398e-03
O         0.4607335577       1.3964293062      -0.0243899581   2.781480011201e-02   8.277056201900e-02   7.599060699999e-03
O         0.4502272430      -0.6959207894       1.2282146243   2.246120199077e-02  -3.865412309201e-02   6.101617382728e-02
O         0.4517571597      -0.6848943557      -1.2577029557   9.122591180208e-03  -6.993043332473e-03   1.387805386796e-02
H        -1.7179834676      -0.8204091038       0.0056566307  -2.521082376072e-02  -8.180478952612e-02   3.917493929519e-04
6
Properties=species:S:1:pos:R:3:forces:R:3 energy=-6.992772563335e+02 dipole="-8.2621410628e-01 -3.1556580928e-01 2.1843325993e-01" quadrupole="-3.0254865883e+01 2.1884874712e+00 4.3940233164e-02 2.1884874712e+00 -3.2606894237e+01 -6.3525635255e-02 4.3940233164e-02 -6.3525635255e-02 -3.4924755493e+01" polarizability="4.1527051280e+01 1.2416296043e+00 3.1067161872e-02 1.2416296043e+00 4.4925132688e+01 -4.3057687637e-01 3.1067161872e-02 -4.3057687637e-01 4.3373837581e+01" charge=-1 multiplicity=1 method=wB97M-V basis=def2-svpd config_type=hso4- sample_index=467 temperature=300.0 units=atomic
S         0.1375737291       0.0531974785       0.0358664718   2.312261580702e-02  -5.062609939561e-02  -4.229217682333e-02
O        -1.4821950188       0.0417295705      -0.0323114396  -2.483768526375e-02  -8.384722713756e-02   1.735195042071e-02
O         0.4941314757       1.4547139361      -0.0447234378   9.653655061367e-03   2.438377135651e-02   1.449530962578e-02
O         0.4571416649      -0.7664238859       1.2514090347   3.540710698591e-04   2.077282512011e-02  -8.664807391362e-03
O         0.4267862589      -0.7110918563      -1.2476298702   8.298857971917e-03   1.040629002428e-02   2.493222373342e-02
H        -1.4927911435      -1.0533758829       0.0216137278  -1.655222614122e-02   7.889482349924e-02  -5.786209003503e-03
6
Properties=species:S:1:pos:R:3:forces:R:3 energy=-6.992955513438e+02 dipole="-8.8805105122e-01 -4.7631558107e-01 1.1463043485e-01" quadrupole="-3.0112364421e+01 2.3868404485e+00 -3.8248752613e-01 2.3868404485e+00 -3.2904343964e+01 -1.5142236284e-01 -3.8248752613e-01 -1.5142236284e-01 -3.4694812047e+01" polarizability="4.5472914810e+01 8.2742872454e-01 4.6220454804e-01 8.2742872454e-01 4.4227016591e+01 -2.9102073002e-01 4.6220454804e-01 -2.9102073002e-01 4.4207191496e+01" charge=-1 multiplicity=1 method=wB97M-V basis=def2-svpd config_type=hso4- sample_index=468 temperature=300.0 units=atomic
S         0.1303006009       0.0163857216       0.0178714852   1.961729491516e-02  -1.304743724547e-02  -1.265801321606e-02
O        -1.6021361286       0.0678686640      -0.0516562655   2.053188183959e-02  -1.865033901393e-02   1.341590583085e-02
O         0.5170129073       1.4359487741      -0.0036153420  -8.487039396112e-03   1.250720165945e-03   5.001481761273e-03
O         0.5414267229      -0.7194093569       1.2738783166  -2.233161502854e-02   1.263988810557e-02  -2.662023170528e-02
O         0.4744824121      -0.7016984748      -1.2583012480  -8.139104825194e-03   3.924764684351e-03   2.354905850738e-02
H        -1.8119264902      -0.8840075199       0.0669835176  -1.244727276511e-03   1.387194029272e-02  -2.667842982556e-03
6
Properties=species:S:1:pos:R:3:forces:R:3 energy=-6.992871980402e+02 dipole="-9.1448184848e-01 -7.5398723825e-01 4.9169505652e-02" quadrupole="-3.0068841491e+01 2.1528531424e+00 2.1886535847e-01 2.1528531424e+00 -3.2785891785e+01 4.9563555789e-03 2.1886535847e-01 4.9563555789e-03 -3.4213445771e+01" polarizability="4.4647992519e+01 1.9788977319e+00 -2.6381687505e-01 1.9788977319e+00 4.4361548213e+01 1.3916937861e-01 -2.6381687505e-01 1.3916937861e-01 4.2115082547e+01" charge=-1 multiplicity=1 method=wB97M-V basis=def2-svpd config_type=hso4- sample_index=469 temperature=300.0 units=atomic
S         0.1232137525      -0.0067320063       0.0058954502   1.216066779754e-02   6.999196623672e-02  -2.613222841062e-02
O        -1.5873067015       0.0609009961       0.0159578569   2.326898479623e-03  -7.689303132002e-02  -5.184890730497e-03
O         0.5370426273       1.4324393565      -0.0130722038  -1.707174426085e-02  -1.472473977029e-02   3.441685309258e-03
O         0.4838049418      -0.6820183739       1.2256540572   2.540407510157e-03  -2.992596603329e-02   3.656361959358e-02
O         0.5101302404      -0.6764432261      -1.2388420094  -8.158799533398e-03  -1.941714432698e-02  -1.167873280449e-02
H        -1.7893250065      -0.9882790276      -0.0266300361   8.113789904957e-03   7.100475705436e-02   2.945253285222e-03
6
Properties=species:S:1:pos:R:3:forces:R:3 energy=-6.992763468979e+02 dipole="-5.5452014948e-01 -3.4962510867e-01 -1.7156391796e-01" quadrupole="-3.0121269367e+01 2.7266746680e+00 -3.4376392208e-01 2.7266746680e+00 -3.3030334618e+01 7.3338554561e-03 -3.4376392208e-01 7.3338554561e-03 -3.3984016983e+01" polarizability="4.4540729969e+01 -9.9854744843e-01 3.3361865021e-01 -9.9854744843e-01 4.2613480461e+01 1.6287393820e-01 3.3361865021e-01 1.6287393820e-01 4.2552393576e+01" charge=-1 multiplicity=1 method=wB97M-V basis=def2-svpd config_type=hso4- sample_index=470 temperature=300.0 units=atomic
S         0.1789234804       0.0203577045      -0.0277342492  -3.901339213457e-02  -4.017767724423e-02   4.850515619121e-02
O        -1.5963683155       0.1386129507      -0.0050737074   7.598608046120e-02   1.414715104888e-01  -9.376258867167e-03
O         0.4009291529       1.4349150400       0.0449726798   2.436023010485e-02   4.030488764871e-02  -1.151437308513e-02
O         0.5255515488      -0.7338109597       1.2266455956  -8.172695074314e-03   1.161301842829e-02  -1.662179726901e-02
O         0.5049021959      -0.7756071728      -1.2124285624   4.547171295028e-04   6.230060842736e-03  -1.735923466426e-02
H        -1.8457927017      -0.6782280786       0.0274002788  -5.359203274479e-02  -1.594648813938e-01   6.369483189802e-03
6
Properties=species:S:1:pos:R:3:forces:R:3 energy=-6.992861320954e+02 dipole="-9.9119525561e-01 -4.1333290257e-01 1.4812148107e-01" quadrupole="-2.9760912579e+01 2.5448843474e+00 7.5149195020e-01 2.5448843474e+00 -3.2933205449e+01 -1.8636518101e-01 7.5149195020e-01 -1.8636518101e-01 -3.4616582008e+01" polarizability="4.3231272281e+01 9.8218693432e-01 -1.0242244982e+00 9.8218693432e-01 4.4446472198e+01 1.0688172161e+00 -1.0242244982e+00 1.0688172161e+00 4.2892877196e+01" charge=-1 multiplicity=1 method=wB97M-V basis=def2-svpd config_type=hso4- sample_index=471 temperature=300.0 units=atomic
S         0.1213003092       0.0323594351       0.0078673117   2.543680953122e-02  -1.853159985750e-02  -7.189366243132e-02
O        -1.5364583889       0.0796123248       0.0659415194  -1.793827798338e-02  -6.628212357024e-02  -2.225168267993e-02
O         0.4875702488       1.4422349254      -0.0066576146   9.935144581990e-04   1.656586474851e-02  -8.311873642026e-04
O         0.4449469897      -0.7138228668       1.1930286930   1.397299783493e-02  -2.389580287934e-02   4.551579886589e-02
O         0.5471420968      -0.7531877183      -1.2631257137  -2.778444011111e-02   3.045199391030e-02   3.978174539152e-02
H        -1.7333113151      -0.9428704849      -0.0844836645   5.312222044588e-03   6.166920296319e-02   9.670113958493e-03
6
Properties=species:S:1:pos:R:3:forces:R:3 energy=-6.992940890183e+02 dipole="-8.3242473867e-01 -4.2184764905e-01 2.3141043577e-01" quadrupole="-2.9410430959e+01 2.3809706811e+00 4.8363439790e-02 2.3809706811e+00 -3.2988706816e+01 -5.1032369958e-01 4.8363439790e-02 -5.1032369958e-01 -3.4359337920e+01" polarizability="4.2087590993e+01 9.5435112662e-01 -3.0842303188e-01 9.5435112662e-01 4.3485991162e+01 9.5917887330e-01 -3.0842303188e-01 9.5917887330e-01 4.2189808183e+01" charge=-1 multiplicity=1 method=wB97M-V basis=def2-svpd config_type=hso4- sample_index=472 temperature=300.0 units=atomic
S         0.1532335417       0.0348175181       0.0159599039  -1.278840252843e-02  -8.345772172665e-03  -7.978126221588e-02
O        -1.5191979957       0.0387357431      -0.0110060781  -1.081010119844e-03   4.327917708249e-02   6.548828644455e-04
O         0.4905460959       1.4634849815       0.0271417179  -2.502529848121e-04  -4.783288066967e-04  -4.439209621611e-03
O         0.4594234419      -0.7000155051       1.2011226912   1.873330243474e-02  -2.867911765284e-02   5.583887414210e-02
O         0.4536795826      -0.7588613677      -1.2510843683   6.995620283252e-04   2.652646360825e-02   2.696319064290e-02
H        -1.8100492901      -0.8486390212       0.0351448208  -5.318071226221e-03  -3.230256624736e-02   7.001421354867e-04
6
Properties=species:S:1:pos:R:3:forces:R:3 energy=-6.992301070648e+02 dipole="-1.1436238841e+00 -6.8317509129e-01 -2.2786541007e-01" quadrupole="-2.9409796131e+01 1.8370736966e+00 -5.0351660383e-02 1.8370736966e+00 -3.4043391511e+01 5.6541921705e-02 -5.0351660383e-02 5.6541921705e-02 -3.3815411171e+01" polarizability="4.1036907306e+01 4.9284466728e-02 3.0271909165e-02 4.9284466728e-02 4.3362958176e+01 3.6633092710e-01 3.0271909165e-02 3.6633092710e-01 4.1307054709e+01" charge=-1 multiplicity=1 method=wB97M-V basis=def2-svpd config_type=hso4- sample_index=473 temperature=300.0 units=atomic
S         0.0900636986      -0.0071970894      -0.0373124052   8.087893896692e-02   9.863638637159e-02   5.525332194883e-02
O        -1.5226707627       0.0972430320       0.0262936287   5.388047011218e-02   3.426898235718e-01   6.338755785036e-03
O         0.4818605629       1.4826849161       0.0491581715  -1.754806901877e-02  -5.126311815201e-02  -1.868547964115e-02
O         0.5100673252      -0.7024192920       1.1937031754  -1.265363263596e-02  -1.237463827061e-02   1.331089240803e-02
O         0.5309071976      -0.7599163781      -1.1935653153  -1.175754863367e-02  -1.017220559480e-02  -4.045126573343e-02
H        -1.6543868959      -0.6711040423      -0.0116777406  -9.281416969227e-02  -3.675276744871e-01  -1.568276279215e-02
6
Properties=species:S:1:pos:R:3:forces:R:3 energy=-6.992645915728e+02 dipole="-6.6786177675e-01 -2.1867077695e-01 -3.5088413648e-02" quadrupole="-3.0232003521e+01 2.3874379490e+00 -1.6228003602e-01 2.3874379490e+00 -3.2969831384e+01 -1.4329045825e-01 -1.6228003602e-01 -1.4329045825e-01 -3.4358792580e+01" polarizability="4.2776116907e+01 -6.2776477988e-01 8.2150059856e-02 -6.2776477988e-01 4.2316593122e+01 3.9642560177e-01 8.2150059856e-02 3.9642560177e-01 4.3071477551e+01" charge=-1 multiplicity=1 method=wB97M-V basis=def2-svpd config_type=hso4- sample_index=474 temperature=300.0 units=atomic
S         0.1563633456       0.0393097379      -0.0113743084  -7.710008288146e-03  -7.344197314730e-02   6.122147028373e-03
O        -1.5579292267       0.1006542539      -0.0053925643   5.463221222201e-02   2.224830510801e-01  -9.715200519155e-03
O         0.4350039714       1.4356060017       0.0334511889   2.252731550354e-02   5.231416524152e-02  -7.372131285234e-03
O         0.5021458077      -0.7338764606       1.2358084178  -8.688217571145e-03   1.418349031019e-02  -1.895539281743e-02
O         0.4896252384      -0.7748781290      -1.2423867475  -8.397300369285e-03   2.647457979329e-02   2.103895096187e-02
H        -1.6649848501      -0.7143869394       0.0248608680  -5.232103037290e-02  -2.420841562012e-01   8.845459996847e-03
6
Properties=species:S:1:pos:R:3:forces:R:3 energy=-6.992898098175e+02 dipole="-6.0558133063e-01 -6.4990808637e-01 2.1930822956e-01" quadrupole="-2.9994410713e+01 2.2729069607e+00 4.1826698795e-02 2.2729069607e+00 -3.3317165112e+01 -3.8927284978e-01 4.1826698795e-02 -3.8927284978e-01 -3.3900678553e+01" polarizability="4.4196348589e+01 3.9392322593e-01 -2.3804540361e-01 3.9392322593e-01 4.4065534435e+01 6.6062163578e-01 -2.3804540361e-01 6.6062163578e-01 4.2309189040e+01" charge=-1 multiplicity=1 method=wB97M-V basis=def2-svpd config_type=hso4- sample_index=475 temperature=300.0 units=atomic
S         0.1773102978      -0.0031438190       0.0204920993  -3.907425055312e-02   6.841485830242e-02  -8.070078391591e-02
O        -1.5762963343       0.0939718171      -0.0152469455   4.032438149085e-02   5.541157398508e-02   1.343859949744e-03
O         0.4503214651       1.4794499383       0.0092889387   4.083794741002e-03  -3.720348652917e-02   7.299503849949e-04
O         0.4873172297      -0.7134322114       1.2101851503   1.581826854671e-02  -3.311738726985e-02   5.839755015435e-02
O         0.4767903565      -0.7440892795      -1.2469389323   5.309430003342e-04   1.082999787457e-02   1.779871027006e-02
H        -1.8376718772      -0.7773953119       0.0303599236  -2.167304622594e-02  -6.426596721235e-02   2.391497729417e-03
6
Properties=species:S:1:pos:R:3:forces:R:3 energy=-6.992937221963e+02 dipole="-1.0192433264e+00 -6.3176185752e-01 -9.4362762380e-02" quadrupole="-2.9454047560e+01 2.3093186781e+00 -2.3395016633e-01 2.3093186781e+00 -3.3359254158e+01 -2.0757991466e-01 -2.3395016633e-01 -2.0757991466e-01 -3.4664519602e+01" polarizability="4.3407780753e+01 1.6365948598e+00 1.1456357033e-01 1.6365948598e+00 4.5781413804e+01 6.1915125609e-01 1.1456357033e-01 6.1915125609e-01 4.3650997001e+01" charge=-1 multiplicity=1 method=wB97M-V basis=def2-svpd config_type=hso4- sample_index=476 temperature=300.0 units=atomic
S         0.1297338452       0.0090447723      -0.0237273499   3.117442181758e-02   3.287912859494e-02   2.158271650941e-02
O        -1.5272897135       0.0554441943      -0.0016440200  -2.020343026176e-02  -3.965379794822e-02  -2.063067361722e-03
O         0.5069128794       1.4834636550       0.0586954419  -1.464422586631e-02  -4.391579644391e-02  -1.777536068252e-02
O         0.4818248156      -0.6834355708       1.2514634718  -3.528801622609e-03  -4.739394378241e-03  -1.379391095866e-02
O         0.4693517623      -0.7558562614      -1.2626536947  -4.096289125887e-03   1.410311212289e-02   1.361730263820e-02
H        -1.7980639890      -0.9247158330       0.0328558331   1.128313089913e-02   4.137475653640e-02  -1.619735366660e-03
6
Properties=species:S:1:pos:R:3:forces:R:3 energy=-6.992830857467e+02 dipole="-6.9414627583e-01 -3.8693702377e-01 -1.6300411102e-01" quadrupole="-3.1067749343e+01 2.2199652849e+00 3.8457555313e-01 2.2199652849e+00 -3.2529718392e+01 2.3424986669e-01 3.8457555313e-01 2.3424986669e-01 -3.4714523728e+01" polarizability="4.6646124908e+01 1.2000525898e+00 -5.0799573017e-01 1.2000525898e+00 4.5182262283e+01 3.3292232594e-01 -5.0799573017e-01 3.3292232594e-01 4.4347184504e+01" charge=-1 multiplicity=1 method=wB97M-V basis=def2-svpd config_type=hso4- sample_index=477 temperature=300.0 units=atomic
S         0.1412564943       0.0366060150      -0.0248842359   5.778407528935e-03  -3.483955579291e-02   2.484857376246e-02
O        -1.6273620924       0.0531717349       0.0628807276   3.368567743956e-02  -7.769199255925e-02  -2.520486839724e-02
O         0.5351079537       1.4410421063       0.0049916502  -4.453586174289e-03   1.253420714997e-02  -6.202854134625e-03
O         0.4561810391      -0.7127899320       1.2517587655  -5.203564113488e-03   1.126041648566e-02  -2.744695341986e-02
O         0.5359318482      -0.7316734198      -1.2650224387  -2.021101856045e-02   1.747145953555e-02   2.262047653132e-02
H        -1.6685609572      -1.0101658214      -0.0819963154  -9.599002271031e-03   7.126601980776e-02   1.139379157481e-02
6
Properties=species:S:1:pos:R:3:forces:R:3 energy=-6.992873876670e+02 dipole="-1.0421031954e+00 -1.5712334290e-01 5.6037600935e-03" quadrupole="-2.9096268042e+01 3.0698217818e+00 -4.4316317666e-01 3.0698217818e+00 -3.2943857389e+01 -2.4497606561e-01 -4.4316317666e-01 -2.4497606561e-01 -3.5069669636e+01" polarizability="4.4943715058e+01 4.5934048635e-01 2.9461011954e-01 4.5934048635e-01 4.4514061261e+01 3.0498312017e-01 2.9461011954e-01 3.0498312017e-01 4.4665385779e+01" charge=-1 multiplicity=1 method=wB97M-V basis=def2-svpd config_type=hso4- sample_index=478 temperature=300.0 units=atomic
S         0.1322059717       0.0544690185      -0.0066876361   1.283297874515e-02  -1.307009930606e-01   5.681693734025e-03
O        -1.5596601649       0.0826889455      -0.0330183716  -1.424930841435e-02  -2.369327672199e-02   6.888446724844e-03
O         0.4711009289       1.4326458237       0.0427035192   9.472809242192e-03   5.830698442278e-02  -7.763198378244e-03
O         0.5371539156      -0.7327330063       1.2513644156  -2.080559895585e-02   2.636130693562e-02  -3.436870079376e-02
O         0.4867226761      -0.7778493877      -1.2513311951  -1.261709710340e-02   3.759157852892e-02   3.359749747306e-02
H        -1.9563976132      -0.8388987139       0.0664610652   2.539265433565e-02   3.205088948119e-02  -4.088987909421e-03
6
Properties=species:S:1:pos:R:3:forces:R:3 energy=-6.992918460205e+02 dipole="-9.3755697229e-01 -4.6187508260e-01 2.6019742780e-02" quadrupole="-2.9346318114e+01 2.3012426580e+00 -3.1508426442e-01 2.3012426580e+00 -3.3352352570e+01 -2.5777373451e-01 -3.1508426442e-01 -2.5777373451e-01 -3.4068004041e+01" polarizability="4.1604505714e+01 8.4687409171e-01 2.0668899228e-01 8.4687409171e-01 4.3815437500e+01 3.9815833531e-01 2.0668899228e-01 3.9815833531e-01 4.1270232914e+01" charge=-1 multiplicity=1 method=wB97M-V basis=def2-svpd config_type=hso4- sample_index=479 temperature=300.0 units=atomic
S         0.1347459110       0.0361773861      -0.0044766923   1.225589299654e-02   1.750907442389e-02  -2.839645526700e-03
O        -1.5200711143       0.0442854878      -0.0258289581   7.995306306963e-03   8.360024793130e-02  -2.950917523534e-03
O         0.4956074828       1.4900043332       0.0366416360  -1.062582130565e-02  -2.918879458493e-02  -8.387335163476e-03
O         0.4913400311      -0.7267788177       1.1855725348   3.295425607551e-03  -5.420318592588e-03   3.344362903376e-02
O         0.4525066278      -0.7685592825      -1.1904056542   7.042992471694e-03   7.335801864675e-03  -2.550700004526e-02
H        -1.7880848465      -0.8150349176       0.0542362654  -1.993373544980e-02  -7.381679924769e-02   6.188905611334e-03
6
Properties=species:S:1:pos:R:3:forces:R:3 energy=-6.992949930131e+02 dipole="-6.5656580448e-01 -4.8400654002e-01 -2.6333808959e-01" quadrupole="-3.0438361537e+01 2.2842099147e+00 1.9397457054e-01 2.2842099147e+00 -3.3033838419e+01 4.6073956262e-01 1.9397457054e-01 4.6073956262e-01 -3.4369896338e+01" polarizability="4.4850080110e+01 6.4288814996e-01 -5.1180720262e-02 6.4288814996e-01 4.4591233886e+01 -4.5104839543e-01 -5.1180720262e-02 -4.5104839543e-01 4.3512875435e+01" charge=-1 multiplicity=1 method=wB97M-V basis=def2-svpd config_type=hso4- sample_index=480 temperature=300.0 units=atomic
S         0.1621269793       0.0191161939      -0.0284200702  -1.515876650443e-02   9.290206917782e-03   6.575855638463e-02
O        -1.5848552454       0.0780907983       0.0461360080   2.546720959555e-02  -1.579118448893e-02  -1.311411152863e-02
O         0.4786184716       1.4665553186      -0.0096891449   1.910361528890e-03  -1.462973814504e-02  -2.694331732464e-03
O         0.4582441149      -0.7443802418       1.2609761869  -2.323426947363e-03   2.094148142976e-02  -3.692214013804e-02
O         0.5102164938      -0.7231429695      -1.2364549666  -1.107816255696e-03  -6.231033827598e-03  -1.565574672035e-02
H        -1.7369504621      -0.8764981283      -0.0713011206  -8.778094555280e-03   6.440909784844e-03   2.655470311094e-03
6
Properties=species:S:1:pos:R:3:forces:R:3 energy=-6.992889878861e+02 dipole="-9.5507174663e-01 -5.8481885658e-01 -5.3255242955e-02" quadrupole="-2.9273995577e+01 2.1675805940e+00 -2.3595394962e-01 2.1675805940e+00 -3.2728199170e+01 1.0711566499e-02 -2.3595394962e-01 1.0711566499e-02 -3.4235563684e+01" polarizability="4.2427340512e+01 8.4412258899e-01 2.7131430545e-01 8.4412258899e-01 4.1365147113e+01 -9.7914398143e-02 2.7131430545e-01 -9.7914398143e-02 4.1769965821e+01" charge=-1 multiplicity=1 method=wB97M-V basis=def2-svpd config_type=hso4- sample_index=481 temperature=300.0 units=atomic
S         0.1269632227       0.0010026735      -0.0066747071   4.374223735964e-03   1.718584836675e-02   2.690443495368e-02
O        -1.5620550750       0.0414354458      -0.0150364743   3.773682905608e-02   1.022205540067e-01  -2.940005859345e-03
O         0.5273657323       1.3990578168       0.0134960955  -7.229576458278e-03   2.818316732769e-02  -3.451730095132e-03
O         0.5010874925      -0.6639525371       1.2500879470  -6.637044785757e-03  -1.959179853184e-02   6.317621300067e-03
O         0.4757160668      -0.6699209817      -1.2366203680   4.017373937880e-03  -2.953276812204e-02  -3.161719651805e-02
H        -1.8796858023      -0.7857338363       0.0255401465  -3.237495127127e-02  -9.845265272573e-02   4.828382927880e-03
6
Properties=species:S:1:pos:R:3:forces:R:3 energy=-6.992950899345e+02 dipole="-9.1491483964e-01 -4.5944979485e-01 -2.3843518892e-01" quadrupole="-2.9637864747e+01 2.5573673828e+00 3.7027621700e-02 2.5573673828e+00 -3.3411333027e+01 3.8264298493e-01 3.7027621700e-02 3.8264298493e-01 -3.4117900530e+01" polarizability="4.3372346068e+01 3.6578104789e-01 1.2643334537e-01 3.6578104789e-01 4.4391389079e+01 -4.3853682618e-01 1.2643334537e-01 -4.3853682618e-01 4.1938225453e+01" charge=-1 multiplicity=1 method=wB97M-V basis=def2-svpd config_type=hso4- sample_index=482 temperature=300.0 units=atomic
S         0.1337263915       0.0269842553      -0.0251054495   9.075210153776e-03   1.397332505790e-02   6.712004424669e-02
O        -1.5564534708       0.0998526415       0.0263325470   1.019944185352e-02   3.878850358179e-03  -6.961747435640e-03
O         0.4608080276       1.4777200774      -0.0026617979  -2.210324291317e-03  -1.899846384230e-02  -3.502368974867e-03
O         0.4965060032      -0.7681510105       1.2057087797  -1.054539990739e-02   2.183022119453e-02  -9.062864622965e-03
O         0.5212999317      -0.7504929459      -1.1767647470  -5.127425407636e-05  -1.021108411146e-02  -4.805355059203e-02
H        -1.8031281618      -0.8212319191      -0.0412425150  -6.428243756240e-03  -1.047135935140e-02   5.356896510953e-04
6
Properties=species:S:1:pos:R:3:forces:R:3 energy=-6.992919805144e+02 dipole="-9.6071827806e-01 -4.5524408222e-01 2.3886583973e-01" quadrupole="-2.8996353854e+01 2.6264396961e+00 -6.4912809689e-01 2.6264396961e+00 -3.3557880148e+01 -4.6675296679e-01 -6.4912809689e-01 -4.6675296679e-01 -3.4748034337e+01" polarizability="4.5028965953e+01 1.6613030966e-01 4.6543033818e-01 1.6613030966e-01 4.4817484461e+01 3.0453911507e-01 4.6543033818e-01 3.0453911507e-01 4.5007338856e+01" charge=-1 multiplicity=1 method=wB97M-V basis=def2-svpd config_type=hso4- sample_index=483 temperature=300.0 units=atomic
S         0.1487514030       0.0041864509       0.0245425909   6.443750323403e-03  -1.450899748552e-02  -3.627723197994e-02
O        -1.5569359984       0.1072492815      -0.0765688748   1.189348309185e-02   1.373857880216e-02   9.618757615244e-03
O         0.4435196482       1.4565498994       0.0263776000   3.462062361994e-03  -1.421075637169e-02  -5.785238071909e-04
O         0.5581629281      -0.7197586630       1.2778778730  -1.763904316245e-02   9.911500646373e-03  -2.446702880717e-02
O         0.4596812105      -0.7460802953      -1.2835945705  -4.181891341167e-03   2.311166932651e-02   4.873798372293e-02
H        -1.9835797659      -0.7180454709       0.1188334032   1.977137549058e-05  -1.806313115574e-02   2.981044497413e-03
6
Properties=species:S:1:pos:R:3:forces:R:3 energy=-6.992924620709e+02 dipole="-9.3146947816e-01 -4.7483503032e-01 -1.0505003441e-01" quadrupole="-3.0192337139e+01 1.7330313982e+00 -1.9589217969e-01 1.7330313982e+00 -3.2691102133e+01 1.6766729000e-01 -1.9589217969e-01 1.6766729000e-01 -3.4569879607e+01" polarizability="4.1328739806e+01 1.4831207531e+00 3.2823262708e-01 1.4831207531e+00 4.3032982851e+01 -4.4061254021e-01 3.2823262708e-01 -4.4061254021e-01 4.2189986226e+01" charge=-1 multiplicity=1 method=wB97M-V basis=def2-svpd config_type=hso4- sample_index=484 temperature=300.0 units=atomic
S         0.1127868418       0.0335667015      -0.0078406195   4.697807047875e-02   1.524308124343e-02   4.146970145391e-02
O        -1.5189931602       0.0042009721      -0.0133138797  -1.213788835723e-02   3.011253226449e-03   3.000010677531e-03
O         0.5589274041       1.4404738225      -0.0019300676  -1.364315213117e-02   2.112925008859e-04   4.916378635949e-04
O         0.4666197163      -0.7071364472       1.2569678006  -8.408350653736e-03   7.613524462602e-03  -1.825181632738e-02
O         0.4422499904      -0.6861404336      -1.2268363241   7.951115333379e-03  -1.945335726056e-02  -2.710273569888e-02
H        -1.5406146353      -0.9593824992       0.0133269330  -2.075229239036e-02  -6.544044335781e-03   4.286045093396e-04
6
Properties=species:S:1:pos:R:3:forces:R:3 energy=-6.992862755044e+02 dipole="-1.2628443179e+00 -3.5874794222e-01 1.3753082662e-01" quadrupole="-2.9620373140e+01 2.1568690519e+00 4.9503660378e-02 2.1568690519e+00 -3.2781906307e+01 -3.0206420077e-01 4.9503660378e-02 -3.0206420077e-01 -3.5197551372e+01" polarizability="4.2504182121e+01 1.8837502422e+00 -2.0904926637e-01 1.8837502422e+00 4.4703711737e+01 5.6586251513e-01 -2.0904926637e-01 5.6586251513e-01 4.3792012937e+01" charge=-1 multiplicity=1 method=wB97M-V basis=def2-svpd config_type=hso4- sample_index=485 temperature=300.0 units=atomic
S         0.0767506954       0.0566685783       0.0096075706   9.788518599580e-02  -3.698626850077e-02  -3.472314054854e-02
O        -1.5243742653      -0.0181617661      -0.0037618910  -3.456674383095e-02  -3.830224690177e-03   1.444382977216e-03
O         0.6006560664       1.4487439535       0.0150174767  -3.126692424823e-02  -7.564663114625e-03  -2.787005179183e-03
O         0.4758911791      -0.6942470196       1.2338199614  -1.131152237954e-02   2.845905012217e-03  -4.927353823234e-04
O         0.4766173760      -0.7291921411      -1.2651866784  -2.068936757837e-02   2.801739476406e-02   3.756675688959e-02
H        -1.6731728480      -0.9926250835       0.0167444724  -1.319995289517e-05   1.753128333815e-02  -1.013404512479e-03
6
Properties=species:S:1:pos:R:3:forces:R:3 energy=-6.992888582819e+02 dipole="-9.9843038146e-01 -4.6631877957e-01 -1.4369908128e-01" quadrupole="-2.9630642509e+01 2.2548488738e+00 8.3368364483e-01 2.2548488738e+00 -3.3510154965e+01 6.6903888871e-01 8.3368364483e-01 6.6903888871e-01 -3.4892170864e+01" polarizability="4.4064522512e+01 6.5133046266e-01 -6.8751831758e-01 6.5133046266e-01 4.5266777298e+01 -8.7940434433e-01 -6.8751831758e-01 -8.7940434433e-01 4.5289250433e+01" charge=-1 multiplicity=1 method=wB97M-V basis=def2-svpd config_type=hso4- sample_index=486 temperature=300.0 units=atomic
S         0.1289653895       0.0154279993      -0.0027640905   3.615519668800e-02  -1.502804257258e-03   1.502347249979e-02
O        -1.5517526673       0.0628239983       0.0817458007   1.620468514044e-02   3.618476768982e-02  -3.886932465516e-03
O         0.4994317646       1.4723202428      -0.0797035499  -1.152567238288e-02  -3.150804856784e-02   1.594624260964e-02
O         0.4346065014      -0.7725328274       1.2924590078  -4.171072988761e-03   3.197043636264e-02  -4.988500820413e-02
O         0.5500267206      -0.6830001853      -1.2804360332  -2.210114909327e-02   4.123924566677e-03   3.152256252073e-02
H        -1.7962386829      -0.8030662535      -0.1532253218  -1.456428239898e-02  -3.926134387246e-02  -8.711336138942e-03
6
Properties=species:S:1:pos:R:3:forces:R:3 energy=-6.992944053711e+02 dipole="-1.0603373325e+00 -6.0376231856e-01 3.4185892760e-02" quadrupole="-2.9490764106e+01 2.1971800351e+00 5.0978263147e-01 2.1971800351e+00 -3.3231917042e+01 -1.9952192286e-02 5.0978263147e-01 -1.9952192286e-02 -3.4422121694e+01" polarizability="4.2996048045e+01 1.6978125981e+00 -6.0528693803e-01 1.6978125981e+00 4.4780635245e+01 5.4344157602e-01 -6.0528693803e-01 5.4344157602e-01 4.2427382261e+01" charge=-1 multiplicity=1 method=wB97M-V basis=def2-svpd config_type=hso4- sample_index=487 temperature=300.0 units=atomic
S         0.1152916303       0.0198538410      -0.0009975453   3.851125702880e-02   3.768857336387e-02  -3.821321652386e-02
O        -1.5390145093       0.0293268846       0.0496279062  -1.562652913085e-02  -8.356423126111e-03  -1.229049591747e-02
O         0.5412720231       1.4775154729      -0.0056392627  -2.354391347746e-02  -3.903682405003e-02  -6.647715476772e-04
O         0.4419917921      -0.7047514695       1.2069411566   1.140124229700e-02  -1.873555723499e-02   3.537692991495e-02
O         0.5149448802      -0.7251167413      -1.2451035217  -1.604653570679e-02   1.196158763803e-02   1.350121051837e-02
H        -1.7933567482      -0.9146200302      -0.0658180768   5.291784905193e-03   1.653577004299e-02   2.253595624748e-03
6
Properties=species:S:1:pos:R:3:forces:R:3 energy=-6.992468957861e+02 dipole="-5.1805781591e-01 -5.1896032301e-01 -7.9352955336e-02" quadrupole="-3.0146562512e+01 2.0228357084e+00 2.3272497863e-01 2.0228357084e+00 -3.2846084444e+01 2.7196786913e-01 2.3272497863e-01 2.7196786913e-01 -3.4000715247e+01" polarizability="4.3062025579e+01 8.9590381923e-02 -1.2960196533e-01 8.9590381923e-02 4.1787978393e+01 -5.1228234688e-01 -1.2960196533e-01 -5.1228234688e-01 4.2515944802e+01" charge=-1 multiplicity=1 method=wB97M-V basis=def2-svpd config_type=hso4- sample_index=488 temperature=300.0 units=atomic
S         0.1814771582       0.0054189649      -0.0021903069  -4.113345099681e-02   1.870795892259e-02   2.347678463488e-02
O        -1.5780653203       0.0537837333       0.0225039779   1.207454504372e-01   3.456054747155e-01   2.826365583944e-02
O         0.4778690508       1.4403844356      -0.0295055704   6.523423673212e-03   3.168868483709e-03   6.466983522597e-03
O         0.4485754502      -0.7204349108       1.2634247402   7.552614079025e-03   1.789406897712e-03  -1.086471626772e-02
O         0.4790977021      -0.6810200369      -1.2494328186   7.752258546124e-03  -2.003164805576e-02  -1.552261319445e-02
H        -1.7896061702      -0.6964846742      -0.0473430000  -1.014349854723e-01  -3.491879055687e-01  -3.174916334115e-02
6
Properties=species:S:1:pos:R:3:forces:R:3 energy=-6.992872916013e+02 dipole="-9.0329533161e-01 -8.7224858018e-01 -1.9352207149e-01" quadrupole="-2.9559827000e+01 1.8394934364e+00 4.1798467768e-02 1.8394934364e+00 -3.3058634594e+01 3.2046263262e-01 4.1798467768e-02 3.2046263262e-01 -3.3842070932e+01" polarizability="4.1636185085e+01 1.5754641198e+00 9.2661599657e-02 1.5754641198e+00 4.2730615066e+01 -3.4043214453e-01 9.2661599657e-02 -3.4043214453e-01 4.0750177202e+01" charge=-1 multiplicity=1 method=wB97M-V basis=def2-svpd config_type=hso4- sample_index=489 temperature=300.0 units=atomic
S         0.1325363810      -0.0223185751      -0.0200481818  -1.769104453707e-03   1.261111632070e-01   7.631182686309e-02
O        -1.5232250582       0.0541261593       0.0229177335  -1.012662988184e-02  -8.182150591692e-03  -7.161600786940e-03
O         0.5119980391       1.4392500895      -0.0028723637  -1.087073276111e-02  -2.465029793787e-02  -2.218195464022e-03
O         0.4555525694      -0.6741101560       1.2341965448   9.019631592706e-03  -2.989962160902e-02   2.533184004629e-02
O         0.4781200783      -0.6599094734      -1.2120637406   2.184178251245e-02  -6.424658896008e-02  -9.344433324543e-02
H        -1.7462531423      -0.8848024971      -0.0357669285  -8.200163261203e-03   9.331816834477e-04   1.139264602618e-03
6
Properties=species:S:1:pos:R:3:forces:R:3 energy=-6.992931415937e+02 dipole="-9.4538304190e-01 -4.1899062394e-01 4.1957940592e-02" quadrupole="-3.0050299926e+01 2.5116776038e+00 3.6554467419e-01 2.5116776038e+00 -3.3110885052e+01 -5.8856529466e-04 3.6554467419e-01 -5.8856529466e-04 -3.4138890191e+01" polarizability="4.5011518156e+01 6.0657788187e-01 -4.6366875979e-01 6.0657788187e-01 4.4157428004e+01 2.5886070698e-01 -4.6366875979e-01 2.5886070698e-01 4.2016377164e+01" charge=-1 multiplicity=1 method=wB97M-V basis=def2-svpd config_type=hso4- sample_index=490 temperature=300.0 units=atomic
S         0.1150607842       0.0370896544       0.0032837062   2.489630528983e-02  -3.964749283931e-03  -2.679137185620e-02
O        -1.6141699432       0.0734650461       0.0301149689   2.608819460525e-02   1.024585694824e-02  -3.922657128329e-03
O         0.5181186092       1.4616868708      -0.0115661519  -1.611292670369e-02  -8.926274999293e-03   1.966072893468e-03
O         0.5053541806      -0.7459281233       1.1706075342  -7.296573937206e-03  -1.840342784929e-03   3.538206411963e-02
O         0.5513529726      -0.7487987662      -1.1932040162  -2.268638043357e-02   1.546721794958e-02  -6.109439536353e-03
H        -1.8208973381      -0.8569414941      -0.0440547968  -4.879491898905e-03  -1.096128470246e-02  -5.412061622992e-04
6
Properties=species:S:1:pos:R:3:forces:R:3 energy=-6.992921174115e+02 dipole="-6.8764208638e-01 -3.2379040884e-01 -1.5908859396e-01" quadrupole="-2.9588945632e+01 2.7144367539e+00 1.3203056506e-01 2.7144367539e+00 -3.2971517256e+01 3.0174500432e-01 1.3203056506e-01 3.0174500432e-01 -3.4466510910e+01" polarizability="4.3002895222e+01 -3.0624524931e-01 -1.3393696663e-05 -3.0624524931e-01 4.2907561354e+01 -3.8691508986e-01 -1.3393696663e-05 -3.8691508986e-01 4.3312102531e+01" charge=-1 multiplicity=1 method=wB97M-V basis=def2-svpd config_type=hso4- sample_index=491 temperature=300.0 units=atomic
S         0.1753728727       0.0230521185      -0.0148539665  -3.337167908314e-02  -6.827109829589e-02   3.761566029587e-02
O        -1.5310562443       0.1214235466       0.0263174488   1.571628436391e-02   2.276144726353e-02  -3.418319585674e-03
O         0.4005055173       1.4266504977      -0.0122912567   3.132197933630e-02   5.878033203755e-02   2.761854769157e-04
O         0.4706493938      -0.7535596415       1.2621167523   2.822473334776e-04   2.168226997096e-02  -3.368550085711e-02
O         0.5006710618      -0.7313533038      -1.2438892570   1.259109898747e-03   2.466688174394e-03   1.075655064451e-03
H        -1.8185109861      -0.7609083839      -0.0445878929  -1.517694072460e-02  -3.744476475085e-02  -1.849303628318e-03
6
Properties=species:S:1:pos:R:3:forces:R:3 energy=-6.992771059057e+02 dipole="-7.0750939635e-01 -2.0406430960e-01 4.3844746750e-01" quadrupole="-2.9528017063e+01 2.5555483674e+00 3.7693278442e-01 2.5555483674e+00 -3.2314228693e+01 -6.3623373680e-01 3.7693278442e-01 -6.3623373680e-01 -3.5062573749e+01" polarizability="4.4212231834e+01 1.2094383973e+00 -7.8955535743e-01 1.2094383973e+00 4.3299234334e+01 1.2177291359e+00 -7.8955535743e-01 1.2177291359e+00 4.4781488226e+01" charge=-1 multiplicity=1 method=wB97M-V basis=def2-svpd config_type=hso4- sample_index=492 temperature=300.0 units=atomic
S         0.1731132480       0.0555994815       0.0423395469  -4.481257957563e-02  -1.069591249801e-01  -1.180948394905e-01
O        -1.5502326038      -0.0081367209      -0.0045736727   5.907028043044e-03   4.573353069576e-02   2.435613082320e-03
O         0.5273267827       1.4240058965       0.0013109159   9.952484412922e-03   6.522991804084e-02   2.012430087090e-03
O         0.4290748032      -0.6819415161       1.2456597066   2.189356712147e-02  -2.286547630225e-02   4.105020369320e-02
O         0.4463514435      -0.7313456080      -1.3281097414  -1.249230943997e-03   3.863544196610e-02   7.273588796405e-02
H        -1.9191469476      -0.8800128596       0.0177884442   8.313088955030e-03  -1.976880611964e-02  -1.507585209175e-04
6
Properties=species:S:1:pos:R:3:forces:R:3 energy=-6.992918789138e+02 dipole="-7.7795815953e-01 -6.0609439502e-01 1.2430308059e-01" quadrupole="-2.9196770985e+01 2.2156267969e+00 7.4915771675e-02 2.2156267969e+00 -3.3204484212e+01 -8.5825793219e-02 7.4915771675e-02 -8.5825793219e-02 -3.4489261247e+01" polarizability="4.0721497271e+01 1.0390736164e+00 -7.8741969881e-02 1.0390736164e+00 4.3994033876e+01 -5.8114812448e-03 -7.8741969881e-02 -5.8114812448e-03 4.2809887244e+01" charge=-1 multiplicity=1 method=wB97M-V basis=def2-svpd config_type=hso4- sample_index=493 temperature=300.0 units=atomic
S         0.1742294455       0.0010263896       0.0173706554  -1.326702202669e-02   3.258254474189e-02  -3.369105838087e-02
O        -1.4439340734       0.0783896407      -0.0100977676  -4.607507129019e-02  -2.661055804844e-02   4.876184971205e-03
O         0.4244349466       1.4622662242      -0.0179408335   2.119122838929e-02  -9.827898746813e-03   6.649595576265e-03
O         0.4312851540      -0.7225093141       1.2622913657   1.981916397975e-02  -1.040656778711e-02   1.065433940825e-02
O         0.4250609102      -0.7056427993      -1.2694412072   1.871311333554e-02  -5.031346596660e-03   1.233636035094e-02
H        -1.7123854411      -0.8705817678       0.0058854164  -3.094325825983e-04   1.934790891411e-02  -8.121689757559e-04
6
Properties=species:S:1:pos:R:3:forces:R:3 energy=-6.992857033602e+02 dipole="-6.7185674160e-01 -1.4613701810e-01 7.3112976183e-02" quadrupole="-2.9639698085e+01 2.5010087493e+00 -1.3170384789e-01 2.5010087493e+00 -3.2236745695e+01 9.9630665624e-02 -1.3170384789e-01 9.9630665624e-02 -3.4821253275e+01" polarizability="4.2280593252e+01 9.0564318803e-01 2.2738470151e-01 9.0564318803e-01 4.2341855134e+01 -5.8608090352e-01 2.2738470151e-01 -5.8608090352e-01 4.3330336955e+01" charge=-1 multiplicity=1 method=wB97M-V basis=def2-svpd config_type=hso4- sample_index=494 temperature=300.0 units=atomic
S         0.1735690317       0.0660588056       0.0178831251  -4.315861074829e-02  -1.436262732700e-01  -1.094214792635e-03
O        -1.5165398281      -0.0007478468      -0.0288034999   1.221187913291e-03   6.671827220319e-02   6.699269581251e-03
O         0.5051563808       1.4239306907      -0.0333263694   2.024838324066e-02   8.979119889658e-02   8.869844980670e-03
O         0.4448565654      -0.7479501600       1.2689751375   6.030973109690e-03   2.781048577981e-02  -2.339003882679e-02
O         0.4101900257      -0.6932905470      -1.2439553534   1.987361526664e-02   2.926006712054e-03   6.243569537432e-03
H        -1.7985549134      -0.8803947176       0.0196598970  -4.225376675429e-03  -4.370364448164e-02   2.708029319429e-03
6
Properties=species:S:1:pos:R:3:forces:R:3 energy=-6.992909748938e+02 dipole="-9.5509457147e-01 -3.6906735880e-01 3.2989103420e-02" quadrupole="-2.9034551247e+01 2.7971199970e+00 -3.0193107719e-01 2.7971199970e+00 -3.2757256495e+01 -1.0590143052e-01 -3.0193107719e-01 -1.0590143052e-01 -3.4638676422e+01" polarizability="4.2618220740e+01 1.3373191814e+00 2.3755740550e-01 1.3373191814e+00 4.3752915593e+01 -1.2549511852e-01 2.3755740550e-01 -1.2549511852e-01 4.2479328002e+01" charge=-1 multiplicity=1 method=wB97M-V basis=def2-svpd config_type=hso4- sample_index=495 temperature=300.0 units=atomic
S         0.1446820957       0.0354010579       0.0040455095  -1.710276095253e-03  -6.409564046768e-02   3.312706070400e-03
O        -1.5027453199       0.0720070769      -0.0321085619  -4.670868037161e-02  -5.691405266958e-02   1.156222846173e-02
O         0.4635630940       1.4304822165       0.0102470316   1.342063957938e-02   4.687093761006e-02  -5.308741004552e-04
O         0.4944379305      -0.7265445395       1.2376915777  -2.775667263486e-03   7.936359266317e-03  -4.487015487129e-03
O         0.4495513486      -0.7287949356      -1.2266595679   8.650503697081e-03   2.625345491406e-03  -4.345026647982e-03
H        -1.8626001172      -0.9189148652       0.0476579177   2.912366731346e-02   6.352889192360e-02  -5.520721503909e-03
6
Properties=species:S:1:pos:R:3:forces:R:3 energy=-6.992871463723e+02 dipole="-9.2581134412e-01 -1.2457689379e-01 -1.4564481172e-01" quadrupole="-2.9883587726e+01 2.7701656953e+00 -6.8841478342e-01 2.7701656953e+00 -3.2922759129e+01 1.6603435929e-01 -6.8841478342e-01 1.6603435929e-01 -3.4954958545e+01" polarizability="4.4229195315e+01 3.1403582756e-01 9.5494880712e-01 3.1403582756e-01 4.4790539435e+01 -8.5383045606e-01 9.5494880712e-01 -8.5383045606e-01 4.4411343749e+01" charge=-1 multiplicity=1 method=wB97M-V basis=def2-svpd config_type=hso4- sample_index=496 temperature=300.0 units=atomic
S         0.1329009850       0.0685484917      -0.0112483805   1.357590283765e-02  -1.093668559683e-01   4.662439262510e-02
O        -1.5594872186       0.0632134749      -0.0543539171   4.544060153307e-03  -2.626768253944e-03   1.037547750431e-02
O         0.4877502942       1.4573524172       0.0114652805   5.410940930745e-03   3.680607848926e-02  -1.356796414473e-03
O         0.5403866169      -0.7848041545       1.2679247709  -2.744375882039e-02   5.007244227900e-02  -5.178508968588e-02
O         0.4537979767      -0.7570646695      -1.2067097138   1.808403285506e-03   1.676550978608e-02  -2.481290564671e-03
H        -1.7770266403      -0.8787494633       0.0721511759   2.137355255075e-03   8.285578066934e-03  -1.437343592269e-03
6
Properties=species:S:1:pos:R:3:forces:R:3 energy=-6.992939850036e+02 dipole="-1.0099638821e+00 -4.7098878345e-01 7.3586698324e-02" quadrupole="-2.9362020800e+01 2.2991198961e+00 5.4393730624e-01 2.2991198961e+00 -3.3430063699e+01 4.2695062923e-02 5.4393730624e-01 4.2695062923e-02 -3.4372116365e+01" polarizability="4.1153259229e+01 9.8509668324e-01 -5.7666639713e-01 9.8509668324e-01 4.4583058074e+01 2.9010328614e-01 -5.7666639713e-01 2.9010328614e-01 4.2005045752e+01" charge=-1 multiplicity=1 method=wB97M-V basis=def2-svpd config_type=hso4- sample_index=497 temperature=300.0 units=atomic
S         0.1276078937       0.0336082815       0.0084937316   3.754761071186e-02   1.599473628174e-02  -4.194901716445e-02
O        -1.4854576393       0.0571167918       0.0463663163  -3.184964135244e-02   4.263446320559e-03  -9.395570285838e-03
O         0.4811148881       1.4912928884      -0.0257737082  -5.805682543694e-03  -2.998914456712e-02   5.375063279866e-03
O         0.4300416626      -0.7529105143       1.1923773902   1.606848615327e-02  -6.290179238217e-03   3.512795404228e-02
O         0.5023475234      -0.7476181475      -1.2258811571  -9.775059984301e-03   1.820744875655e-02   1.032348161739e-02
H        -1.6981223295      -0.8753918057      -0.0719512239  -6.153470268898e-03  -2.178592295738e-03   5.236503032241e-04
6
Properties=species:S:1:pos:R:3:forces:R:3 energy=-6.992939165684e+02 dipole="-9.0490499355e-01 -6.0951965221e-01 3.5371703250e-01" quadrupole="-2.9354670209e+01 2.3727330059e+00 -1.0371988256e-01 2.3727330059e+00 -3.3163987710e+01 -5.1024746128e-01 -1.0371988256e-01 -5.1024746128e-01 -3.4427394722e+01" polarizability="4.3966170631e+01 7.6346366910e-01 -1.4685650421e-01 7.6346366910e-01 4.3586852197e+01 5.0494820652e-01 -1.4685650421e-01 5.0494820652e-01 4.3317350752e+01" charge=-1 multiplicity=1 method=wB97M-V basis=def2-svpd config_type=hso4- sample_index=498 temperature=300.0 units=atomic
S         0.1436083388      -0.0064418795       0.0396597733  -2.390673317749e-03   3.321728329161e-02  -9.657490890434e-02
O        -1.5575825477       0.0831739246      -0.0442413381   1.044510985224e-02   7.554382000325e-03   1.045221856052e-02
O         0.4789106090       1.4360833034      -0.0037945289  -2.034154471804e-03  -7.852856102069e-03   6.681123716371e-03
O         0.5158686176      -0.6916689645       1.2450920845   2.967929816210e-03  -2.793575692705e-02   3.702287078095e-02
O         0.4723011668      -0.7040654872      -1.2801163636  -6.613196152513e-03   7.721477673758e-03   4.213639552923e-02
H        -1.8944907032      -0.8024137393       0.0633963379  -2.442051000720e-03  -1.268591845912e-02   2.980845302945e-04
6
Properties=species:S:1:pos:R:3:forces:R:3 energy=-6.992774513334e+02 dipole="-8.7861853931e-01 -7.8189090797e-01 5.2368517029e-02" quadrupole="-3.0328230769e+01 1.7153409747e+00 -5.7369322522e-01 1.7153409747e+00 -3.3604172144e+01 -4.6801446665e-01 -5.7369322522e-01 -4.6801446665e-01 -3.4121011869e+01" polarizability="4.2450448720e+01 1.3000602630e+00 5.9889669363e-01 1.3000602630e+00 4.5808692108e+01 2.9813719033e-01 5.9889669363e-01 2.9813719033e-01 4.2281581225e+01" charge=-1 multiplicity=1 method=wB97M-V basis=def2-svpd config_type=hso4- sample_index=499 temperature=300.0 units=atomic
S         0.1245445349      -0.0088989246      -0.0011810098   3.899648725779e-02   1.076524398246e-01  -1.895362523012e-03
O        -1.5184929364       0.0863798938      -0.0647561040  -2.099386123554e-03  -8.195303465427e-02   2.516479704843e-02
O         0.4871058991       1.4961414195       0.0568230789  -9.147345749115e-03  -5.769155315745e-02  -1.161193864102e-02
O         0.5243947855      -0.6943348740       1.2293194231  -7.492319317436e-03  -1.676510458826e-02   1.460899689482e-02
O         0.4306832271      -0.7503576490      -1.2255366610   9.142272774814e-03  -7.342505599249e-03  -1.424025658125e-02
H        -1.5239606103      -0.9562155543       0.1164919994  -2.941259980550e-02   5.613296402901e-02  -1.203793047319e-02
