2
Properties=species:S:1:pos:R:3:forces:R:3 energy=-7.572082946609e+01 dipole="-1.8466243364e-15 9.7506265732e-17 -5.7477955686e-01" quadrupole="-8.0269669251e+00 9.5452222860e-16 6.0992798227e-16 9.5452222860e-16 -8.0269669251e+00 4.9030647132e-16 6.0992798227e-16 4.9030647132e-16 -6.1784691021e+00" polarizability="2.0641979920e+01 -1.3944401189e-13 7.3295472831e-15 -1.3944401189e-13 2.0641979920e+01 -2.4399734395e-15 7.3295472831e-15 -2.4399734395e-15 1.8009638123e+01" charge=-1 multiplicity=1 method=wB97M-V basis=def2-svpd config_type=oh- sample_index=0 temperature=300.0 units=atomic
O         0.0000000000       0.0000000000       0.1047675261   1.283816289437e-16  -1.013259043943e-16   8.825630071478e-03
H        -0.0000000000      -0.0000000000      -0.8514750134   9.600523120435e-18  -3.786582987261e-17  -8.823722021519e-03
2
Properties=species:S:1:pos:R:3:forces:R:3 energy=-7.572082540177e+01 dipole="-2.7113696304e-15 8.4626351484e-17 -5.6735360078e-01" quadrupole="-8.0417100653e+00 3.2359673771e-15 4.5278875555e-15 3.2359673771e-15 -8.0417100653e+00 -2.1548544426e-16 4.5278875555e-15 -2.1548544426e-16 -6.1882401456e+00" polarizability="2.0648464169e+01 1.3855583347e-13 -1.2317364333e-14 1.3855583347e-13 2.0648464169e+01 3.0397626689e-14 -1.2317364333e-14 3.0397626689e-14 1.8410142970e+01" charge=-1 multiplicity=1 method=wB97M-V basis=def2-svpd config_type=oh- sample_index=1 temperature=300.0 units=atomic
O        -0.0000000000      -0.0000000000       0.1058021229   4.561857283709e-16   1.069065289875e-15  -8.704323489760e-03
H         0.0000000000       0.0000000000      -0.8680282418  -1.111537584465e-16  -7.141419387321e-17   8.703901071782e-03
2
Properties=species:S:1:pos:R:3:forces:R:3 energy=-7.571890108362e+01 dipole="3.5487023998e-15 1.8686756918e-16 -5.8815393263e-01" quadrupole="-7.9959165180e+00 -2.2333237355e-15 -2.6631076294e-15 -2.2333237355e-15 -7.9959165180e+00 -1.4583729563e-15 -2.6631076294e-15 -1.4583729563e-15 -6.1605939875e+00" polarizability="2.0622205985e+01 -2.8288482667e-13 3.0681020120e-14 -2.8288482667e-13 2.0622205985e+01 9.5637815514e-15 3.0681020120e-14 9.5637815514e-15 1.7237158470e+01" charge=-1 multiplicity=1 method=wB97M-V basis=def2-svpd config_type=oh- sample_index=2 temperature=300.0 units=atomic
O         0.0000000000       0.0000000000       0.1027022558   4.678565877420e-16  -1.048381400604e-16   5.103031837865e-02
H        -0.0000000000      -0.0000000000      -0.8184313283  -1.145321587577e-17   1.880971411362e-17  -5.103369587298e-02
2
Properties=species:S:1:pos:R:3:forces:R:3 energy=-7.572085114686e+01 dipole="2.5579833522e-15 -2.5611550721e-16 -5.7419780822e-01" quadrupole="-8.0281782161e+00 2.0594412823e-15 -3.6026580889e-15 2.0594412823e-15 -8.0281782161e+00 -1.2482885325e-15 -3.6026580889e-15 -1.2482885325e-15 -6.1792355418e+00" polarizability="2.0642584732e+01 -5.9952043330e-14 -3.2120250288e-15 -5.9952043330e-14 2.0642584732e+01 -2.2984004092e-15 -3.2120250288e-15 -2.2984004092e-15 1.8041655157e+01" charge=-1 multiplicity=1 method=wB97M-V basis=def2-svpd config_type=oh- sample_index=3 temperature=300.0 units=atomic
O         0.0000000000       0.0000000000       0.1048511096  -8.097523906915e-16   5.063185107841e-16   7.326681557182e-03
H        -0.0000000000      -0.0000000000      -0.8528123235  -1.227577923021e-16  -1.513572071686e-17  -7.324871536066e-03
2
Properties=species:S:1:pos:R:3:forces:R:3 energy=-7.571974507552e+01 dipole="-2.9222827038e-15 2.0066335827e-15 -5.5473948463e-01" quadrupole="-8.0636920642e+00 -1.8854823851e-15 2.7641252051e-15 -1.8854823851e-15 -8.0636920642e+00 -3.4012392242e-16 2.7641252051e-15 -3.4012392242e-16 -6.2049431525e+00" polarizability="2.0654531414e+01 -4.2854608751e-14 -1.9849478808e-14 -4.2854608751e-14 2.0654531414e+01 -5.5339741139e-16 -1.9849478808e-14 -5.5339741139e-16 1.9055541153e+01" charge=-1 multiplicity=1 method=wB97M-V basis=def2-svpd config_type=oh- sample_index=4 temperature=300.0 units=atomic
O        -0.0000000000      -0.0000000000       0.1074214780   1.716502744831e-16  -6.743983589036e-16  -3.205084597176e-02
H         0.0000000000       0.0000000000      -0.8939374214  -2.986060614858e-17  -7.496633612124e-17   3.204943575119e-02
2
Properties=species:S:1:pos:R:3:forces:R:3 energy=-7.572029175382e+01 dipole="-1.6919927181e-15 -1.5907044427e-17 -5.8114578901e-01" quadrupole="-8.0130041400e+00 -4.9237820011e-16 -1.7093000428e-15 -4.9237820011e-16 -8.0130041400e+00 -3.5860054551e-16 -1.7093000428e-15 -3.5860054551e-16 -6.1700415274e+00" polarizability="2.0634092883e+01 -1.1279865930e-13 8.8228552082e-15 -1.1279865930e-13 2.0634092883e+01 -7.2428423868e-16 8.8228552082e-15 -7.2428423868e-16 1.7651218703e+01" charge=-1 multiplicity=1 method=wB97M-V basis=def2-svpd config_type=oh- sample_index=5 temperature=300.0 units=atomic
O         0.0000000000       0.0000000000       0.1038210878   2.337675001019e-16   2.058539049789e-16   2.688706428193e-02
H        -0.0000000000      -0.0000000000      -0.8363322935  -7.053965238716e-17   1.222054954477e-16  -2.688624145083e-02
2
Properties=species:S:1:pos:R:3:forces:R:3 energy=-7.571161694084e+01 dipole="8.1109385282e-16 8.5893364805e-16 -6.0264424851e-01" quadrupole="-7.9527608376e+00 -9.0684106407e-15 -4.1475672196e-15 -9.0684106407e-15 -7.9527608376e+00 -2.0049963539e-15 -4.1475672196e-15 -2.0049963539e-15 -6.1395910537e+00" polarizability="2.0581859207e+01 7.6397221882e-14 3.3217955813e-14 7.6397221882e-14 2.0581859207e+01 1.6081554694e-14 3.3217955813e-14 1.6081554694e-14 1.6292603170e+01" charge=-1 multiplicity=1 method=wB97M-V basis=def2-svpd config_type=oh- sample_index=6 temperature=300.0 units=atomic
O         0.0000000000       0.0000000000       0.1000395653  -3.752877981620e-16  -4.455825073575e-16   1.229932289207e-01
H        -0.0000000000      -0.0000000000      -0.7758291037  -1.481765517767e-16   2.851490052293e-17  -1.229894877159e-01
2
Properties=species:S:1:pos:R:3:forces:R:3 energy=-7.571629552348e+01 dipole="-1.9358035300e-15 -1.0103762262e-15 -5.9522726736e-01" quadrupole="-7.9764046466e+00 -2.5563016002e-15 7.9998958597e-16 -2.5563016002e-15 -7.9764046466e+00 -6.3088507866e-16 7.9998958597e-16 -6.3088507866e-16 -6.1506943658e+00" polarizability="2.0605746278e+01 -1.0191847366e-13 1.9197252751e-15 -1.0191847366e-13 2.0605746278e+01 1.4193198224e-14 1.9197252751e-15 1.4193198224e-14 1.6793606300e+01" charge=-1 multiplicity=1 method=wB97M-V basis=def2-svpd config_type=oh- sample_index=7 temperature=300.0 units=atomic
O         0.0000000000       0.0000000000       0.1014717495  -5.620645174343e-16   3.820397760501e-16   8.152848050702e-02
H        -0.0000000000      -0.0000000000      -0.7987436077  -4.549058078517e-17  -4.388172391201e-17  -8.153069082801e-02
2
Properties=species:S:1:pos:R:3:forces:R:3 energy=-7.571895824661e+01 dipole="2.7403830281e-15 -9.3493809842e-16 -5.4912678274e-01" quadrupole="-8.0724531796e+00 -3.5880961325e-15 -3.8502583616e-15 -3.5880961325e-15 -8.0724531796e+00 -4.2701110171e-16 -3.8502583616e-15 -4.2701110171e-16 -6.2124832210e+00" polarizability="2.0655729843e+01 1.7630341631e-13 9.2417978889e-15 1.7630341631e-13 2.0655729843e+01 -1.2715709787e-15 9.2417978889e-15 -1.2715709787e-15 1.9331053074e+01" charge=-1 multiplicity=1 method=wB97M-V basis=def2-svpd config_type=oh- sample_index=8 temperature=300.0 units=atomic
O        -0.0000000000      -0.0000000000       0.1080958641  -7.794780217322e-16  -8.317244974049e-16  -4.046629983139e-02
H         0.0000000000       0.0000000000      -0.9047273905  -3.145232925947e-17  -1.891532769565e-18   4.046622477698e-02
2
Properties=species:S:1:pos:R:3:forces:R:3 energy=-7.571514024734e+01 dipole="5.1549844255e-16 -1.7534524573e-16 -5.2882391572e-01" quadrupole="-8.1000615324e+00 2.5327663648e-15 -2.0469913921e-15 2.5327663648e-15 -8.1000615324e+00 -1.5380717313e-15 -2.0469913921e-15 -1.5380717313e-15 -6.2406077802e+00" polarizability="2.0654897074e+01 -1.9895196601e-13 2.1458880544e-14 -1.9895196601e-13 2.0654897074e+01 1.2040694735e-14 2.1458880544e-14 1.2040694735e-14 2.0280718860e+01" charge=-1 multiplicity=1 method=wB97M-V basis=def2-svpd config_type=oh- sample_index=9 temperature=300.0 units=atomic
O        -0.0000000000      -0.0000000000       0.1103497032  -9.189455347593e-16  -8.566034811706e-16  -6.385768499305e-02
H         0.0000000000       0.0000000000      -0.9407881174   2.266180182390e-17   1.469235750995e-17   6.385828297967e-02
2
Properties=species:S:1:pos:R:3:forces:R:3 energy=-7.571935767034e+01 dipole="3.3756540586e-15 -6.9188244080e-16 -5.5184031673e-01" quadrupole="-8.0682876618e+00 2.0535704906e-15 -1.5430040249e-15 2.0535704906e-15 -8.0682876618e+00 5.7282915998e-16 -1.5430040249e-15 5.7282915998e-16 -6.2088273103e+00" polarizability="2.0655247355e+01 1.0702549957e-13 2.7196710564e-14 1.0702549957e-13 2.0655247355e+01 -1.3186680074e-14 2.7196710564e-14 -1.3186680074e-14 1.9198657016e+01" charge=-1 multiplicity=1 method=wB97M-V basis=def2-svpd config_type=oh- sample_index=10 temperature=300.0 units=atomic
O        -0.0000000000      -0.0000000000       0.1077730048   1.717506821035e-16  -6.087968776010e-16  -3.652662568699e-02
H         0.0000000000       0.0000000000      -0.8995617415  -2.400391053651e-17  -6.304716935987e-17   3.652587030746e-02
2
Properties=species:S:1:pos:R:3:forces:R:3 energy=-7.572089272475e+01 dipole="-2.5410758362e-15 3.4892158501e-16 -5.7240258244e-01" quadrupole="-8.0318531613e+00 -2.4531441867e-17 3.9497496815e-17 -2.4531441867e-17 -8.0318531613e+00 4.8047743145e-16 3.9497496815e-17 4.8047743145e-16 -6.1815987474e+00" polarizability="2.0644341137e+01 3.1707969583e-13 -8.4447953610e-15 3.1707969583e-13 2.0644341137e+01 2.6068925551e-15 -8.4447953610e-15 2.6068925551e-15 1.8139739572e+01" charge=-1 multiplicity=1 method=wB97M-V basis=def2-svpd config_type=oh- sample_index=11 temperature=300.0 units=atomic
O         0.0000000000       0.0000000000       0.1051062091   1.649538368913e-16   3.823088420114e-16   2.843965993440e-03
H        -0.0000000000      -0.0000000000      -0.8568938364   1.383102851986e-17   4.359613873045e-18  -2.842603207782e-03
2
Properties=species:S:1:pos:R:3:forces:R:3 energy=-7.570426555245e+01 dipole="-1.1467890864e-15 9.6224289882e-16 -4.8408325313e-01" quadrupole="-8.1452461615e+00 1.0684753274e-15 -1.6794892606e-15 1.0684753274e-15 -8.1452461615e+00 -3.5703435311e-16 -1.6794892606e-15 -3.5703435311e-16 -6.3084752853e+00" polarizability="2.0638577424e+01 3.3306690739e-14 2.9524301840e-14 3.3306690739e-14 2.0638577424e+01 5.6217536913e-15 2.9524301840e-14 5.6217536913e-15 2.2191558257e+01" charge=-1 multiplicity=1 method=wB97M-V basis=def2-svpd config_type=oh- sample_index=12 temperature=300.0 units=atomic
O        -0.0000000000      -0.0000000000       0.1146015233   1.697838586146e-15  -2.449046223246e-17  -9.250204939590e-02
H         0.0000000000       0.0000000000      -1.0088159222  -1.599868547029e-17  -4.251732289630e-18   9.250325433938e-02
2
Properties=species:S:1:pos:R:3:forces:R:3 energy=-7.572069766712e+01 dipole="9.8207910279e-17 8.8422356606e-16 -5.6474642254e-01" quadrupole="-8.0465444438e+00 -7.2973104513e-16 -4.8601982459e-16 -7.2973104513e-16 -8.0465444438e+00 -1.4130777255e-15 -4.8601982459e-16 -1.4130777255e-15 -6.1916737216e+00" polarizability="2.0650170664e+01 6.1728400169e-14 -5.3396220582e-15 6.1728400169e-14 2.0650170664e+01 3.1698428945e-16 -5.3396220582e-15 3.1698428945e-16 1.8546860236e+01" charge=-1 multiplicity=1 method=wB97M-V basis=def2-svpd config_type=oh- sample_index=13 temperature=300.0 units=atomic
O        -0.0000000000      -0.0000000000       0.1061499650  -3.971392244346e-16  -9.541490013898e-16  -1.411982087347e-02
H         0.0000000000       0.0000000000      -0.8735936070   4.870616976767e-17  -1.058269292944e-16   1.411859113047e-02
2
Properties=species:S:1:pos:R:3:forces:R:3 energy=-7.571529997134e+01 dipole="-6.1628431962e-16 -2.9374480269e-16 -5.2956909843e-01" quadrupole="-8.0991454626e+00 -1.2539291423e-15 1.8264501009e-15 -1.2539291423e-15 -8.0991454626e+00 -2.9487408639e-16 1.8264501009e-15 -2.9487408639e-16 -6.2395486263e+00" polarizability="2.0655036905e+01 1.3278267375e-13 -5.2133556642e-15 1.3278267375e-13 2.0655036905e+01 -2.5813282159e-14 -5.2133556642e-15 -2.5813282159e-14 2.0246986301e+01" charge=-1 multiplicity=1 method=wB97M-V basis=def2-svpd config_type=oh- sample_index=14 temperature=300.0 units=atomic
O        -0.0000000000      -0.0000000000       0.1102714147  -3.722548727649e-17  -7.555444614890e-16  -6.315539375542e-02
H         0.0000000000       0.0000000000      -0.9395355254   4.330802619961e-18  -2.424553070645e-17   6.315608099734e-02
2
Properties=species:S:1:pos:R:3:forces:R:3 energy=-7.571880690634e+01 dipole="3.8095802687e-16 -6.4982797931e-16 -5.4815284155e-01" quadrupole="-8.0739175984e+00 2.6747637265e-16 -1.4894478192e-15 2.6747637265e-16 -8.0739175984e+00 6.3247986996e-16 -1.4894478192e-15 6.3247986996e-16 -6.2138005684e+00" polarizability="2.0655861747e+01 1.3766765505e-13 2.5072186551e-14 1.3766765505e-13 2.0655861747e+01 -5.7470298868e-15 2.5072186551e-14 -5.7470298868e-15 1.9378220946e+01" charge=-1 multiplicity=1 method=wB97M-V basis=def2-svpd config_type=oh- sample_index=15 temperature=300.0 units=atomic
O        -0.0000000000      -0.0000000000       0.1082103530   8.467674977981e-16   2.028242539220e-15  -4.182511782997e-02
H         0.0000000000       0.0000000000      -0.9065591765   4.059386025311e-17  -2.544692587441e-17   4.182527830969e-02
2
Properties=species:S:1:pos:R:3:forces:R:3 energy=-7.571970933901e+01 dipole="-1.4902355713e-15 6.0476585839e-16 -5.5445777012e-01" quadrupole="-8.0641454356e+00 -3.7237519211e-15 3.8445989353e-16 -3.7237519211e-15 -8.0641454356e+00 -1.3247995673e-15 3.8445989353e-16 -1.3247995673e-15 -6.2053196505e+00" polarizability="2.0654610589e+01 2.8865798640e-15 -1.2368572134e-14 2.8865798640e-15 2.0654610589e+01 -6.9589575037e-15 -1.2368572134e-14 -6.9589575037e-15 1.9069525837e+01" charge=-1 multiplicity=1 method=wB97M-V basis=def2-svpd config_type=oh- sample_index=16 temperature=300.0 units=atomic
O        -0.0000000000      -0.0000000000       0.1074559449  -7.487571730753e-16   7.191973435110e-16  -3.249848267682e-02
H         0.0000000000       0.0000000000      -0.8944888815   3.080520913018e-17  -2.317654047054e-17   3.249712851147e-02
2
Properties=species:S:1:pos:R:3:forces:R:3 energy=-7.572048331419e+01 dipole="-1.6234640726e-15 4.4368125148e-16 -5.6174697367e-01" quadrupole="-8.0519087102e+00 -1.5541905157e-16 1.4122043804e-15 -1.5541905157e-16 -8.0519087102e+00 -2.2175115024e-17 1.4122043804e-15 -2.2175115024e-17 -6.1956330592e+00" polarizability="2.0651820660e+01 -4.1133763062e-14 -9.3459914365e-15 -4.1133763062e-14 2.0651820660e+01 -3.7009251465e-15 -9.3459914365e-15 -3.7009251465e-15 1.8701894641e+01" charge=-1 multiplicity=1 method=wB97M-V basis=def2-svpd config_type=oh- sample_index=17 temperature=300.0 units=atomic
O        -0.0000000000      -0.0000000000       0.1065412305  -5.046666720102e-16   8.607688036639e-16  -1.994125237667e-02
H         0.0000000000       0.0000000000      -0.8798537339   1.940525318880e-17   8.481767641342e-18   1.993945137326e-02
2
Properties=species:S:1:pos:R:3:forces:R:3 energy=-7.572010517271e+01 dipole="1.3122212451e-16 5.8924398827e-16 -5.8244440767e-01" quadrupole="-8.0099839716e+00 -1.9559541448e-15 -2.0960621070e-16 -1.9559541448e-15 -8.0099839716e+00 -6.1323596319e-16 -2.0960621070e-16 -6.1323596319e-16 -6.1683084998e+00" polarizability="2.0632168351e+01 2.3758772727e-13 -7.7500674335e-15 2.3758772727e-13 2.0632168351e+01 -9.1355995278e-15 -7.7500674335e-15 -9.1355995278e-15 1.7576151408e+01" charge=-1 multiplicity=1 method=wB97M-V basis=def2-svpd config_type=oh- sample_index=18 temperature=300.0 units=atomic
O         0.0000000000       0.0000000000       0.1036203139  -9.342339968162e-16   1.336129490239e-16   3.098742194258e-02
H        -0.0000000000      -0.0000000000      -0.8331199737   6.836185060355e-18   1.436980543043e-18  -3.098731069364e-02
2
Properties=species:S:1:pos:R:3:forces:R:3 energy=-7.571522893653e+01 dipole="4.2801340883e-16 -4.2952565177e-16 -5.9729535419e-01" quadrupole="-7.9701805008e+00 1.4476748192e-15 -2.0091484971e-15 1.4476748192e-15 -7.9701805008e+00 -2.2236530636e-15 -2.0091484971e-15 -2.2236530636e-15 -6.1476916620e+00" polarizability="2.0599868821e+01 -4.6129766673e-14 7.1149087300e-16 -4.6129766673e-14 2.0599868821e+01 8.7394779954e-15 7.1149087300e-16 8.7394779954e-15 1.6658059707e+01" charge=-1 multiplicity=1 method=wB97M-V basis=def2-svpd config_type=oh- sample_index=19 temperature=300.0 units=atomic
O         0.0000000000       0.0000000000       0.1010888145  -1.043182400898e-15   6.151523440242e-16   9.195007514093e-02
H        -0.0000000000      -0.0000000000      -0.7926167673   1.094027862498e-16  -1.987311975437e-16  -9.195033948484e-02
2
Properties=species:S:1:pos:R:3:forces:R:3 energy=-7.572082935509e+01 dipole="-2.7741640867e-15 -7.1432582365e-17 -5.6745978154e-01" quadrupole="-8.0415096397e+00 -2.6674964970e-15 3.8514611919e-15 -2.6674964970e-15 -8.0415096397e+00 -1.9424756757e-16 3.8514611919e-15 -1.9424756757e-16 -6.1881004162e+00" polarizability="2.0648388918e+01 -3.1752378504e-14 -3.4823047292e-14 -3.1752378504e-14 2.0648388918e+01 5.9215441632e-15 -3.4823047292e-14 5.9215441632e-15 1.8404534618e+01" charge=-1 multiplicity=1 method=wB97M-V basis=def2-svpd config_type=oh- sample_index=20 temperature=300.0 units=atomic
O        -0.0000000000      -0.0000000000       0.1057877970  -5.723503148791e-16  -1.740012822987e-16  -8.476309511183e-03
H         0.0000000000       0.0000000000      -0.8677990319  -8.137975445481e-17   2.419771580758e-17   8.475924286737e-03
2
Properties=species:S:1:pos:R:3:forces:R:3 energy=-7.571059461803e+01 dipole="2.1047664970e-15 -1.4805648581e-16 -6.0385405660e-01" quadrupole="-7.9485212581e+00 -2.4242326081e-15 -2.7711191494e-15 -2.4242326081e-15 -7.9485212581e+00 2.8555672611e-16 -2.7711191494e-15 2.8555672611e-16 -6.1376748248e+00" polarizability="2.0577136608e+01 3.3140157285e-14 1.9631497664e-14 3.3140157285e-14 2.0577136608e+01 -8.6775173960e-16 1.9631497664e-14 -8.6775173960e-16 1.6206577422e+01" charge=-1 multiplicity=1 method=wB97M-V basis=def2-svpd config_type=oh- sample_index=21 temperature=300.0 units=atomic
O         0.0000000000       0.0000000000       0.0997889226   1.179719237962e-15   2.927940048640e-16   1.309814883382e-01
H        -0.0000000000      -0.0000000000      -0.7718188994   1.246811060454e-16   6.553646647308e-17  -1.309779013753e-01
2
Properties=species:S:1:pos:R:3:forces:R:3 energy=-7.571915466716e+01 dipole="-2.8728438193e-15 -8.5260332309e-16 -5.5043263500e-01" quadrupole="-8.0704645095e+00 -1.1187522729e-15 3.2424029841e-15 -1.1187522729e-15 -8.0704645095e+00 -1.8071468914e-15 3.2424029841e-15 -1.8071468914e-15 -6.2107212751e+00" polarizability="2.0655519282e+01 9.1926466439e-14 -2.9209777385e-14 9.1926466439e-14 2.0655519282e+01 1.2117597900e-14 -2.9209777385e-14 1.2117597900e-14 1.9267521850e+01" charge=-1 multiplicity=1 method=wB97M-V basis=def2-svpd config_type=oh- sample_index=22 temperature=300.0 units=atomic
O        -0.0000000000      -0.0000000000       0.1079412151   8.135078631965e-16   1.082873734809e-16  -3.859925874172e-02
H         0.0000000000       0.0000000000      -0.9022530542  -6.035902284568e-19   8.161673988002e-17   3.859885664004e-02
2
Properties=species:S:1:pos:R:3:forces:R:3 energy=-7.572032617584e+01 dipole="2.0523232082e-15 -4.7259645314e-16 -5.8088185584e-01" quadrupole="-8.0136104175e+00 9.1298178208e-15 -3.2710714274e-15 9.1298178208e-15 -8.0136104175e+00 2.5591425255e-16 -3.2710714274e-15 2.5591425255e-16 -6.1703930091e+00" polarizability="2.0634469951e+01 5.4622972812e-14 2.5686573329e-14 5.4622972812e-14 2.0634469951e+01 -9.1421184977e-15 2.5686573329e-14 -9.1421184977e-15 1.7666389770e+01" charge=-1 multiplicity=1 method=wB97M-V basis=def2-svpd config_type=oh- sample_index=23 temperature=300.0 units=atomic
O         0.0000000000       0.0000000000       0.1038615551  -1.064358443351e-15  -5.034819292444e-16   2.607238468247e-02
H        -0.0000000000      -0.0000000000      -0.8369797579   6.996085721794e-17  -1.554523531550e-17  -2.607143405236e-02
2
Properties=species:S:1:pos:R:3:forces:R:3 energy=-7.571674085578e+01 dipole="-3.2718391106e-16 -1.9819931259e-16 -5.9426130125e-01" quadrupole="-7.9792250358e+00 2.8196702666e-15 1.9366389286e-15 2.8196702666e-15 -7.9792250358e+00 9.8535379647e-16 1.9366389286e-15 9.8535379647e-16 -6.1520772561e+00" polarizability="2.0608310929e+01 -6.8556271771e-15 -8.9086933929e-15 -6.8556271771e-15 2.0608310929e+01 8.5947780850e-16 -8.9086933929e-15 8.5947780850e-16 1.6855938884e+01" charge=-1 multiplicity=1 method=wB97M-V basis=def2-svpd config_type=oh- sample_index=24 temperature=300.0 units=atomic
O         0.0000000000       0.0000000000       0.1016467434   1.209638855151e-16   1.044140824781e-15   7.691862786086e-02
H        -0.0000000000      -0.0000000000      -0.8015434564  -1.420233904464e-16  -1.624191559169e-17  -7.692155547605e-02
2
Properties=species:S:1:pos:R:3:forces:R:3 energy=-7.572086088317e+01 dipole="-8.3668538272e-16 -3.5747171582e-16 -5.7389246295e-01" quadrupole="-8.0288099411e+00 8.9100002647e-17 7.8006198787e-16 8.9100002647e-17 -8.0288099411e+00 -2.7538131949e-16 7.8006198787e-16 -2.7538131949e-16 -6.1796376837e+00" polarizability="2.0642895077e+01 -5.3845816694e-14 -2.6434267975e-14 -5.3845816694e-14 2.0642895077e+01 8.2074924308e-15 -2.6434267975e-14 8.2074924308e-15 1.8058413965e+01" charge=-1 multiplicity=1 method=wB97M-V basis=def2-svpd config_type=oh- sample_index=25 temperature=300.0 units=atomic
O         0.0000000000       0.0000000000       0.1048947984   2.972054535975e-16   1.160186052554e-15   6.549159718633e-03
H        -0.0000000000      -0.0000000000      -0.8535113306  -7.241053993745e-17   2.459455361469e-17  -6.547411324338e-03
2
Properties=species:S:1:pos:R:3:forces:R:3 energy=-7.571874596499e+01 dipole="1.6583555024e-15 -6.6172527377e-16 -5.4776776057e-01" quadrupole="-8.0744922533e+00 -1.2080604572e-15 -9.9004741356e-16 -1.2080604572e-15 -8.0744922533e+00 2.8808708623e-17 -9.9004741356e-16 2.8808708623e-17 -6.2143222082e+00" polarizability="2.0655908137e+01 8.5265128291e-14 5.7755064050e-15 8.5265128291e-14 2.0655908137e+01 -1.1451273172e-14 5.7755064050e-15 -1.1451273172e-14 1.9396820421e+01" charge=-1 multiplicity=1 method=wB97M-V basis=def2-svpd config_type=oh- sample_index=26 temperature=300.0 units=atomic
O        -0.0000000000      -0.0000000000       0.1082554224   1.645936845777e-15   1.803553053656e-16  -4.235463338873e-02
H         0.0000000000       0.0000000000      -0.9072802735  -3.793064236335e-17   2.093629034167e-17   4.235488379462e-02
2
Properties=species:S:1:pos:R:3:forces:R:3 energy=-7.571767949632e+01 dipole="2.4531455423e-15 4.1013882752e-16 -5.4153012014e-01" quadrupole="-8.0834730947e+00 4.5232844017e-16 -1.8032806197e-15 4.5232844017e-16 -8.0834730947e+00 2.7854149386e-15 -1.8032806197e-15 2.7854149386e-15 -6.2228373358e+00" polarizability="2.0656239696e+01 5.1070259133e-14 3.4073049772e-14 5.1070259133e-14 2.0656239696e+01 -9.5464055666e-15 3.4073049772e-14 -9.5464055666e-15 1.9694335279e+01" charge=-1 multiplicity=1 method=wB97M-V basis=def2-svpd config_type=oh- sample_index=27 temperature=300.0 units=atomic
O        -0.0000000000      -0.0000000000       0.1089705779   4.679601705361e-16   4.309339944521e-16  -5.036183069512e-02
H         0.0000000000       0.0000000000      -0.9187225402   5.334236072129e-17  -4.654727668166e-17   5.036309182182e-02
2
Properties=species:S:1:pos:R:3:forces:R:3 energy=-7.572004638361e+01 dipole="-1.4402316282e-15 5.3401818224e-16 -5.5727053324e-01" quadrupole="-8.0595504911e+00 -3.5452970657e-15 7.9076743775e-16 -3.5452970657e-15 -8.0595504911e+00 -7.3924732694e-16 7.9076743775e-16 -7.3924732694e-16 -6.2015688244e+00" polarizability="2.0653721788e+01 1.2878587086e-13 1.1291680837e-14 1.2878587086e-13 2.0653721788e+01 1.2309388252e-14 1.1291680837e-14 1.2309388252e-14 1.8929115371e+01" charge=-1 multiplicity=1 method=wB97M-V basis=def2-svpd config_type=oh- sample_index=28 temperature=300.0 units=atomic
O        -0.0000000000      -0.0000000000       0.1071087194   2.700306593326e-16   5.520905807988e-16  -2.789942418462e-02
H         0.0000000000       0.0000000000      -0.8889333803   7.060890620423e-17   2.858076590430e-17   2.789762444082e-02
2
Properties=species:S:1:pos:R:3:forces:R:3 energy=-7.572067977029e+01 dipole="-1.3220081342e-15 -1.3976394368e-15 -5.7737791826e-01" quadrupole="-8.0214291995e+00 1.8897917908e-15 1.6612526524e-15 1.8897917908e-15 -8.0214291995e+00 -5.2617717326e-16 1.6612526524e-15 -5.2617717326e-16 -6.1750400266e+00" polarizability="2.0639052454e+01 1.1013412404e-13 -7.1208221255e-15 1.1013412404e-13 2.0639052454e+01 3.0301524297e-15 -7.1208221255e-15 3.0301524297e-15 1.7865183309e+01" charge=-1 multiplicity=1 method=wB97M-V basis=def2-svpd config_type=oh- sample_index=29 temperature=300.0 units=atomic
O         0.0000000000       0.0000000000       0.1043884734  -5.933082006032e-16   7.186939664360e-16   1.581519404382e-02
H        -0.0000000000      -0.0000000000      -0.8454102875  -3.211156490654e-17   5.969415371544e-17  -1.581321834251e-02
2
Properties=species:S:1:pos:R:3:forces:R:3 energy=-7.571708785341e+01 dipole="-8.7288791997e-16 -2.0444415741e-15 -5.3836572544e-01" quadrupole="-8.0878065414e+00 5.6530713192e-16 1.6152811277e-16 5.6530713192e-16 -8.0878065414e+00 3.6063717212e-16 1.6152811277e-16 3.6063717212e-16 -6.2272072716e+00" polarizability="2.0656133403e+01 1.0080825064e-13 1.9911752817e-15 1.0080825064e-13 2.0656133403e+01 -1.5747195048e-14 1.9911752817e-15 -1.5747195048e-14 1.9842705472e+01" charge=-1 multiplicity=1 method=wB97M-V basis=def2-svpd config_type=oh- sample_index=30 temperature=300.0 units=atomic
O        -0.0000000000      -0.0000000000       0.1093232592   3.834434536993e-16  -7.220093900138e-16  -5.404768618351e-02
H         0.0000000000       0.0000000000      -0.9243653320  -1.995313883317e-17   1.147267058494e-16   5.404906715617e-02
2
Properties=species:S:1:pos:R:3:forces:R:3 energy=-7.572071480418e+01 dipole="1.7289341923e-17 1.2303285049e-15 -5.6503838775e-01" quadrupole="-8.0460112095e+00 -4.1890190367e-16 -2.8994095538e-15 -4.1890190367e-16 -8.0460112095e+00 -2.0702114571e-15 -2.8994095538e-15 -2.0702114571e-15 -6.1912889098e+00" polarizability="2.0649992686e+01 -1.4699352846e-13 1.7391265934e-14 -1.4699352846e-13 2.0649992686e+01 1.1958025769e-14 1.7391265934e-14 1.1958025769e-14 1.8531642831e+01" charge=-1 multiplicity=1 method=wB97M-V basis=def2-svpd config_type=oh- sample_index=31 temperature=300.0 units=atomic
O        -0.0000000000      -0.0000000000       0.1061113792   4.437010415900e-16   1.387507459278e-16  -1.353040020892e-02
H         0.0000000000       0.0000000000      -0.8729762460   2.988687425428e-17   2.814250755988e-17   1.352924852226e-02
2
Properties=species:S:1:pos:R:3:forces:R:3 energy=-7.572079196136e+01 dipole="1.3425154641e-15 -6.5921164663e-16 -5.6654393784e-01" quadrupole="-8.0432291352e+00 -1.2039891118e-16 1.6710687071e-15 -1.2039891118e-16 -8.0432291352e+00 1.8659490444e-15 1.6710687071e-15 1.8659490444e-15 -6.1893058632e+00" polarizability="2.0649022871e+01 -8.5487172896e-14 -1.8924738920e-14 -8.5487172896e-14 2.0649022871e+01 -2.0789068865e-14 -1.8924738920e-14 -2.0789068865e-14 1.8452803119e+01" charge=-1 multiplicity=1 method=wB97M-V basis=def2-svpd config_type=oh- sample_index=32 temperature=300.0 units=atomic
O        -0.0000000000      -0.0000000000       0.1059109461  -2.340549891414e-16   1.491656617268e-16  -1.042341312754e-02
H         0.0000000000       0.0000000000      -0.8697693779  -3.419155798429e-17  -3.309939984551e-17   1.042271623606e-02
2
Properties=species:S:1:pos:R:3:forces:R:3 energy=-7.571949794563e+01 dipole="3.0275248538e-16 5.2236348384e-16 -5.8571486179e-01" quadrupole="-8.0020908687e+00 -4.0801228201e-16 7.6540674253e-16 -4.0801228201e-16 -8.0020908687e+00 -1.7561682592e-15 7.6540674253e-16 -1.7561682592e-15 -6.1639116425e+00" polarizability="2.0626779081e+01 9.0372154204e-14 6.8820768512e-15 9.0372154204e-14 2.0626779081e+01 1.2225484473e-14 6.8820768512e-15 1.2225484473e-14 1.7383842627e+01" charge=-1 multiplicity=1 method=wB97M-V basis=def2-svpd config_type=oh- sample_index=33 temperature=300.0 units=atomic
O         0.0000000000       0.0000000000       0.1031018218   1.214424757678e-16   5.479056074757e-17   4.203913573334e-02
H        -0.0000000000      -0.0000000000      -0.8248242593   4.313565951071e-17   1.015097933976e-16  -4.204113992079e-02
2
Properties=species:S:1:pos:R:3:forces:R:3 energy=-7.572069090638e+01 dipole="4.4645985010e-16 1.8672155853e-16 -5.7722744342e-01" quadrupole="-8.0217557407e+00 -1.3054849754e-15 8.8693231318e-16 -1.3054849754e-15 -8.0217557407e+00 -3.4108628792e-16 8.8693231318e-16 -3.4108628792e-16 -6.1752389261e+00" polarizability="2.0639232439e+01 1.7186252421e-13 -1.7890737222e-15 1.7186252421e-13 2.0639232439e+01 -3.6465747241e-16 -1.7890737222e-15 -3.6465747241e-16 1.7873615401e+01" charge=-1 multiplicity=1 method=wB97M-V basis=def2-svpd config_type=oh- sample_index=34 temperature=300.0 units=atomic
O         0.0000000000       0.0000000000       0.1044106874   4.495788636825e-16  -5.505659139717e-16   1.539677206516e-02
H        -0.0000000000      -0.0000000000      -0.8457657034   3.002632543984e-17  -1.066926691630e-17  -1.539478187417e-02
2
Properties=species:S:1:pos:R:3:forces:R:3 energy=-7.572031311702e+01 dipole="1.6735423621e-15 -7.3845906296e-16 -5.8098303148e-01" quadrupole="-8.0133783054e+00 -1.6558590247e-15 -5.0533795115e-16 -1.6558590247e-15 -8.0133783054e+00 -3.5347215684e-16 -5.0533795115e-16 -3.5347215684e-16 -6.1702583008e+00" polarizability="2.0634325959e+01 -1.4743761767e-13 -7.0392032406e-15 -1.4743761767e-13 2.0634325959e+01 -9.6720488748e-15 -7.0392032406e-15 -9.6720488748e-15 1.7660577500e+01" charge=-1 multiplicity=1 method=wB97M-V basis=def2-svpd config_type=oh- sample_index=35 temperature=300.0 units=atomic
O         0.0000000000       0.0000000000       0.1038460558   9.661882305669e-17   1.033873135874e-16   2.638395125469e-02
H        -0.0000000000      -0.0000000000      -0.8367317733   4.165738850492e-18  -8.612855889097e-17  -2.638304887356e-02
2
Properties=species:S:1:pos:R:3:forces:R:3 energy=-7.571921081349e+01 dipole="2.2730801391e-16 -6.2464498635e-16 -5.5081561304e-01" quadrupole="-8.0698757084e+00 1.3928393408e-15 -9.1357908779e-16 1.3928393408e-15 -8.0698757084e+00 -2.3704256652e-16 -9.1357908779e-16 -2.3704256652e-16 -6.2102054546e+00" polarizability="2.0655450000e+01 1.0480505352e-13 1.2338696999e-14 1.0480505352e-13 2.0655450000e+01 -3.6820445586e-15 1.2338696999e-14 -3.6820445586e-15 1.9248825690e+01" charge=-1 multiplicity=1 method=wB97M-V basis=def2-svpd config_type=oh- sample_index=36 temperature=300.0 units=atomic
O        -0.0000000000      -0.0000000000       0.1078956073   1.197929724421e-15   4.026402914784e-16  -3.804163654065e-02
H         0.0000000000       0.0000000000      -0.9015233433   7.512456136018e-17  -4.987275730618e-19   3.804113771965e-02
2
Properties=species:S:1:pos:R:3:forces:R:3 energy=-7.572082817140e+01 dipole="-2.4289758037e-15 9.5766879200e-17 -5.6742770210e-01" quadrupole="-8.0415702226e+00 2.1324228225e-15 2.9299747634e-15 2.1324228225e-15 -8.0415702226e+00 -1.5561524132e-15 2.9299747634e-15 -1.5561524132e-15 -6.1881426311e+00" polarizability="2.0648411702e+01 7.4606987255e-14 -3.0419125992e-14 7.4606987255e-14 2.0648411702e+01 1.4925362456e-14 -3.0419125992e-14 1.4925362456e-14 1.8406229368e+01" charge=-1 multiplicity=1 method=wB97M-V basis=def2-svpd config_type=oh- sample_index=37 temperature=300.0 units=atomic
O        -0.0000000000      -0.0000000000       0.1057921266  -2.761717669023e-16   4.752567439060e-16  -8.545261098247e-03
H         0.0000000000       0.0000000000      -0.8678683028  -4.204232270638e-17  -6.858245491019e-17   8.544864611006e-03
2
Properties=species:S:1:pos:R:3:forces:R:3 energy=-7.571783117387e+01 dipole="-1.7156131476e-15 -5.5188770360e-15 -5.9154690672e-01" quadrupole="-7.9868757568e+00 -5.6452194324e-15 -1.7032363063e-15 -5.6452194324e-15 -7.9868757568e+00 -6.7151972455e-16 -1.7032363063e-15 -6.7151972455e-16 -6.1559059681e+00" polarizability="2.0614954406e+01 3.3462121962e-13 1.7993461498e-14 3.3462121962e-13 2.0614954406e+01 -2.3146406380e-14 1.7993461498e-14 -2.3146406380e-14 1.7027995139e+01" charge=-1 multiplicity=1 method=wB97M-V basis=def2-svpd config_type=oh- sample_index=38 temperature=300.0 units=atomic
O         0.0000000000       0.0000000000       0.1021262315  -5.850275202095e-16  -1.404114441747e-15   6.476025366691e-02
H        -0.0000000000      -0.0000000000      -0.8092151170  -2.070949004709e-16  -7.045969834221e-17  -6.476425564619e-02
2
Properties=species:S:1:pos:R:3:forces:R:3 energy=-7.570831342723e+01 dipole="4.5086530499e-16 1.0063487549e-17 -6.0623385062e-01" quadrupole="-7.9398117157e+00 -6.7491761419e-16 -4.5018627656e-16 -6.7491761419e-16 -7.9398117157e+00 3.3525824846e-16 -4.5018627656e-16 3.3525824846e-16 -6.1337909704e+00" polarizability="2.0567030611e+01 -5.3845816694e-14 1.3571619906e-14 -5.3845816694e-14 2.0567030611e+01 -3.0480247247e-15 1.3571619906e-14 -3.0480247247e-15 1.6033210545e+01" charge=-1 multiplicity=1 method=wB97M-V basis=def2-svpd config_type=oh- sample_index=39 temperature=300.0 units=atomic
O         0.0000000000       0.0000000000       0.0992794483  -6.908457517906e-17   3.820620269058e-16   1.479459829832e-01
H        -0.0000000000      -0.0000000000      -0.7636674684   5.158135995280e-17   5.968847588273e-17  -1.479442847689e-01
2
Properties=species:S:1:pos:R:3:forces:R:3 energy=-7.571519247445e+01 dipole="2.6184663778e-15 1.6563673798e-15 -5.2906698948e-01" quadrupole="-8.0997634410e+00 1.8595513971e-15 -2.9861428169e-15 1.8595513971e-15 -8.0997634410e+00 -2.7872794287e-16 -2.9861428169e-15 -2.7872794287e-16 -6.2402620500e+00" polarizability="2.0654943410e+01 -1.4743761767e-13 4.2776353870e-14 -1.4743761767e-13 2.0654943410e+01 6.3147270915e-15 4.2776353870e-14 6.3147270915e-15 2.0269723934e+01" charge=-1 multiplicity=1 method=wB97M-V basis=def2-svpd config_type=oh- sample_index=40 temperature=300.0 units=atomic
O        -0.0000000000      -0.0000000000       0.1103241992  -4.280655600821e-16  -6.734956841606e-16  -6.362970361809e-02
H         0.0000000000       0.0000000000      -0.9403800607   4.791927346672e-17  -8.351204380607e-18   6.363033074319e-02
2
Properties=species:S:1:pos:R:3:forces:R:3 energy=-7.570791888317e+01 dipole="-6.9755230604e-16 -5.8638501041e-16 -6.0660806943e-01" quadrupole="-7.9383945402e+00 -2.7083483831e-15 1.9893811746e-15 -2.7083483831e-15 -7.9383945402e+00 2.3501704163e-15 1.9893811746e-15 2.3501704163e-15 -6.1331648690e+00" polarizability="2.0565335602e+01 -1.4244161406e-13 -3.1758791438e-14 -1.4244161406e-13 2.0565335602e+01 -1.9695470222e-14 -3.1758791438e-14 -1.9695470222e-14 1.6005415881e+01" charge=-1 multiplicity=1 method=wB97M-V basis=def2-svpd config_type=oh- sample_index=41 temperature=300.0 units=atomic
O         0.0000000000       0.0000000000       0.0991972190   9.549702670125e-16   4.775949990429e-16   1.507783135327e-01
H        -0.0000000000      -0.0000000000      -0.7623518244  -7.676778603822e-17  -2.266014655062e-17  -1.507770710109e-01
2
Properties=species:S:1:pos:R:3:forces:R:3 energy=-7.571093869452e+01 dipole="3.3736804478e-15 3.1969677150e-15 -6.0345816358e-01" quadrupole="-7.9499219408e+00 1.9737325248e-15 -1.4790240575e-15 1.9737325248e-15 -7.9499219408e+00 -1.6613712855e-15 -1.4790240575e-15 -1.6613712855e-15 -6.1383058839e+00" polarizability="2.0578711280e+01 -2.0694557179e-13 -8.4726461400e-15 -2.0694557179e-13 2.0578711280e+01 1.2335659998e-14 -8.4726461400e-15 1.2335659998e-14 1.6234877837e+01" charge=-1 multiplicity=1 method=wB97M-V basis=def2-svpd config_type=oh- sample_index=42 temperature=300.0 units=atomic
O         0.0000000000       0.0000000000       0.0998715349  -1.745354243933e-16  -3.716553085126e-16   1.283230551786e-01
H        -0.0000000000      -0.0000000000      -0.7731406693   8.285896460079e-17  -6.801523108289e-17  -1.283193561646e-01
2
Properties=species:S:1:pos:R:3:forces:R:3 energy=-7.571785336844e+01 dipole="-3.9209355909e-15 9.8385093205e-17 -5.9148525660e-01" quadrupole="-7.9870450328e+00 -2.5506373792e-15 2.9054700149e-15 -2.5506373792e-15 -7.9870450328e+00 2.0068620705e-16 2.9054700149e-15 2.0068620705e-16 -6.1559920426e+00" polarizability="2.0615096176e+01 -1.5010215293e-13 -1.2113838464e-14 -1.5010215293e-13 2.0615096176e+01 -1.3736524855e-14 -1.2113838464e-14 -1.3736524855e-14 1.7031852223e+01" charge=-1 multiplicity=1 method=wB97M-V basis=def2-svpd config_type=oh- sample_index=43 temperature=300.0 units=atomic
O         0.0000000000       0.0000000000       0.1021369214  -5.414243945352e-16  -1.717766043535e-15   6.449689653772e-02
H        -0.0000000000      -0.0000000000      -0.8093861525   1.069777696933e-17   4.657627075948e-17  -6.450090572535e-02
2
Properties=species:S:1:pos:R:3:forces:R:3 energy=-7.572057991939e+01 dipole="-4.7833616786e-15 1.3194973892e-16 -5.7857293964e-01" quadrupole="-8.0188095097e+00 6.5481846508e-16 3.5135492564e-15 6.5481846508e-16 -8.0188095097e+00 1.8614874150e-15 3.5135492564e-15 1.8614874150e-15 -6.1734587162e+00" polarizability="2.0637575308e+01 -1.2612133560e-13 -4.4392433061e-14 -1.2612133560e-13 2.0637575308e+01 -2.0401349867e-14 -4.4392433061e-14 -2.0401349867e-14 1.7797918044e+01" charge=-1 multiplicity=1 method=wB97M-V basis=def2-svpd config_type=oh- sample_index=44 temperature=300.0 units=atomic
O         0.0000000000       0.0000000000       0.1042108724  -1.255761009680e-15  -1.298344456490e-16   1.920071197242e-02
H        -0.0000000000      -0.0000000000      -0.8425687259  -1.065047395804e-16  -3.506366841953e-17  -1.919893817332e-02
2
Properties=species:S:1:pos:R:3:forces:R:3 energy=-7.572048940392e+01 dipole="-3.5795152605e-15 2.2188190896e-16 -5.6182094538e-01" quadrupole="-8.0517788524e+00 6.0024343529e-16 2.3062916466e-15 6.0024343529e-16 -8.0517788524e+00 -1.4571689107e-15 2.3062916466e-15 -1.4571689107e-15 -6.1955352663e+00" polarizability="2.0651783804e+01 2.1671553441e-13 -1.3059124659e-14 2.1671553441e-13 2.0651783804e+01 1.9694869575e-14 -1.3059124659e-14 1.9694869575e-14 1.8698099005e+01" charge=-1 multiplicity=1 method=wB97M-V basis=def2-svpd config_type=oh- sample_index=45 temperature=300.0 units=atomic
O        -0.0000000000      -0.0000000000       0.1065316911  -1.595200479213e-15  -5.109298516270e-16  -1.980263516152e-02
H         0.0000000000       0.0000000000      -0.8797011066  -1.419625936278e-18   4.042161071248e-17   1.980084272987e-02
2
Properties=species:S:1:pos:R:3:forces:R:3 energy=-7.570897767360e+01 dipole="-3.5666801397e-15 3.9779229050e-16 -6.0558076833e-01" quadrupole="-7.9422530639e+00 5.1685280671e-15 3.4746184438e-15 5.1685280671e-15 -7.9422530639e+00 -1.3590230658e-15 3.4746184438e-15 -1.3590230658e-15 -6.1348731567e+00" polarizability="2.0569917598e+01 -1.4516166047e-14 -9.6334372337e-15 -1.4516166047e-14 2.0569917598e+01 1.1868061049e-15 -9.6334372337e-15 1.1868061049e-15 1.6081360721e+01" charge=-1 multiplicity=1 method=wB97M-V basis=def2-svpd config_type=oh- sample_index=46 temperature=300.0 units=atomic
O         0.0000000000       0.0000000000       0.0994215374   7.812776090760e-16  -7.559819803624e-16   1.431144251184e-01
H        -0.0000000000      -0.0000000000      -0.7659408497   9.253737469910e-17   4.379099331313e-17  -1.431120190208e-01
2
Properties=species:S:1:pos:R:3:forces:R:3 energy=-7.569733221332e+01 dipole="1.3751978239e-15 -8.2562634997e-16 -6.1409491399e-01" quadrupole="-7.9067565832e+00 -9.8924699573e-16 -2.5547888575e-15 -9.8924699573e-16 -7.9067565832e+00 5.2701669826e-16 -2.5547888575e-15 5.2701669826e-16 -6.1194554237e+00" polarizability="2.0523969049e+01 -4.1355807667e-15 -3.9825230875e-15 -4.1355807667e-15 2.0523969049e+01 2.4000404309e-15 -3.9825230875e-15 2.4000404309e-15 1.5412737437e+01" charge=-1 multiplicity=1 method=wB97M-V basis=def2-svpd config_type=oh- sample_index=47 temperature=300.0 units=atomic
O         0.0000000000       0.0000000000       0.0974062436   2.709184786386e-16  -1.022321603410e-15   2.195890099690e-01
H        -0.0000000000      -0.0000000000      -0.7336967729  -1.487644915522e-16  -5.152023902680e-17  -2.195912034881e-01
2
Properties=species:S:1:pos:R:3:forces:R:3 energy=-7.570155225343e+01 dipole="-2.5142556093e-15 1.2927692063e-15 -6.1157758521e-01" quadrupole="-7.9181674391e+00 1.8551441812e-15 1.3811537420e-15 1.8551441812e-15 -7.9181674391e+00 -2.7206806092e-15 1.3811537420e-15 -2.7206806092e-15 -6.1243574395e+00" polarizability="2.0539650240e+01 7.3385741928e-14 -1.1855315748e-14 7.3385741928e-14 2.0539650240e+01 1.1313222012e-15 -1.1855315748e-14 1.1313222012e-15 1.5620608882e+01" charge=-1 multiplicity=1 method=wB97M-V basis=def2-svpd config_type=oh- sample_index=48 temperature=300.0 units=atomic
O         0.0000000000       0.0000000000       0.0980427408   1.131270202064e-15   3.159866274035e-17   1.935000704812e-01
H        -0.0000000000      -0.0000000000      -0.7438805311  -3.428424909430e-17  -2.842380253149e-17  -1.935041706555e-01
2
Properties=species:S:1:pos:R:3:forces:R:3 energy=-7.571143989477e+01 dipole="1.7282677147e-15 1.0335680976e-17 -6.0286120339e-01" quadrupole="-7.9520093869e+00 -1.2079752074e-15 -1.4873226257e-15 -1.2079752074e-15 -7.9520093869e+00 4.8532283815e-16 -1.4873226257e-15 4.8532283815e-16 -6.1392500470e+00" polarizability="2.0581031661e+01 -1.1296519276e-13 1.4307263919e-14 -1.1296519276e-13 2.0581031661e+01 1.2952926556e-14 1.4307263919e-14 1.2952926556e-14 1.6277275301e+01" charge=-1 multiplicity=1 method=wB97M-V basis=def2-svpd config_type=oh- sample_index=49 temperature=300.0 units=atomic
O         0.0000000000       0.0000000000       0.0999950101   5.917422931379e-16  -1.198445060908e-15   1.243964655522e-01
H        -0.0000000000      -0.0000000000      -0.7751162356   2.092267400997e-17   7.354449960557e-17  -1.243927113329e-01
2
Properties=species:S:1:pos:R:3:forces:R:3 energy=-7.572030626806e+01 dipole="-6.0715559133e-16 -4.3192895896e-16 -5.8103557734e-01" quadrupole="-8.0132576116e+00 1.2302562400e-15 1.3197098317e-15 1.2302562400e-15 -8.0132576116e+00 1.4473471779e-15 1.3197098317e-15 1.4473471779e-15 -6.1701883258e+00" polarizability="2.0634250905e+01 -1.2789769244e-13 -2.6396755224e-14 -1.2789769244e-13 2.0634250905e+01 5.1262441374e-15 -2.6396755224e-14 5.1262441374e-15 1.7657557222e+01" charge=-1 multiplicity=1 method=wB97M-V basis=def2-svpd config_type=oh- sample_index=50 temperature=300.0 units=atomic
O         0.0000000000       0.0000000000       0.1038379996  -3.800191286279e-16  -1.392395265964e-15   2.654612256398e-02
H        -0.0000000000      -0.0000000000      -0.8366028772   1.719006070070e-17   8.289777301133e-17  -2.654524560698e-02
2
Properties=species:S:1:pos:R:3:forces:R:3 energy=-7.571560270055e+01 dipole="4.4240805853e-17 -1.5544330484e-15 -5.3099678886e-01" quadrupole="-8.0973717569e+00 -2.3815314484e-15 9.7237146762e-17 -2.3815314484e-15 -8.0973717569e+00 2.3141682888e-15 9.7237146762e-17 2.3141682888e-15 -6.2375255007e+00" polarizability="2.0655285995e+01 1.7807977315e-13 1.7236204833e-14 1.7807977315e-13 2.0655285995e+01 7.7385963660e-15 1.7236204833e-14 7.7385963660e-15 2.0182142305e+01" charge=-1 multiplicity=1 method=wB97M-V basis=def2-svpd config_type=oh- sample_index=51 temperature=300.0 units=atomic
O        -0.0000000000      -0.0000000000       0.1101205706  -2.388218271298e-16   9.991672799622e-17  -6.178145041908e-02
H         0.0000000000       0.0000000000      -0.9371220673  -2.159693998037e-17   2.490159299792e-17   6.178230555063e-02
2
Properties=species:S:1:pos:R:3:forces:R:3 energy=-7.572090019704e+01 dipole="6.9984381529e-16 -1.3134835820e-15 -5.7109140153e-01" quadrupole="-8.0344790135e+00 -2.5648835889e-15 -1.3018251577e-15 -2.5648835889e-15 -8.0344790135e+00 1.6355762951e-15 -1.3018251577e-15 1.6355762951e-15 -6.1833235618e+00" polarizability="2.0645523465e+01 2.0605739337e-13 1.9700538362e-14 2.0605739337e-13 2.0645523465e+01 -6.5920045638e-15 1.9700538362e-14 -6.5920045638e-15 1.8210714394e+01" charge=-1 multiplicity=1 method=wB97M-V basis=def2-svpd config_type=oh- sample_index=52 temperature=300.0 units=atomic
O        -0.0000000000      -0.0000000000       0.1052899078  -7.079830830802e-16   5.389041815234e-17  -2.996816550525e-04
H         0.0000000000       0.0000000000      -0.8598329580   3.168446848462e-17  -3.757097945209e-17   3.006176631208e-04
2
Properties=species:S:1:pos:R:3:forces:R:3 energy=-7.571879395136e+01 dipole="2.6235086380e-15 -5.5956548339e-15 -5.8854054569e-01" quadrupole="-7.9949137427e+00 2.8295718021e-15 1.0855538176e-15 2.8295718021e-15 -7.9949137427e+00 8.4327114222e-16 1.0855538176e-15 8.4327114222e-16 -6.1600644526e+00" polarizability="2.0621434025e+01 -2.3436808050e-13 -1.7754525010e-15 -2.3436808050e-13 2.0621434025e+01 -6.5384990665e-15 -1.7754525010e-15 -6.5384990665e-15 1.7213635012e+01" charge=-1 multiplicity=1 method=wB97M-V basis=def2-svpd config_type=oh- sample_index=53 temperature=300.0 units=atomic
O         0.0000000000       0.0000000000       0.1026378440   8.848974455884e-16  -5.279816940774e-16   5.251981388492e-02
H        -0.0000000000      -0.0000000000      -0.8174007582   7.678920554858e-18  -9.886844194428e-18  -5.252335468331e-02
2
Properties=species:S:1:pos:R:3:forces:R:3 energy=-7.571495020166e+01 dipole="1.6574160137e-15 1.5171837970e-15 -5.2794407216e-01" quadrupole="-8.1011347081e+00 -2.9071798897e-15 2.1682309515e-16 -2.9071798897e-15 -8.1011347081e+00 1.2649812651e-16 2.1682309515e-16 1.2649812651e-16 -6.2418611655e+00" polarizability="2.0654723613e+01 -1.4743761767e-13 -1.1883639884e-14 -1.4743761767e-13 2.0654723613e+01 -8.8820075470e-15 -1.1883639884e-14 -8.8820075470e-15 2.0320449191e+01" charge=-1 multiplicity=1 method=wB97M-V basis=def2-svpd config_type=oh- sample_index=54 temperature=300.0 units=atomic
O        -0.0000000000      -0.0000000000       0.1104417529   5.587631332988e-16   8.218668799934e-16  -6.467409702135e-02
H         0.0000000000       0.0000000000      -0.9422608841  -3.316842138644e-17  -1.958520880452e-17   6.467458998266e-02
2
Properties=species:S:1:pos:R:3:forces:R:3 energy=-7.572016965976e+01 dipole="1.4711592116e-15 6.2158309726e-16 -5.8201794268e-01" quadrupole="-8.0109826741e+00 3.7355782441e-16 9.5973214158e-16 3.7355782441e-16 -8.0109826741e+00 -1.2829730599e-15 9.5973214158e-16 -1.2829730599e-15 -6.1688783237e+00" polarizability="2.0632813243e+01 9.4368957093e-14 3.1356189438e-15 9.4368957093e-14 2.0632813243e+01 1.7364042673e-14 3.1356189438e-15 1.7364042673e-14 1.7600881601e+01" charge=-1 multiplicity=1 method=wB97M-V basis=def2-svpd config_type=oh- sample_index=55 temperature=300.0 units=atomic
O         0.0000000000       0.0000000000       0.1036865564   7.298359359944e-18  -1.565930525431e-15   2.962375062049e-02
H        -0.0000000000      -0.0000000000      -0.8341798317  -1.516071000486e-17   1.032078538219e-17  -2.962339184297e-02
2
Properties=species:S:1:pos:R:3:forces:R:3 energy=-7.572003056174e+01 dipole="5.6613233856e-16 -1.1962639460e-15 -5.8291314717e-01" quadrupole="-8.0088783689e+00 1.5294537425e-15 6.3982515340e-18 1.5294537425e-15 -8.0088783689e+00 9.6901054804e-16 6.3982515340e-18 9.6901054804e-16 -6.1676813471e+00" polarizability="2.0631444680e+01 -2.1849189125e-13 1.3687986056e-14 -2.1849189125e-13 2.0631444680e+01 -4.9760615311e-15 1.3687986056e-14 -4.9760615311e-15 1.7548880062e+01" charge=-1 multiplicity=1 method=wB97M-V basis=def2-svpd config_type=oh- sample_index=56 temperature=300.0 units=atomic
O         0.0000000000       0.0000000000       0.1035471510   4.047066184777e-17   1.063826571950e-17   3.250606627382e-02
H        -0.0000000000      -0.0000000000      -0.8319493896   7.971708256503e-17  -6.191196870898e-18  -3.250624001975e-02
2
Properties=species:S:1:pos:R:3:forces:R:3 energy=-7.571851661557e+01 dipole="-9.8674171964e-16 -3.1254161448e-15 -5.8948575427e-01" quadrupole="-7.9924331670e+00 2.4858229651e-15 3.0376102317e-16 2.4858229651e-15 -7.9924331670e+00 5.1560728780e-16 3.0376102317e-16 5.1560728780e-16 -6.1587650982e+00" polarizability="2.0619489578e+01 1.0891287872e-13 -7.4782507848e-15 1.0891287872e-13 2.0619489578e+01 -2.5611283206e-14 -7.4782507848e-15 -2.5611283206e-14 1.7155796235e+01" charge=-1 multiplicity=1 method=wB97M-V basis=def2-svpd config_type=oh- sample_index=57 temperature=300.0 units=atomic
O         0.0000000000       0.0000000000       0.1024790731   2.435296959919e-16   1.398546033971e-16   5.623993679969e-02
H        -0.0000000000      -0.0000000000      -0.8148604730   1.718008399621e-17  -1.027360170708e-16  -5.624378830094e-02
2
Properties=species:S:1:pos:R:3:forces:R:3 energy=-7.571579403769e+01 dipole="1.2061228508e-15 7.7810684296e-16 -5.3191023961e-01" quadrupole="-8.0962238696e+00 2.6201780602e-15 -3.1777298458e-15 2.6201780602e-15 -8.0962238696e+00 -1.4839242981e-15 -3.1777298458e-15 -1.4839242981e-15 -6.2362352556e+00" polarizability="2.0655431924e+01 -1.9229062787e-13 2.7709047436e-14 -1.9229062787e-13 2.0655431924e+01 4.5864795601e-15 2.7709047436e-14 4.5864795601e-15 2.0140503133e+01" charge=-1 multiplicity=1 method=wB97M-V basis=def2-svpd config_type=oh- sample_index=58 temperature=300.0 units=atomic
O        -0.0000000000      -0.0000000000       0.1100234623   2.006813454309e-16  -8.826788627102e-16  -6.088230226840e-02
H         0.0000000000       0.0000000000      -0.9355683643  -5.555442735779e-17   2.597392600364e-17   6.088325980674e-02
2
Properties=species:S:1:pos:R:3:forces:R:3 energy=-7.571917200444e+01 dipole="2.3753864281e-16 3.6501937623e-16 -5.5055040431e-01" quadrupole="-8.0702837190e+00 -2.9017692104e-15 -4.4080477479e-16 -2.9017692104e-15 -8.0702837190e+00 -9.1961479857e-16 -4.4080477479e-16 -9.1961479857e-16 -6.2105626118e+00" polarizability="2.0655498346e+01 -7.1498362786e-14 2.0551963466e-14 -7.1498362786e-14 2.0655498346e+01 2.0699678418e-15 2.0551963466e-14 2.0699678418e-15 1.9261775718e+01" charge=-1 multiplicity=1 method=wB97M-V basis=def2-svpd config_type=oh- sample_index=59 temperature=300.0 units=atomic
O        -0.0000000000      -0.0000000000       0.1079272026  -1.144501847035e-16   3.241562099352e-16  -3.842827716407e-02
H         0.0000000000       0.0000000000      -0.9020288583  -8.493700174285e-17   3.150808166812e-17   3.842784531447e-02
2
Properties=species:S:1:pos:R:3:forces:R:3 energy=-7.572012136054e+01 dipole="6.5964415836e-16 -1.3613176596e-15 -5.5795398795e-01" quadrupole="-8.0584105552e+00 -3.6510250826e-15 -1.6956818727e-15 -3.6510250826e-15 -8.0584105552e+00 1.8065225691e-16 -1.6956818727e-15 1.8065225691e-16 -6.2006600785e+00" polarizability="2.0653471667e+01 2.6334490144e-13 1.4959626292e-14 2.6334490144e-13 2.0653471667e+01 1.0978159885e-14 1.4959626292e-14 1.0978159885e-14 1.8894729908e+01" charge=-1 multiplicity=1 method=wB97M-V basis=def2-svpd config_type=oh- sample_index=60 temperature=300.0 units=atomic
O        -0.0000000000      -0.0000000000       0.1070232882  -1.392110794490e-16  -3.337112140456e-16  -2.673697066340e-02
H         0.0000000000       0.0000000000      -0.8875665074   1.133157387365e-17  -2.603590084495e-17   2.673510818278e-02
2
Properties=species:S:1:pos:R:3:forces:R:3 energy=-7.571590589870e+01 dipole="6.0685135576e-16 3.2398810124e-16 -5.3244852893e-01" quadrupole="-8.0955426443e+00 2.0859319730e-15 -1.8796648425e-15 2.0859319730e-15 -8.0955426443e+00 -1.1823533608e-15 -1.8796648425e-15 -1.1823533608e-15 -6.2354765443e+00" polarizability="2.0655513585e+01 -4.6518344732e-14 1.4478671977e-14 -4.6518344732e-14 2.0655513585e+01 2.5534057983e-14 1.4478671977e-14 2.5534057983e-14 2.0115910739e+01" charge=-1 multiplicity=1 method=wB97M-V basis=def2-svpd config_type=oh- sample_index=61 temperature=300.0 units=atomic
O        -0.0000000000      -0.0000000000       0.1099660173  -5.462322207173e-17   6.555925574636e-16  -6.034494227212e-02
H         0.0000000000       0.0000000000      -0.9346492613  -7.759299971396e-18   3.059337152452e-17   6.034595967005e-02
2
Properties=species:S:1:pos:R:3:forces:R:3 energy=-7.570306613278e+01 dipole="1.7392162272e-16 8.2300470556e-16 -6.1054660931e-01" quadrupole="-7.9225968182e+00 7.4399992078e-16 -1.7634970812e-15 7.4399992078e-16 -7.9225968182e+00 -9.3774156012e-16 -1.7634970812e-15 -9.3774156012e-16 -6.1262697207e+00" polarizability="2.0545509170e+01 -9.7699626167e-14 -6.6262948743e-15 -9.7699626167e-14 2.0545509170e+01 7.3715111206e-15 -6.6262948743e-15 7.3715111206e-15 1.5703036057e+01" charge=-1 multiplicity=1 method=wB97M-V basis=def2-svpd config_type=oh- sample_index=62 temperature=300.0 units=atomic
O         0.0000000000       0.0000000000       0.0982925952   5.142415436995e-16   1.279217428381e-15   1.837682365456e-01
H        -0.0000000000      -0.0000000000      -0.7478781242  -1.403780707246e-18   4.910673542825e-17  -1.837718699410e-01
2
Properties=species:S:1:pos:R:3:forces:R:3 energy=-7.571990398390e+01 dipole="1.1460232875e-15 3.1222763104e-15 -5.5603624811e-01" quadrupole="-8.0615856813e+00 2.4878324688e-16 1.3215127515e-15 2.4878324688e-16 -8.0615856813e+00 -1.8532355273e-15 1.3215127515e-15 -1.8532355273e-15 -6.2032125215e+00" polarizability="2.0654139083e+01 1.8163248683e-13 -6.0649373966e-15 1.8163248683e-13 2.0654139083e+01 3.2050540131e-15 -6.0649373966e-15 3.2050540131e-15 1.8990945384e+01" charge=-1 multiplicity=1 method=wB97M-V basis=def2-svpd config_type=oh- sample_index=63 temperature=300.0 units=atomic
O        -0.0000000000      -0.0000000000       0.1072619413   1.012745958887e-15   2.101602161422e-16  -2.995351100485e-02
H         0.0000000000       0.0000000000      -0.8913848831   1.196250405751e-16  -1.555748853551e-17   2.995187305555e-02
2
Properties=species:S:1:pos:R:3:forces:R:3 energy=-7.572039929868e+01 dipole="-1.1097875829e-15 -7.7793206692e-16 -5.8028929313e-01" quadrupole="-8.0149624937e+00 3.5680420950e-15 1.5008120200e-16 3.5680420950e-15 -8.0149624937e+00 1.7081357855e-15 1.5008120200e-16 1.7081357855e-15 -6.1711812946e+00" polarizability="2.0635299653e+01 4.1522341121e-14 2.6177831621e-16 4.1522341121e-14 2.0635299653e+01 -1.5937161759e-14 2.6177831621e-16 -1.5937161759e-14 1.7700347387e+01" charge=-1 multiplicity=1 method=wB97M-V basis=def2-svpd config_type=oh- sample_index=64 temperature=300.0 units=atomic
O         0.0000000000       0.0000000000       0.1039520016   2.930223111647e-16  -1.890739059697e-16   2.426564329886e-02
H        -0.0000000000      -0.0000000000      -0.8384268731   7.805131816222e-17  -4.636270451681e-17  -2.426442941556e-02
2
Properties=species:S:1:pos:R:3:forces:R:3 energy=-7.572061906666e+01 dipole="8.4684254879e-16 -8.3036477171e-16 -5.6353127647e-01" quadrupole="-8.0487423556e+00 -4.3358489109e-16 8.2235954818e-16 -4.3358489109e-16 -8.0487423556e+00 -9.4009961968e-16 8.2235954818e-16 -9.4009961968e-16 -6.1932763712e+00" polarizability="2.0650878831e+01 2.0250467969e-13 -9.4143456108e-15 2.0250467969e-13 2.0650878831e+01 1.1215160448e-14 -9.4143456108e-15 1.1215160448e-14 1.8609950359e+01" charge=-1 multiplicity=1 method=wB97M-V basis=def2-svpd config_type=oh- sample_index=65 temperature=300.0 units=atomic
O        -0.0000000000      -0.0000000000       0.1063095910   1.333849858522e-15   8.816713946342e-16  -1.652873141373e-02
H         0.0000000000       0.0000000000      -0.8761475729   7.493989668841e-17  -6.845470791420e-18   1.652721593700e-02
2
Properties=species:S:1:pos:R:3:forces:R:3 energy=-7.570652338204e+01 dipole="-4.6425154817e-16 7.9465692324e-16 -6.0785783360e-01" quadrupole="-7.9335613148e+00 -2.3487496296e-15 3.8641032911e-16 -2.3487496296e-15 -7.9335613148e+00 -8.4792877297e-16 3.8641032911e-16 -8.4792877297e-16 -6.1310401356e+00" polarizability="2.0559450096e+01 1.8063328611e-13 -1.1374500594e-14 1.8063328611e-13 2.0559450096e+01 -3.5526240125e-15 -1.1374500594e-14 -3.5526240125e-15 1.5911469677e+01" charge=-1 multiplicity=1 method=wB97M-V basis=def2-svpd config_type=oh- sample_index=66 temperature=300.0 units=atomic
O         0.0000000000       0.0000000000       0.0989181442  -3.732958559776e-16   7.190655770995e-17   1.605927000165e-01
H        -0.0000000000      -0.0000000000      -0.7578867136  -4.524266674069e-17   3.548502107509e-17  -1.605931443989e-01
2
Properties=species:S:1:pos:R:3:forces:R:3 energy=-7.571135536795e+01 dipole="-1.2855938675e-15 6.2067785676e-16 -6.0296363761e-01" quadrupole="-7.9516532702e+00 1.6831469466e-15 1.6391404002e-16 1.6831469466e-15 -7.9516532702e+00 -1.9161183745e-15 1.6391404002e-16 -1.9161183745e-15 -6.1390886524e+00" polarizability="2.0580638046e+01 -5.6343818500e-14 2.0674701845e-15 -5.6343818500e-14 2.0580638046e+01 7.6781320108e-15 2.0674701845e-15 7.6781320108e-15 1.6270023472e+01" charge=-1 multiplicity=1 method=wB97M-V basis=def2-svpd config_type=oh- sample_index=67 temperature=300.0 units=atomic
O         0.0000000000       0.0000000000       0.0999739148   2.262683178181e-16   9.530539497608e-16   1.250633633600e-01
H        -0.0000000000      -0.0000000000      -0.7747787175  -8.026767295446e-17  -1.485594755364e-17  -1.250596090414e-01
2
Properties=species:S:1:pos:R:3:forces:R:3 energy=-7.571894729326e+01 dipole="7.5498662476e-15 -1.6577711106e-15 -5.8798307597e-01" quadrupole="-7.9963575234e+00 -2.3133688222e-16 1.3417998527e-15 -2.3133688222e-16 -7.9963575234e+00 -6.5686202931e-16 1.3417998527e-15 -6.5686202931e-16 -6.1608276645e+00" polarizability="2.0622542906e+01 -2.6112445539e-13 9.1724872898e-15 -2.6112445539e-13 2.0622542906e+01 3.3922046588e-15 9.1724872898e-15 3.3922046588e-15 1.7247529867e+01" charge=-1 multiplicity=1 method=wB97M-V basis=def2-svpd config_type=oh- sample_index=68 temperature=300.0 units=atomic
O         0.0000000000       0.0000000000       0.1027306252   2.945867338038e-16  -6.769123578377e-17   5.037786675683e-02
H        -0.0000000000      -0.0000000000      -0.8188852300   3.463192683979e-17   6.477654328269e-17  -5.038116611985e-02
2
Properties=species:S:1:pos:R:3:forces:R:3 energy=-7.570569554259e+01 dipole="9.5090375910e-16 3.9314578787e-17 -4.8963614899e-01" quadrupole="-8.1405145582e+00 1.9109747789e-15 -8.1009837515e-16 1.9109747789e-15 -8.1405145582e+00 -5.6499991246e-16 -8.1009837515e-16 -5.6499991246e-16 -6.2995801824e+00" polarizability="2.0641137628e+01 -2.3897550605e-14 -2.9598186490e-14 -2.3897550605e-14 2.0641137628e+01 8.2546117033e-15 -2.9598186490e-14 8.2546117033e-15 2.1964720899e+01" charge=-1 multiplicity=1 method=wB97M-V basis=def2-svpd config_type=oh- sample_index=69 temperature=300.0 units=atomic
O        -0.0000000000      -0.0000000000       0.1141139049   7.005352101870e-16   1.962690158049e-16  -9.004145459211e-02
H         0.0000000000       0.0000000000      -1.0010141791   4.264165852183e-17   1.732100254891e-17   9.004273323629e-02
2
Properties=species:S:1:pos:R:3:forces:R:3 energy=-7.572088828776e+01 dipole="-1.5135077704e-17 2.4639858806e-15 -5.7270689809e-01" quadrupole="-8.0312367839e+00 -2.0405480401e-15 9.9379514378e-16 -2.0405480401e-15 -8.0312367839e+00 -2.3262357847e-15 9.9379514378e-16 -2.3262357847e-15 -6.1811983172e+00" polarizability="2.0644054811e+01 3.0508928717e-13 -1.5055927973e-14 3.0508928717e-13 2.0644054811e+01 2.4040221766e-14 -1.5055927973e-14 2.4040221766e-14 1.8123187815e+01" charge=-1 multiplicity=1 method=wB97M-V basis=def2-svpd config_type=oh- sample_index=70 temperature=300.0 units=atomic
O         0.0000000000       0.0000000000       0.1050632620   2.612000869860e-17   3.249247514747e-16   3.589037224327e-03
H        -0.0000000000      -0.0000000000      -0.8562066952  -1.004093104019e-16   2.556259251287e-17  -3.587585583214e-03
2
Properties=species:S:1:pos:R:3:forces:R:3 energy=-7.571860526415e+01 dipole="-8.3045983499e-15 -1.8932755979e-15 -5.8919176248e-01" quadrupole="-7.9932091641e+00 -1.6624892862e-16 -2.1638125810e-16 -1.6624892862e-16 -7.9932091641e+00 6.9502753887e-17 -2.1638125810e-16 6.9502753887e-17 -6.1591699821e+00" polarizability="2.0620103181e+01 -8.0740969466e-14 -9.8431220298e-15 -8.0740969466e-14 2.0620103181e+01 -1.1591686383e-14 -9.8431220298e-15 -1.1591686383e-14 1.7173836448e+01" charge=-1 multiplicity=1 method=wB97M-V basis=def2-svpd config_type=oh- sample_index=71 temperature=300.0 units=atomic
O         0.0000000000       0.0000000000       0.1025286553   8.806016891119e-16   8.600137241671e-16   5.507071298865e-02
H        -0.0000000000      -0.0000000000      -0.8156537727   5.642028483481e-17  -2.759512933545e-17  -5.507448229673e-02
2
Properties=species:S:1:pos:R:3:forces:R:3 energy=-7.571567526088e+01 dipole="1.5051633677e-15 -4.0810559273e-16 -5.9646744304e-01" quadrupole="-7.9727035043e+00 8.2394240681e-15 -1.2587202489e-15 8.2394240681e-15 -7.9727035043e+00 3.4679863075e-16 -1.2587202489e-15 3.4679863075e-16 -6.1489010129e+00" polarizability="2.0602287229e+01 1.5065726444e-13 6.5833860625e-16 1.5065726444e-13 2.0602287229e+01 -9.0834097352e-15 6.5833860625e-16 -9.0834097352e-15 1.6712675612e+01" charge=-1 multiplicity=1 method=wB97M-V basis=def2-svpd config_type=oh- sample_index=72 temperature=300.0 units=atomic
O         0.0000000000       0.0000000000       0.1012435086   6.787851144921e-17   2.006012431656e-17   8.768408390694e-02
H        -0.0000000000      -0.0000000000      -0.7950918247  -5.045889811093e-19  -5.106369953390e-17  -8.768517632082e-02
2
Properties=species:S:1:pos:R:3:forces:R:3 energy=-7.571938285018e+01 dipole="8.8601507603e-16 1.5974057824e-15 -5.5201960108e-01" quadrupole="-8.0680079028e+00 1.1848527354e-15 -9.7411308076e-16 1.1848527354e-15 -8.0680079028e+00 -1.4428906404e-15 -9.7411308076e-16 -1.4428906404e-15 -6.2085864811e+00" polarizability="2.0655209271e+01 2.1760371283e-14 -1.3840747078e-14 2.1760371283e-14 2.0655209271e+01 -4.0209367013e-15 -1.3840747078e-14 -4.0209367013e-15 1.9189857504e+01" charge=-1 multiplicity=1 method=wB97M-V basis=def2-svpd config_type=oh- sample_index=73 temperature=300.0 units=atomic
O        -0.0000000000      -0.0000000000       0.1077514674  -4.341525402627e-16  -4.026695500007e-16  -3.625805750595e-02
H         0.0000000000       0.0000000000      -0.8992171488  -7.467005512827e-17   1.052603790496e-17   3.625725793842e-02
2
Properties=species:S:1:pos:R:3:forces:R:3 energy=-7.570103974658e+01 dipole="-1.7259318505e-15 3.3519432241e-15 -6.1190969437e-01" quadrupole="-7.9167118113e+00 3.8802607410e-16 1.3134460277e-15 3.8802607410e-16 -7.9167118113e+00 -2.1427755980e-15 1.3134460277e-15 -2.1427755980e-15 -6.1237304106e+00" polarizability="2.0537696737e+01 3.4683367289e-13 -1.2208668675e-14 3.4683367289e-13 2.0537696737e+01 4.4718445961e-14 -1.2208668675e-14 4.4718445961e-14 1.5593736773e+01" charge=-1 multiplicity=1 method=wB97M-V basis=def2-svpd config_type=oh- sample_index=74 temperature=300.0 units=atomic
O         0.0000000000       0.0000000000       0.0979609775  -3.486854631686e-16  -4.109785666925e-17   1.967458161371e-01
H        -0.0000000000      -0.0000000000      -0.7425723431   6.517846842172e-17   5.220287564428e-17  -1.967499257015e-01
2
Properties=species:S:1:pos:R:3:forces:R:3 energy=-7.571468050755e+01 dipole="-1.1456438508e-15 1.7023839921e-15 -5.2670741685e-01" quadrupole="-8.1026278980e+00 1.4401881466e-15 2.5106945065e-15 1.4401881466e-15 -8.1026278980e+00 2.0205528206e-16 2.5106945065e-15 2.0205528206e-16 -6.2436280699e+00" polarizability="2.0654465016e+01 2.0827783942e-13 -1.2592385537e-14 2.0827783942e-13 2.0654465016e+01 3.3034150915e-15 -1.2592385537e-14 3.3034150915e-15 2.0376115011e+01" charge=-1 multiplicity=1 method=wB97M-V basis=def2-svpd config_type=oh- sample_index=75 temperature=300.0 units=atomic
O        -0.0000000000      -0.0000000000       0.1105704360   4.564242295301e-16  -1.773897055964e-16  -6.579870445840e-02
H         0.0000000000       0.0000000000      -0.9443197733  -5.261627901112e-17  -2.423883786119e-17   6.579905331822e-02
2
Properties=species:S:1:pos:R:3:forces:R:3 energy=-7.571917286901e+01 dipole="-8.1950805138e-16 -8.7919503191e-16 -5.5055628854e-01" quadrupole="-8.0702746797e+00 4.3181838985e-15 1.6918328476e-15 4.3181838985e-15 -8.0702746797e+00 2.4252994318e-15 1.6918328476e-15 2.4252994318e-15 -6.2105546853e+00" polarizability="2.0655497291e+01 2.9642954757e-14 6.4333725442e-15 2.9642954757e-14 2.0655497291e+01 -6.7755343380e-15 6.4333725442e-15 -6.7755343380e-15 1.9261488547e+01" charge=-1 multiplicity=1 method=wB97M-V basis=def2-svpd config_type=oh- sample_index=76 temperature=300.0 units=atomic
O        -0.0000000000      -0.0000000000       0.1079265022  -6.200440533664e-16  -3.649244011030e-16  -3.841972280634e-02
H         0.0000000000       0.0000000000      -0.9020176520   1.114533346783e-17  -4.987499040794e-17   3.841928947034e-02
2
Properties=species:S:1:pos:R:3:forces:R:3 energy=-7.571642097046e+01 dipole="-4.8270731574e-16 2.4361494393e-15 -5.9496209751e-01" quadrupole="-7.9771842136e+00 -1.8890788245e-15 2.4757166294e-15 -1.8890788245e-15 -7.9771842136e+00 -1.1897583479e-15 2.4757166294e-15 -1.1897583479e-15 -6.1510751531e+00" polarizability="2.0606461341e+01 1.6903145550e-13 -1.8367817346e-15 1.6903145550e-13 2.0606461341e+01 -9.1206375140e-15 -1.8367817346e-15 -9.1206375140e-15 1.6810777558e+01" charge=-1 multiplicity=1 method=wB97M-V basis=def2-svpd config_type=oh- sample_index=77 temperature=300.0 units=atomic
O         0.0000000000       0.0000000000       0.1015200253   1.155226045000e-15   3.827242329648e-16   8.024733679860e-02
H        -0.0000000000      -0.0000000000      -0.7995160064  -1.877623735686e-16  -5.954644590878e-18  -8.024975924203e-02
2
Properties=species:S:1:pos:R:3:forces:R:3 energy=-7.572088962397e+01 dipole="1.0940980697e-15 -1.8080386381e-15 -5.7262241346e-01" quadrupole="-8.0314081692e+00 2.2567996148e-15 -3.3869085485e-15 2.2567996148e-15 -8.0314081692e+00 5.2652644796e-16 -3.3869085485e-15 5.2652644796e-16 -6.1813094908e+00" polarizability="2.0644134760e+01 1.5631940187e-13 2.9946071997e-14 1.5631940187e-13 2.0644134760e+01 -1.0670518390e-14 2.9946071997e-14 -1.0670518390e-14 1.8127785967e+01" charge=-1 multiplicity=1 method=wB97M-V basis=def2-svpd config_type=oh- sample_index=78 temperature=300.0 units=atomic
O         0.0000000000       0.0000000000       0.1050751970  -1.438811553308e-16  -5.522848751968e-16   3.381594588128e-03
H        -0.0000000000      -0.0000000000      -0.8563976516   1.401995809884e-18   1.275061965809e-17  -3.380167156307e-03
2
Properties=species:S:1:pos:R:3:forces:R:3 energy=-7.569611991284e+01 dipole="8.2166223635e-15 1.0818524949e-14 -6.1473753423e-01" quadrupole="-7.9036951723e+00 4.7556011597e-15 -2.9439280825e-16 4.7556011597e-15 -7.9036951723e+00 -5.5897038800e-16 -2.9439280825e-16 -5.5897038800e-16 -6.1181438706e+00" polarizability="2.0519620108e+01 2.8255175977e-13 -7.1817379683e-15 2.8255175977e-13 2.0519620108e+01 -7.0651426297e-15 -7.1817379683e-15 -7.0651426297e-15 1.5358028194e+01" charge=-1 multiplicity=1 method=wB97M-V basis=def2-svpd config_type=oh- sample_index=79 temperature=300.0 units=atomic
O         0.0000000000       0.0000000000       0.0972371744   5.979888337245e-17   4.952606682939e-16   2.268445705857e-01
H        -0.0000000000      -0.0000000000      -0.7309917177   1.275042797063e-16  -1.548390550473e-16  -2.268455664957e-01
2
Properties=species:S:1:pos:R:3:forces:R:3 energy=-7.572073947400e+01 dipole="1.9323661632e-15 8.6582526900e-16 -5.7651390786e-01" quadrupole="-8.0232942273e+00 1.6728387163e-15 -5.2202463488e-15 1.6728387163e-15 -8.0232942273e+00 -1.5571874691e-15 -5.2202463488e-15 -1.5571874691e-15 -6.1761814972e+00" polarizability="2.0640068052e+01 -1.7763568394e-14 4.1266194764e-14 -1.7763568394e-14 2.0640068052e+01 6.1673826871e-16 4.1266194764e-14 6.1673826871e-16 1.7913486387e+01" charge=-1 multiplicity=1 method=wB97M-V basis=def2-svpd config_type=oh- sample_index=80 temperature=300.0 units=atomic
O         0.0000000000       0.0000000000       0.1045155772  -3.719215485952e-16   1.106184586990e-15   1.343601026891e-02
H        -0.0000000000      -0.0000000000      -0.8474439088   1.030786487890e-17  -1.586422859920e-16  -1.343398367792e-02
2
Properties=species:S:1:pos:R:3:forces:R:3 energy=-7.571931064696e+01 dipole="-2.7075193111e-15 1.7130883096e-15 -5.5150840832e-01" quadrupole="-8.0688040697e+00 5.5517568594e-16 2.7908775267e-15 5.5517568594e-16 -8.0688040697e+00 -6.3018308258e-16 2.7908775267e-15 -6.3018308258e-16 -6.2092733860e+00" polarizability="2.0655315778e+01 1.4388490399e-13 1.7032808114e-14 1.4388490399e-13 2.0655315778e+01 2.9301365351e-14 1.7032808114e-14 2.9301365351e-14 1.9214930237e+01" charge=-1 multiplicity=1 method=wB97M-V basis=def2-svpd config_type=oh- sample_index=81 temperature=300.0 units=atomic
O        -0.0000000000      -0.0000000000       0.1078128086   4.504395412651e-16   5.791529291153e-16  -3.702105660715e-02
H         0.0000000000       0.0000000000      -0.9001985899   3.350617154719e-17   8.284993644611e-17   3.702038371043e-02
2
Properties=species:S:1:pos:R:3:forces:R:3 energy=-7.572031188119e+01 dipole="-1.5000829996e-15 -1.8461539051e-15 -5.5982619782e-01" quadrupole="-8.0552391271e+00 8.5487064152e-16 2.8545835468e-16 8.5487064152e-16 -8.0552391271e+00 1.5688869334e-15 2.8545835468e-16 1.5688869334e-15 -6.1981755045e+00" polarizability="2.0652713991e+01 -1.7719159473e-13 -1.4044166961e-14 -1.7719159473e-13 2.0652713991e+01 -3.2900888546e-15 -1.4044166961e-14 -3.2900888546e-15 1.8799979401e+01" charge=-1 multiplicity=1 method=wB97M-V basis=def2-svpd config_type=oh- sample_index=82 temperature=300.0 units=atomic
O        -0.0000000000      -0.0000000000       0.1067870577   2.984426812392e-16  -4.455002062750e-17  -2.345752216914e-02
H         0.0000000000       0.0000000000      -0.8837868922   3.577510113401e-17   5.942389914652e-17   2.345559897967e-02
2
Properties=species:S:1:pos:R:3:forces:R:3 energy=-7.571650252215e+01 dipole="4.5122704290e-16 -1.6556707555e-15 -5.3537830877e-01" quadrupole="-8.0917699716e+00 -1.9721398672e-15 -2.1023575939e-15 -1.9721398672e-15 -8.0917699716e+00 2.0045495525e-15 -2.1023575939e-15 2.0045495525e-15 -6.2313658497e+00" polarizability="2.0655884586e+01 2.4424906542e-13 7.6297260602e-15 2.4424906542e-13 2.0655884586e+01 -3.3396048508e-14 7.6297260602e-15 -3.3396048508e-14 1.9981305424e+01" charge=-1 multiplicity=1 method=wB97M-V basis=def2-svpd config_type=oh- sample_index=83 temperature=300.0 units=atomic
O        -0.0000000000      -0.0000000000       0.1096504007   3.686216468571e-16  -3.212084697787e-16  -5.731895185376e-02
H         0.0000000000       0.0000000000      -0.9295994937  -6.293848432524e-17  -5.606962976389e-17   5.732022454294e-02
2
Properties=species:S:1:pos:R:3:forces:R:3 energy=-7.571503899085e+01 dipole="-1.2524335888e-15 1.1269652760e-15 -5.2835423828e-01" quadrupole="-8.1006355433e+00 5.5985118466e-15 3.1785832073e-15 5.5985118466e-15 -8.1006355433e+00 8.5094007242e-16 3.1785832073e-15 8.5094007242e-16 -6.2412764785e+00" polarizability="2.0654805588e+01 9.0150109600e-14 -2.0066840625e-14 9.0150109600e-14 2.0654805588e+01 -1.1279413641e-14 -2.0066840625e-14 -1.1279413641e-14 2.0301940795e+01" charge=-1 multiplicity=1 method=wB97M-V basis=def2-svpd config_type=oh- sample_index=84 temperature=300.0 units=atomic
O        -0.0000000000      -0.0000000000       0.1103988928  -2.785600024180e-17  -1.440796080598e-15  -6.429520820554e-02
H         0.0000000000       0.0000000000      -0.9415751359   5.317120799643e-17  -1.847950247734e-17   6.429574998707e-02
2
Properties=species:S:1:pos:R:3:forces:R:3 energy=-7.571896634150e+01 dipole="-5.1693867837e-15 -1.4648454182e-15 -5.8791189549e-01" quadrupole="-7.9965408637e+00 2.0387495560e-15 1.3574890577e-15 2.0387495560e-15 -7.9965408637e+00 1.0439698746e-16 1.3574890577e-15 1.0439698746e-16 -6.1609249560e+00" polarizability="2.0622682511e+01 -1.1657341759e-13 -3.8634319806e-15 -1.1657341759e-13 2.0622682511e+01 9.8927838351e-15 -3.8634319806e-15 9.8927838351e-15 1.7251846312e+01" charge=-1 multiplicity=1 method=wB97M-V basis=def2-svpd config_type=oh- sample_index=85 temperature=300.0 units=atomic
O         0.0000000000       0.0000000000       0.1027424269   9.755424894003e-16   5.588742958013e-16   5.010708883080e-02
H        -0.0000000000      -0.0000000000      -0.8190740531  -9.041338165517e-17  -1.963750024376e-17  -5.011035462387e-02
2
Properties=species:S:1:pos:R:3:forces:R:3 energy=-7.571927015153e+01 dipole="-1.2945104907e-15 2.1371875014e-15 -5.8671095998e-01" quadrupole="-7.9996003726e+00 4.3201350917e-15 4.4532424053e-15 4.3201350917e-15 -7.9996003726e+00 -1.2463884085e-15 4.4532424053e-15 -1.2463884085e-15 -6.1625612833e+00" polarizability="2.0624971890e+01 9.3702823278e-14 -3.4829128430e-14 9.3702823278e-14 2.0624971890e+01 1.6594573386e-15 -3.4829128430e-14 1.6594573386e-15 1.7324289806e+01" charge=-1 multiplicity=1 method=wB97M-V basis=def2-svpd config_type=oh- sample_index=86 temperature=300.0 units=atomic
O         0.0000000000       0.0000000000       0.1029400316  -7.584038140215e-16  -1.166337598534e-16   4.562878654187e-02
H        -0.0000000000      -0.0000000000      -0.8222356669  -1.014143747839e-16  -5.121238807433e-17  -4.563140797118e-02
2
Properties=species:S:1:pos:R:3:forces:R:3 energy=-7.571176590269e+01 dipole="5.1382303984e-16 -1.9543019667e-15 -6.0245913038e-01" quadrupole="-7.9533990307e+00 1.8558920590e-15 -3.4753865607e-15 1.8558920590e-15 -7.9533990307e+00 2.7767935583e-15 -3.4753865607e-15 2.7767935583e-15 -6.1398811436e+00" polarizability="2.0582558790e+01 1.7374990335e-13 3.1897786797e-14 1.7374990335e-13 2.0582558790e+01 -2.8290681048e-14 3.1897786797e-14 -2.8290681048e-14 1.6305648229e+01" charge=-1 multiplicity=1 method=wB97M-V basis=def2-svpd config_type=oh- sample_index=87 temperature=300.0 units=atomic
O         0.0000000000       0.0000000000       0.1000774494   4.388648756903e-16  -3.852530895345e-16   1.218057396985e-01
H        -0.0000000000      -0.0000000000      -0.7764352383   7.483715685668e-17   2.247964007689e-17  -1.218020231075e-01
2
Properties=species:S:1:pos:R:3:forces:R:3 energy=-7.571868495201e+01 dipole="1.5746779757e-15 -6.2778855813e-16 -5.4738604310e-01" quadrupole="-8.0750594812e+00 6.4886887603e-15 -1.0165480822e-15 6.4886887603e-15 -8.0750594812e+00 -4.4016985259e-16 -1.0165480822e-15 -4.4016985259e-16 -6.2148397358e+00" polarizability="2.0655950958e+01 1.5720758029e-13 1.2297104461e-14 1.5720758029e-13 2.0655950958e+01 -6.8965354814e-15 1.2297104461e-14 -6.8965354814e-15 1.9415229808e+01" charge=-1 multiplicity=1 method=wB97M-V basis=def2-svpd config_type=oh- sample_index=88 temperature=300.0 units=atomic
O        -0.0000000000      -0.0000000000       0.1082999889  -3.019463083897e-16   9.126920827972e-16  -4.287526538526e-02
H         0.0000000000       0.0000000000      -0.9079933228  -6.700575857575e-17  -4.721771995505e-17   4.287560273772e-02
2
Properties=species:S:1:pos:R:3:forces:R:3 energy=-7.570423183117e+01 dipole="6.9972962284e-16 8.3818263356e-16 -6.0969662503e-01" quadrupole="-7.9261513821e+00 5.7876090626e-15 1.2763848158e-15 5.7876090626e-15 -7.9261513821e+00 -1.2399662274e-15 1.2763848158e-15 -1.2399662274e-15 -6.1278098085e+00" polarizability="2.0550117098e+01 -2.5168755968e-13 -6.1773582584e-15 -2.5168755968e-13 2.0550117098e+01 3.0036020433e-15 -6.1773582584e-15 3.0036020433e-15 1.5769911789e+01" charge=-1 multiplicity=1 method=wB97M-V basis=def2-svpd config_type=oh- sample_index=89 temperature=300.0 units=atomic
O         0.0000000000       0.0000000000       0.0984942717  -2.921816500496e-16   7.407016662507e-16   1.761139323808e-01
H        -0.0000000000      -0.0000000000      -0.7511048855  -1.103974947706e-16   3.228149158397e-17  -1.761167746590e-01
2
Properties=species:S:1:pos:R:3:forces:R:3 energy=-7.572055447908e+01 dipole="-9.4922250829e-16 -4.7635017567e-16 -5.6264373332e-01" quadrupole="-8.0503262776e+00 2.0508452380e-15 4.9270092779e-15 2.0508452380e-15 -8.0503262776e+00 1.6385952870e-15 4.9270092779e-15 1.6385952870e-15 -6.1944480668e+00" polarizability="2.0651361208e+01 -2.9282132274e-15 -4.1927886455e-14 -2.9282132274e-15 2.0651361208e+01 1.8718881518e-15 -4.1927886455e-14 1.8718881518e-15 1.8655786903e+01" charge=-1 multiplicity=1 method=wB97M-V basis=def2-svpd config_type=oh- sample_index=90 temperature=300.0 units=atomic
O        -0.0000000000      -0.0000000000       0.1064252155   1.353917820595e-15   2.805012566218e-16  -1.824430202153e-02
H         0.0000000000       0.0000000000      -0.8779975305  -5.187342032229e-17  -5.549840452701e-17   1.824262416571e-02
2
Properties=species:S:1:pos:R:3:forces:R:3 energy=-7.570671026922e+01 dipole="-2.6963066829e-15 1.2321552575e-15 -6.0769671631e-01" quadrupole="-7.9341933011e+00 2.2232785732e-15 2.0897895641e-15 2.2232785732e-15 -7.9341933011e+00 -4.0123599086e-16 2.0897895641e-15 -4.0123599086e-16 -6.1313170909e+00" polarizability="2.0560228824e+01 -5.7870375159e-15 -1.4728740712e-14 -5.7870375159e-15 2.0560228824e+01 -1.5068995716e-14 -1.4728740712e-14 -1.5068995716e-14 1.5923680409e+01" charge=-1 multiplicity=1 method=wB97M-V basis=def2-svpd config_type=oh- sample_index=91 temperature=300.0 units=atomic
O         0.0000000000       0.0000000000       0.0989545171  -3.347768554771e-16  -8.166789805611e-17   1.592956613687e-01
H        -0.0000000000      -0.0000000000      -0.7584686686  -3.109466132350e-17  -7.446106542793e-17  -1.592958804720e-01
2
Properties=species:S:1:pos:R:3:forces:R:3 energy=-7.572013389121e+01 dipole="3.7962653328e-15 -4.7776936243e-16 -5.5807079786e-01" quadrupole="-8.0582147869e+00 -1.1452976832e-15 -1.8144045319e-15 -1.1452976832e-15 -8.0582147869e+00 -1.9331415312e-15 -1.8144045319e-15 -1.9331415312e-15 -6.2005048606e+00" polarizability="2.0653427529e+01 -1.9273471707e-13 -3.1836368638e-15 -1.9273471707e-13 2.0653427529e+01 5.6787110478e-15 -3.1836368638e-15 5.6787110478e-15 1.8888842302e+01" charge=-1 multiplicity=1 method=wB97M-V basis=def2-svpd config_type=oh- sample_index=92 temperature=300.0 units=atomic
O        -0.0000000000      -0.0000000000       0.1070086445  -1.767571176035e-16  -2.861688224209e-16  -2.653647023069e-02
H         0.0000000000       0.0000000000      -0.8873322128   6.138531246331e-17   6.709714636887e-17   2.653459909373e-02
2
Properties=species:S:1:pos:R:3:forces:R:3 energy=-7.571878953586e+01 dipole="1.8093290196e-16 -8.0161645751e-16 -5.4804268140e-01" quadrupole="-8.0740822400e+00 1.0166584283e-15 8.5097407288e-16 1.0166584283e-15 -8.0740822400e+00 -5.9143504682e-16 8.5097407288e-16 -5.9143504682e-16 -6.2139497480e+00" polarizability="2.0655875348e+01 -9.7255536957e-14 -1.7048376963e-14 -9.7255536957e-14 2.0655875348e+01 2.5235130988e-16 -1.7048376963e-14 2.5235130988e-16 1.9383544566e+01" charge=-1 multiplicity=1 method=wB97M-V basis=def2-svpd config_type=oh- sample_index=93 temperature=300.0 units=atomic
O        -0.0000000000      -0.0000000000       0.1082232573  -1.449129901170e-16   2.745539535250e-16  -4.197703959701e-02
H         0.0000000000       0.0000000000      -0.9067656424  -1.625239333414e-17   6.101539267926e-17   4.197722601377e-02
2
Properties=species:S:1:pos:R:3:forces:R:3 energy=-7.572061515780e+01 dipole="-6.0970655265e-15 -1.5985579592e-16 -5.7817842727e-01" quadrupole="-8.0196795812e+00 -3.0747645933e-15 3.9919391029e-15 -3.0747645933e-15 -8.0196795812e+00 -1.8744731885e-15 3.9919391029e-15 -1.8744731885e-15 -6.1739811093e+00" polarizability="2.0638072447e+01 2.4602542226e-13 -1.8468672398e-14 2.4602542226e-13 2.0638072447e+01 5.3327003288e-15 -1.8468672398e-14 5.3327003288e-15 1.7820183853e+01" charge=-1 multiplicity=1 method=wB97M-V basis=def2-svpd config_type=oh- sample_index=94 temperature=300.0 units=atomic
O         0.0000000000       0.0000000000       0.1042697387   4.205884977080e-16   1.331522419986e-15   1.807061116357e-02
H        -0.0000000000      -0.0000000000      -0.8435105688   3.540405883230e-17  -5.025852377348e-17  -1.806875351847e-02
2
Properties=species:S:1:pos:R:3:forces:R:3 energy=-7.571535915571e+01 dipole="-9.5021357950e-16 -4.9494115688e-15 -5.9705887344e-01" quadrupole="-7.9709055317e+00 -4.0643237743e-16 -1.8192373927e-15 -4.0643237743e-16 -7.9709055317e+00 2.7633593533e-15 -1.8192373927e-15 2.7633593533e-15 -6.1480381378e+00" polarizability="2.0600568791e+01 1.6686652060e-13 -1.0101067405e-14 1.6686652060e-13 2.0600568791e+01 -1.1842529165e-14 -1.0101067405e-14 -1.1842529165e-14 1.6673709213e+01" charge=-1 multiplicity=1 method=wB97M-V basis=def2-svpd config_type=oh- sample_index=95 temperature=300.0 units=atomic
O         0.0000000000       0.0000000000       0.1011331954   8.526531239951e-16   7.864359140726e-16   9.071833091751e-02
H        -0.0000000000      -0.0000000000      -0.7933268468   3.319164453147e-17  -7.538113846622e-18  -9.071883599371e-02
2
Properties=species:S:1:pos:R:3:forces:R:3 energy=-7.572078349766e+01 dipole="1.2220606741e-15 -8.4554305485e-16 -5.7575759194e-01" quadrupole="-8.0249073041e+00 5.3642539579e-15 -1.0335750517e-15 5.3642539579e-15 -8.0249073041e+00 1.0715472935e-15 -1.0335750517e-15 1.0715472935e-15 -6.1771796202e+00" polarizability="2.0640922184e+01 1.1546319456e-13 -8.7019388464e-15 1.1546319456e-13 2.0640922184e+01 2.7352178466e-15 -8.7019388464e-15 2.7352178466e-15 1.7955546992e+01" charge=-1 multiplicity=1 method=wB97M-V basis=def2-svpd config_type=oh- sample_index=96 temperature=300.0 units=atomic
O         0.0000000000       0.0000000000       0.1046259631  -2.775995445748e-16   4.816652659373e-17   1.139892255149e-02
H        -0.0000000000      -0.0000000000      -0.8492100492  -7.809573623263e-18  -1.974827427626e-17  -1.139691336337e-02
2
Properties=species:S:1:pos:R:3:forces:R:3 energy=-7.571953077920e+01 dipole="4.3769862702e-16 9.8446657884e-17 -5.5309651940e-01" quadrupole="-8.0663152956e+00 -5.6882703793e-17 -1.0456604448e-15 -5.6882703793e-17 -8.0663152956e+00 1.3815301984e-15 -1.0456604448e-15 1.3815301984e-15 -6.2071416682e+00" polarizability="2.0654963639e+01 -1.1635137298e-13 -1.3125230162e-14 -1.1635137298e-13 2.0654963639e+01 -2.8032863494e-15 -1.3125230162e-14 -2.8032863494e-15 1.9136861603e+01" charge=-1 multiplicity=1 method=wB97M-V basis=def2-svpd config_type=oh- sample_index=97 temperature=300.0 units=atomic
O        -0.0000000000      -0.0000000000       0.1076215455   3.557289140560e-16  -2.794674248144e-16  -3.462241228800e-02
H         0.0000000000       0.0000000000      -0.8971384399   1.638356241173e-17  -6.638526419763e-17   3.462135506790e-02
2
Properties=species:S:1:pos:R:3:forces:R:3 energy=-7.571450321369e+01 dipole="-1.9979057790e-16 -1.3046834535e-15 -5.2590162243e-01" quadrupole="-8.1035914411e+00 -9.0423996382e-17 1.0588237151e-15 -9.0423996382e-17 -8.1035914411e+00 -7.7017506325e-16 1.0588237151e-15 -7.7017506325e-16 -6.2447826738e+00" polarizability="2.0654287540e+01 6.5947247663e-14 -1.4637931409e-14 6.5947247663e-14 2.0654287540e+01 -5.4835602230e-15 -1.4637931409e-14 -5.4835602230e-15 2.0412276917e+01" charge=-1 multiplicity=1 method=wB97M-V basis=def2-svpd config_type=oh- sample_index=98 temperature=300.0 units=atomic
O        -0.0000000000      -0.0000000000       0.1106538535   4.132189527869e-16  -5.127575645857e-16  -6.651741955989e-02
H         0.0000000000       0.0000000000      -0.9456544280   4.108230556483e-18  -1.528707243876e-17   6.651767843355e-02
2
Properties=species:S:1:pos:R:3:forces:R:3 energy=-7.571397819115e+01 dipole="3.0974403218e-15 1.5288095033e-15 -5.2354588423e-01" quadrupole="-8.1063667945e+00 -2.1902222977e-16 -6.0931479710e-15 -2.1902222977e-16 -8.1063667945e+00 -1.8125323849e-15 -6.0931479710e-15 -1.8125323849e-15 -6.2481732336e+00" polarizability="2.0653730186e+01 -2.1405099915e-13 1.8299033289e-14 -2.1405099915e-13 2.0653730186e+01 -3.6871673520e-16 1.8299033289e-14 -3.6871673520e-16 2.0517511823e+01" charge=-1 multiplicity=1 method=wB97M-V basis=def2-svpd config_type=oh- sample_index=99 temperature=300.0 units=atomic
O        -0.0000000000      -0.0000000000       0.1108958171  -3.918965519379e-16   7.277870118534e-16  -6.855704052757e-02
H         0.0000000000       0.0000000000      -0.9495257707  -4.769635920566e-17  -3.964766489023e-17   6.855706410480e-02
2
Properties=species:S:1:pos:R:3:forces:R:3 energy=-7.571969652083e+01 dipole="2.0385800545e-15 -3.5071897465e-16 -5.8476139197e-01" quadrupole="-8.0044360536e+00 -1.4019564362e-15 -1.6344331700e-15 -1.4019564362e-15 -8.0044360536e+00 2.3657641774e-15 -1.6344331700e-15 2.3657641774e-15 -6.1651989396e+00" polarizability="2.0628434247e+01 1.9184653866e-13 1.0804492353e-14 1.9184653866e-13 2.0628434247e+01 -2.3009452466e-14 1.0804492353e-14 -2.3009452466e-14 1.7440407847e+01" charge=-1 multiplicity=1 method=wB97M-V basis=def2-svpd config_type=oh- sample_index=100 temperature=300.0 units=atomic
O         0.0000000000       0.0000000000       0.1032549547  -1.104893498316e-15  -8.336508554767e-16   3.870421448476e-02
H        -0.0000000000      -0.0000000000      -0.8272743389  -1.365920696527e-16  -3.555592034740e-17  -3.870559205196e-02
2
Properties=species:S:1:pos:R:3:forces:R:3 energy=-7.571583488239e+01 dipole="-1.1160399243e-15 -8.2926145467e-16 -5.9615887011e-01" quadrupole="-7.9736330322e+00 -5.1809244533e-15 -1.8085521188e-16 -5.1809244533e-15 -7.9736330322e+00 1.0918882414e-15 -1.8085521188e-16 1.0918882414e-15 -6.1493492026e+00" polarizability="2.0603165896e+01 9.0483176507e-14 2.2931900548e-14 9.0483176507e-14 2.0603165896e+01 -4.3558414876e-15 2.2931900548e-14 -4.3558414876e-15 1.6732909621e+01" charge=-1 multiplicity=1 method=wB97M-V basis=def2-svpd config_type=oh- sample_index=101 temperature=300.0 units=atomic
O         0.0000000000       0.0000000000       0.1013006828  -3.614849231278e-16  -8.783781548985e-16   8.612671881697e-02
H        -0.0000000000      -0.0000000000      -0.7960065931   1.001492510625e-16   9.228069840557e-17  -8.612810609710e-02
2
Properties=species:S:1:pos:R:3:forces:R:3 energy=-7.572078504565e+01 dipole="1.6447154939e-15 1.2272503545e-15 -5.6639198147e-01" quadrupole="-8.0435124265e+00 2.1709476445e-15 -3.3927796224e-15 2.1709476445e-15 -8.0435124265e+00 -6.6483491098e-16 -3.3927796224e-15 -6.6483491098e-16 -6.1895059265e+00" polarizability="2.0649124787e+01 -1.8296475446e-13 1.4632127659e-14 -1.8296475446e-13 2.0649124787e+01 1.1711514643e-14 1.4632127659e-14 1.1711514643e-14 1.8460788920e+01" charge=-1 multiplicity=1 method=wB97M-V basis=def2-svpd config_type=oh- sample_index=102 temperature=300.0 units=atomic
O        -0.0000000000      -0.0000000000       0.1059312884   3.448444871476e-16   1.535607369330e-16  -1.074223481592e-02
H         0.0000000000       0.0000000000      -0.8700948494  -3.022182897260e-17  -2.739081978240e-17   1.074148846151e-02
2
Properties=species:S:1:pos:R:3:forces:R:3 energy=-7.571662580163e+01 dipole="-9.7855594816e-16 1.8247127856e-15 -5.3599732727e-01" quadrupole="-8.0909585760e+00 -2.8240998255e-15 2.2498957974e-15 -2.8240998255e-15 -8.0909585760e+00 -1.7469356338e-15 2.2498957974e-15 -1.7469356338e-15 -6.2305014575e+00" polarizability="2.0655947304e+01 2.1893598046e-13 -1.0934557444e-14 2.1893598046e-13 2.0655947304e+01 1.3183323662e-14 -1.0934557444e-14 1.3183323662e-14 1.9952700169e+01" charge=-1 multiplicity=1 method=wB97M-V basis=def2-svpd config_type=oh- sample_index=103 temperature=300.0 units=atomic
O        -0.0000000000      -0.0000000000       0.1095830637   7.644045883598e-16   3.293557309398e-16  -5.665697823047e-02
H         0.0000000000       0.0000000000      -0.9285221228  -3.095607451233e-17   5.040248368956e-17   5.665828823585e-02
2
Properties=species:S:1:pos:R:3:forces:R:3 energy=-7.571703634781e+01 dipole="-1.5660216764e-15 1.2629968604e-16 -5.9357953167e-01" quadrupole="-7.9811839584e+00 -9.4768201921e-16 2.0258709087e-15 -9.4768201921e-16 -7.9811839584e+00 -7.2564217796e-16 2.0258709087e-15 -7.2564217796e-16 -6.1530464915e+00" polarizability="2.0610055736e+01 -6.3393734706e-14 -2.8259439087e-14 -6.3393734706e-14 2.0610055736e+01 -6.5131077392e-15 -2.8259439087e-14 -6.5131077392e-15 1.6899575142e+01" charge=-1 multiplicity=1 method=wB97M-V basis=def2-svpd config_type=oh- sample_index=104 temperature=300.0 units=atomic
O         0.0000000000       0.0000000000       0.1017688398   9.144722334468e-16   3.931348720846e-16   7.375759335511e-02
H        -0.0000000000      -0.0000000000      -0.8034969614  -5.324442669950e-17  -3.732942154349e-17  -7.376092779757e-02
2
Properties=species:S:1:pos:R:3:forces:R:3 energy=-7.571501648180e+01 dipole="1.6226581785e-15 -3.8460380792e-16 -5.2825010974e-01" quadrupole="-8.1007624521e+00 -5.8290079369e-15 -3.0114048541e-15 -5.8290079369e-15 -8.1007624521e+00 -2.1765456440e-16 -3.0114048541e-15 -2.1765456440e-16 -6.2414248492e+00" polarizability="2.0654784959e+01 3.9995784462e-14 1.4128654288e-14 3.9995784462e-14 2.0654784959e+01 5.6645374915e-15 1.4128654288e-14 5.6645374915e-15 2.0306641672e+01" charge=-1 multiplicity=1 method=wB97M-V basis=def2-svpd config_type=oh- sample_index=105 temperature=300.0 units=atomic
O        -0.0000000000      -0.0000000000       0.1104097822  -1.267474882787e-15  -8.452715372658e-16  -6.439167747979e-02
H         0.0000000000       0.0000000000      -0.9417493627   5.792379624536e-17  -6.325145150345e-17   6.439220683709e-02
2
Properties=species:S:1:pos:R:3:forces:R:3 energy=-7.571890929367e+01 dipole="-1.3401356252e-15 -9.6274808555e-16 -5.4880888095e-01" quadrupole="-8.0729329234e+00 -9.1871163691e-16 1.8518041400e-15 -9.1871163691e-16 -8.0729329234e+00 -5.2703275147e-16 1.8518041400e-15 -5.2703275147e-16 -6.2129129047e+00" polarizability="2.0655775219e+01 1.0658141036e-13 -1.5499534739e-14 1.0658141036e-13 2.0655775219e+01 -4.0133209308e-15 -1.5499534739e-14 -4.0133209308e-15 1.9346469067e+01" charge=-1 multiplicity=1 method=wB97M-V basis=def2-svpd config_type=oh- sample_index=106 temperature=300.0 units=atomic
O        -0.0000000000      -0.0000000000       0.1081333135  -5.361200156771e-16   5.947628335642e-16  -4.091294303294e-02
H         0.0000000000       0.0000000000      -0.9053265679   2.197073483820e-17  -5.979501733458e-18   4.091294595285e-02
2
Properties=species:S:1:pos:R:3:forces:R:3 energy=-7.571902649300e+01 dipole="-1.4505767102e-15 -4.2540440789e-17 -5.8768414305e-01" quadrupole="-7.9971259675e+00 1.1430315284e-15 7.2733862184e-16 1.1430315284e-15 -7.9971259675e+00 -1.9904113430e-16 7.2733862184e-16 -1.9904113430e-16 -6.1612360181e+00" polarizability="2.0623126219e+01 -3.6082248300e-15 -4.4412934082e-15 -3.6082248300e-15 2.0623126219e+01 -2.9157944471e-15 -4.4412934082e-15 -2.9157944471e-15 1.7265640193e+01" charge=-1 multiplicity=1 method=wB97M-V basis=def2-svpd config_type=oh- sample_index=107 temperature=300.0 units=atomic
O         0.0000000000       0.0000000000       0.1027801201   9.118440686679e-17   6.261999311442e-16   4.924477426061e-02
H        -0.0000000000      -0.0000000000      -0.8196771325   7.047808261193e-17  -2.480133839277e-17  -4.924792878920e-02
2
Properties=species:S:1:pos:R:3:forces:R:3 energy=-7.570515138203e+01 dipole="-7.4083025143e-16 6.1581936930e-18 -4.8751808487e-01" quadrupole="-8.1423437519e+00 6.9569370853e-15 -3.5335114815e-16 6.9569370853e-15 -8.1423437519e+00 -1.0916192198e-17 -3.5335114815e-16 -1.0916192198e-17 -6.3029571218e+00" polarizability="2.0640170241e+01 1.2789769244e-13 1.7608971181e-14 1.2789769244e-13 2.0640170241e+01 2.7847456812e-15 1.7608971181e-14 2.7847456812e-15 2.2051536500e+01" charge=-1 multiplicity=1 method=wB97M-V basis=def2-svpd config_type=oh- sample_index=108 temperature=300.0 units=atomic
O        -0.0000000000      -0.0000000000       0.1143010191  -6.189333139325e-16   1.296699723726e-15  -9.100746546648e-02
H         0.0000000000       0.0000000000      -1.0040079471   1.157670242543e-17  -3.658601004400e-17   9.100873632000e-02
2
Properties=species:S:1:pos:R:3:forces:R:3 energy=-7.572020267552e+01 dipole="1.0465820333e-15 1.4982582208e-15 -5.8179104281e-01" quadrupole="-8.0115112707e+00 -2.9398850222e-15 -6.5082159179e-16 -2.9398850222e-15 -8.0115112707e+00 -7.0079694172e-16 -6.5082159179e-16 -7.0079694172e-16 -6.1691812111e+00" polarizability="2.0633151181e+01 -1.9007018182e-13 1.8135669396e-14 -1.9007018182e-13 2.0633151181e+01 4.0341934871e-15 1.8135669396e-14 4.0341934871e-15 1.7614007887e+01" charge=-1 multiplicity=1 method=wB97M-V basis=def2-svpd config_type=oh- sample_index=109 temperature=300.0 units=atomic
O         0.0000000000       0.0000000000       0.1037216767  -1.118185950426e-15  -6.170203679854e-16   2.890509695311e-02
H        -0.0000000000      -0.0000000000      -0.8347417471  -7.582832674879e-17  -7.590488085919e-17  -2.890461167545e-02
2
Properties=species:S:1:pos:R:3:forces:R:3 energy=-7.571954808189e+01 dipole="-2.8818237809e-16 -3.7699638890e-16 -5.5322530684e-01" quadrupole="-8.0661114700e+00 -5.6145563459e-19 -4.1767079099e-16 -5.6145563459e-19 -8.0661114700e+00 3.7093701838e-17 -4.1767079099e-16 3.7093701838e-17 -6.2069690873e+00" polarizability="2.0654932298e+01 2.2470914018e-13 8.9259376338e-15 2.2470914018e-13 2.0654932298e+01 9.3269128449e-15 8.9259376338e-15 9.3269128449e-15 1.9130507755e+01" charge=-1 multiplicity=1 method=wB97M-V basis=def2-svpd config_type=oh- sample_index=110 temperature=300.0 units=atomic
O        -0.0000000000      -0.0000000000       0.1076059445  -7.470475882189e-16  -2.059229086617e-16  -3.442419916984e-02
H         0.0000000000       0.0000000000      -0.8968888278  -3.972902812007e-17   2.853671080515e-17   3.442311226888e-02
2
Properties=species:S:1:pos:R:3:forces:R:3 energy=-7.572084692224e+01 dipole="-7.8753840383e-16 -9.1699033338e-16 -5.7432038667e-01" quadrupole="-8.0279238339e+00 1.3729471840e-15 2.8206390833e-15 1.3729471840e-15 -8.0279238339e+00 1.4588909624e-16 2.8206390833e-15 1.4588909624e-16 -6.1790740787e+00" polarizability="2.0642458778e+01 -2.3536728122e-13 -1.7728690041e-14 -2.3536728122e-13 2.0642458778e+01 2.5773045553e-15 -1.7728690041e-14 2.5773045553e-15 1.8034918572e+01" charge=-1 multiplicity=1 method=wB97M-V basis=def2-svpd config_type=oh- sample_index=111 temperature=300.0 units=atomic
O         0.0000000000       0.0000000000       0.1048335360  -8.764445725886e-16  -3.581724183608e-16   7.640590256865e-03
H        -0.0000000000      -0.0000000000      -0.8525311508   5.718154333633e-17  -6.874083897895e-17  -7.638757409826e-03
2
Properties=species:S:1:pos:R:3:forces:R:3 energy=-7.572087548164e+01 dipole="-1.3794325789e-16 3.2045467078e-15 -5.6902004089e-01" quadrupole="-8.0385314506e+00 1.6170969368e-15 -2.0402181956e-15 1.6170969368e-15 -8.0385314506e+00 -2.3227546597e-15 -2.0402181956e-15 -2.3227546597e-15 -6.1860477923e+00" polarizability="2.0647228631e+01 -2.4202861937e-13 1.6204844749e-15 -2.4202861937e-13 2.0647228631e+01 2.6425112432e-14 1.6204844749e-15 2.6425112432e-14 1.8321746483e+01" charge=-1 multiplicity=1 method=wB97M-V basis=def2-svpd config_type=oh- sample_index=112 temperature=300.0 units=atomic
O        -0.0000000000      -0.0000000000       0.1055757972   3.948880719465e-16  -5.285851537267e-16  -5.055118150471e-03
H         0.0000000000       0.0000000000      -0.8644071003   2.732876081529e-17  -4.460196578015e-17   5.055300045222e-03
2
Properties=species:S:1:pos:R:3:forces:R:3 energy=-7.572071503887e+01 dipole="-1.2301056508e-15 5.0241615309e-16 -5.7688563553e-01" quadrupole="-8.0224947665e+00 -5.2088143122e-16 6.2906206999e-16 -5.2088143122e-16 -8.0224947665e+00 4.0301110305e-16 6.2906206999e-16 4.0301110305e-16 -6.1756905673e+00" polarizability="2.0639636385e+01 1.2123635429e-13 -1.6581980744e-14 1.2123635429e-13 2.0639636385e+01 2.4321970242e-15 -1.6581980744e-14 2.4321970242e-15 1.7892738157e+01" charge=-1 multiplicity=1 method=wB97M-V basis=def2-svpd config_type=oh- sample_index=113 temperature=300.0 units=atomic
O         0.0000000000       0.0000000000       0.1044610247  -1.872165571377e-16  -7.401441537115e-16   1.445271895192e-02
H        -0.0000000000      -0.0000000000      -0.8465710854  -1.571139104612e-16   5.403006040959e-19  -1.445070473301e-02
2
Properties=species:S:1:pos:R:3:forces:R:3 energy=-7.571853015675e+01 dipole="-1.7128348138e-15 -1.2304270515e-15 -5.8944131268e-01" quadrupole="-7.9925507317e+00 2.6505230438e-15 7.3596571508e-16 2.6505230438e-15 -7.9925507317e+00 2.3179238497e-15 7.3596571508e-16 2.3179238497e-15 -6.1588263466e+00" polarizability="2.0619582851e+01 -2.4025226253e-13 7.6089626427e-15 -2.4025226253e-13 2.0619582851e+01 -1.3174903869e-14 7.6089626427e-15 -1.3174903869e-14 1.7158526244e+01" charge=-1 multiplicity=1 method=wB97M-V basis=def2-svpd config_type=oh- sample_index=114 temperature=300.0 units=atomic
O         0.0000000000       0.0000000000       0.1024865798  -1.183829230726e-15   9.070821193079e-17   5.606247710069e-02
H        -0.0000000000      -0.0000000000      -0.8149805791   2.244806977311e-17   7.643135522146e-17  -5.606631706041e-02
2
Properties=species:S:1:pos:R:3:forces:R:3 energy=-7.571866410612e+01 dipole="2.5629188772e-15 6.8358374732e-16 -5.4725646974e-01" quadrupole="-8.0752514836e+00 7.1166915412e-16 -5.3291925286e-15 7.1166915412e-16 -8.0752514836e+00 -1.2980504374e-15 -5.3291925286e-15 -1.2980504374e-15 -6.2150155104e+00" polarizability="2.0655964783e+01 -6.8278716014e-15 4.1922218941e-14 -6.8278716014e-15 2.0655964783e+01 1.2098062868e-14 4.1922218941e-14 1.2098062868e-14 1.9421472614e+01" charge=-1 multiplicity=1 method=wB97M-V basis=def2-svpd config_type=oh- sample_index=115 temperature=300.0 units=atomic
O        -0.0000000000      -0.0000000000       0.1083150922   8.774307549323e-16  -3.867404082139e-16  -4.305103691975e-02
H         0.0000000000       0.0000000000      -0.9082349722  -3.581607450138e-17   3.490358166673e-18   4.305140324561e-02
2
Properties=species:S:1:pos:R:3:forces:R:3 energy=-7.570964906259e+01 dipole="4.6707013947e-16 -6.5228804981e-16 -6.0488888190e-01" quadrupole="-7.9447964967e+00 1.0455875244e-15 -1.9605779657e-15 1.0455875244e-15 -7.9447964967e+00 1.4656687646e-15 -1.9605779657e-15 1.4656687646e-15 -6.1360057759e+00" polarizability="2.0572880586e+01 -4.1078251911e-14 -4.0533881691e-15 -4.1078251911e-14 2.0572880586e+01 -2.4078018072e-14 -4.0533881691e-15 -2.4078018072e-14 1.6131890772e+01" charge=-1 multiplicity=1 method=wB97M-V basis=def2-svpd config_type=oh- sample_index=116 temperature=300.0 units=atomic
O         0.0000000000       0.0000000000       0.0995701599  -1.088970750634e-15  -8.838327241848e-16   1.381443800094e-01
H        -0.0000000000      -0.0000000000      -0.7683187627   1.153983539049e-16  -7.644037324728e-18  -1.381413704836e-01
2
Properties=species:S:1:pos:R:3:forces:R:3 energy=-7.571829320509e+01 dipole="8.0209657628e-18 -2.0810497648e-16 -5.9019625809e-01" quadrupole="-7.9905408543e+00 1.5986244102e-15 2.6222919214e-15 1.5986244102e-15 -7.9905408543e+00 -2.1882661707e-16 2.6222919214e-15 -2.1882661707e-16 -6.1577836971e+00" polarizability="2.0617973023e+01 -2.5285329386e-14 -4.3052841209e-14 -2.5285329386e-14 2.0617973023e+01 -1.6258038554e-14 -4.3052841209e-14 -1.6258038554e-14 1.7112006170e+01" charge=-1 multiplicity=1 method=wB97M-V basis=def2-svpd config_type=oh- sample_index=117 temperature=300.0 units=atomic
O         0.0000000000       0.0000000000       0.1023584893  -3.534974724690e-16  -4.149460797377e-16   5.911211158940e-02
H        -0.0000000000      -0.0000000000      -0.8129311694  -3.009970985995e-16   1.693845100037e-17  -5.911610260715e-02
2
Properties=species:S:1:pos:R:3:forces:R:3 energy=-7.571730933498e+01 dipole="4.2146595814e-16 -7.1380392970e-16 -5.9291674710e-01" quadrupole="-7.9830639321e+00 2.5765410469e-17 6.8597349409e-16 2.5765410469e-17 -7.9830639321e+00 1.7534797539e-15 6.8597349409e-16 1.7534797539e-15 -6.1539836766e+00" polarizability="2.0611701960e+01 -1.2168044350e-13 -8.1333507342e-15 -1.2168044350e-13 2.0611701960e+01 -2.5262201258e-14 -8.1333507342e-15 -2.5262201258e-14 1.6941720854e+01" charge=-1 multiplicity=1 method=wB97M-V basis=def2-svpd config_type=oh- sample_index=118 temperature=300.0 units=atomic
O         0.0000000000       0.0000000000       0.1018864480  -5.376451713314e-16  -2.782767540571e-18   7.075513730661e-02
H        -0.0000000000      -0.0000000000      -0.8053786552   1.647484514842e-16  -7.934968250862e-17  -7.075878100288e-02
2
Properties=species:S:1:pos:R:3:forces:R:3 energy=-7.571366891287e+01 dipole="2.3377490777e-15 -1.2450700614e-15 -5.9985567336e-01" quadrupole="-7.9620960987e+00 2.5883453909e-15 -2.7197405840e-15 2.5883453909e-15 -7.9620960987e+00 3.3301870018e-15 -2.7197405840e-15 3.3301870018e-15 -6.1438819963e+00" polarizability="2.0591793146e+01 8.4043882964e-14 1.3099127161e-14 8.4043882964e-14 2.0591793146e+01 -2.7676132065e-14 1.3099127161e-14 -2.7676132065e-14 1.6485983542e+01" charge=-1 multiplicity=1 method=wB97M-V basis=def2-svpd config_type=oh- sample_index=119 temperature=300.0 units=atomic
O         0.0000000000       0.0000000000       0.1005978668  -1.605494981664e-18  -2.061832453278e-16   1.060073395123e-01
H        -0.0000000000      -0.0000000000      -0.7847617555  -6.262199049896e-17   2.309435454456e-17  -1.060050737158e-01
2
Properties=species:S:1:pos:R:3:forces:R:3 energy=-7.571780093115e+01 dipole="-1.3435550960e-15 -5.0706680815e-16 -5.9163043120e-01" quadrupole="-7.9866461108e+00 -1.1503473045e-15 -1.9142605415e-15 -1.1503473045e-15 -7.9866461108e+00 -4.7486957092e-16 -1.9142605415e-15 -4.7486957092e-16 -6.1557892946e+00" polarizability="2.0614761712e+01 -1.0524914273e-13 4.8391510332e-14 -1.0524914273e-13 2.0614761712e+01 5.4820404725e-16 4.8391510332e-14 5.4820404725e-16 1.7022766016e+01" charge=-1 multiplicity=1 method=wB97M-V basis=def2-svpd config_type=oh- sample_index=120 temperature=300.0 units=atomic
O         0.0000000000       0.0000000000       0.1021117348   5.058174898112e-16  -8.393387441252e-16   6.511792117851e-02
H        -0.0000000000      -0.0000000000      -0.8089831753   1.692490248424e-16   1.568930235410e-16  -6.512191218019e-02
2
Properties=species:S:1:pos:R:3:forces:R:3 energy=-7.571730617819e+01 dipole="-2.2154638584e-16 1.4918147716e-15 -5.9292460649e-01" quadrupole="-7.9830417775e+00 2.9642543674e-15 -3.3289262115e-18 2.9642543674e-15 -7.9830417775e+00 -1.2845945949e-15 -3.3289262115e-18 -1.2845945949e-15 -6.1539725912e+00" polarizability="2.0611682722e+01 1.0036416143e-13 9.9761539294e-16 1.0036416143e-13 2.0611682722e+01 5.1215082031e-14 9.9761539294e-16 5.1215082031e-14 1.6941222643e+01" charge=-1 multiplicity=1 method=wB97M-V basis=def2-svpd config_type=oh- sample_index=121 temperature=300.0 units=atomic
O         0.0000000000       0.0000000000       0.1018850595   1.001788442372e-15   9.988044360311e-16   7.079034295640e-02
H        -0.0000000000      -0.0000000000      -0.8053564405   9.723970794449e-17   7.281910496386e-17  -7.079398349908e-02
2
Properties=species:S:1:pos:R:3:forces:R:3 energy=-7.572087487905e+01 dipole="-2.1060309717e-15 1.3243446619e-15 -5.7337393426e-01" quadrupole="-8.0298764083e+00 5.1528862687e-16 1.9398933367e-15 5.1528862687e-16 -8.0298764083e+00 -2.1768258183e-15 1.9398933367e-15 -2.1768258183e-15 -6.1803203921e+00" polarizability="2.0643411074e+01 1.5987211555e-13 -2.1967339341e-14 1.5987211555e-13 2.0643411074e+01 2.1425263131e-14 -2.1967339341e-14 2.1425263131e-14 1.8086801436e+01" charge=-1 multiplicity=1 method=wB97M-V basis=def2-svpd config_type=oh- sample_index=122 temperature=300.0 units=atomic
O         0.0000000000       0.0000000000       0.1049687058   4.039669008154e-16  -6.798628765474e-16   5.243113023325e-03
H        -0.0000000000      -0.0000000000      -0.8546938258  -6.333959274844e-17   1.562543964394e-17  -5.241483885175e-03
2
Properties=species:S:1:pos:R:3:forces:R:3 energy=-7.571375365038e+01 dipole="1.9163302290e-15 -1.9437676423e-15 -5.2255117856e-01" quadrupole="-8.1075204953e+00 -1.7667961960e-15 -2.4173627838e-15 -1.7667961960e-15 -8.1075204953e+00 -3.1951469029e-16 -2.4173627838e-15 -3.1951469029e-16 -6.2496116848e+00" polarizability="2.0653478454e+01 1.0635936576e-13 -1.3768844011e-14 1.0635936576e-13 2.0653478454e+01 1.0195073697e-14 -1.3768844011e-14 1.0195073697e-14 2.0561734909e+01" charge=-1 multiplicity=1 method=wB97M-V basis=def2-svpd config_type=oh- sample_index=123 temperature=300.0 units=atomic
O        -0.0000000000      -0.0000000000       0.1109971506   4.843733722252e-16   1.322273744709e-15  -6.939159407564e-02
H         0.0000000000       0.0000000000      -0.9511470753   9.234025556096e-18   3.646175761368e-17   6.939153430856e-02
2
Properties=species:S:1:pos:R:3:forces:R:3 energy=-7.572082206728e+01 dipole="5.7476436627e-16 -2.3855588576e-16 -5.6726608476e-01" quadrupole="-8.0418750471e+00 5.4207671665e-15 -5.9568069544e-16 5.4207671665e-15 -8.0418750471e+00 -1.7393630855e-15 -5.9568069544e-16 -1.7393630855e-15 -6.1883553181e+00" polarizability="2.0648525844e+01 -1.6298074001e-13 -2.1412999179e-15 -1.6298074001e-13 2.0648525844e+01 1.5105663434e-14 -2.1412999179e-15 1.5105663434e-14 1.8414763050e+01" charge=-1 multiplicity=1 method=wB97M-V basis=def2-svpd config_type=oh- sample_index=124 temperature=300.0 units=atomic
O        -0.0000000000      -0.0000000000       0.1058139210  -8.760345795114e-16  -2.220529851756e-16  -8.891805084353e-03
H         0.0000000000       0.0000000000      -0.8682170074   1.857048262710e-17   3.818438896935e-17   8.891352199426e-03
2
Properties=species:S:1:pos:R:3:forces:R:3 energy=-7.571860188351e+01 dipole="-1.0214992427e-15 1.4580696627e-16 -5.4687218434e-01" quadrupole="-8.0758193141e+00 4.0881369401e-15 3.4813500356e-16 4.0881369401e-15 -8.0758193141e+00 8.0713177825e-16 3.4813500356e-16 8.0713177825e-16 -6.2155371233e+00" polarizability="2.0656003691e+01 6.7723604502e-14 -5.9406583203e-15 6.7723604502e-14 2.0656003691e+01 2.4386231603e-16 -5.9406583203e-15 2.4386231603e-16 1.9439968956e+01" charge=-1 multiplicity=1 method=wB97M-V basis=def2-svpd config_type=oh- sample_index=125 temperature=300.0 units=atomic
O        -0.0000000000      -0.0000000000       0.1083598126   1.812616672808e-16   6.249459285828e-17  -4.356951081147e-02
H         0.0000000000       0.0000000000      -0.9089504834  -1.519150575487e-17   2.399702187982e-18   4.356996133182e-02
2
Properties=species:S:1:pos:R:3:forces:R:3 energy=-7.571378968331e+01 dipole="-1.4009056881e-15 8.9426438878e-17 -5.2271031829e-01" quadrupole="-8.1073366317e+00 -3.5155000259e-16 5.4436331599e-16 -3.5155000259e-16 -8.1073366317e+00 -1.0175806025e-15 5.4436331599e-16 -1.0175806025e-15 -6.2493812791e+00" polarizability="2.0653519358e+01 -2.7033930650e-14 -1.7766464085e-15 -2.7033930650e-14 2.0653519358e+01 6.2438082513e-15 -1.7766464085e-15 6.2438082513e-15 2.0554668123e+01" charge=-1 multiplicity=1 method=wB97M-V basis=def2-svpd config_type=oh- sample_index=126 temperature=300.0 units=atomic
O        -0.0000000000      -0.0000000000       0.1109809713   4.609780776114e-16  -2.905265619081e-16  -6.925911490496e-02
H         0.0000000000       0.0000000000      -0.9508882122  -8.626360882318e-17  -3.650388875290e-17   6.925906773974e-02
2
Properties=species:S:1:pos:R:3:forces:R:3 energy=-7.572059459677e+01 dipole="-2.2034269544e-15 2.9717807060e-16 -5.7841170072e-01" quadrupole="-8.0191657412e+00 1.4249347575e-16 -8.1996328807e-16 1.4249347575e-16 -8.0191657412e+00 1.3906717512e-16 -8.1996328807e-16 1.3906717512e-16 -6.1736722653e+00" polarizability="2.0637779635e+01 -5.6621374256e-15 -7.2779432833e-15 -5.6621374256e-15 2.0637779635e+01 -1.0699149779e-14 -7.2779432833e-15 -1.0699149779e-14 1.7807025339e+01" charge=-1 multiplicity=1 method=wB97M-V basis=def2-svpd config_type=oh- sample_index=127 temperature=300.0 units=atomic
O         0.0000000000       0.0000000000       0.1042349596  -3.660340258999e-16   1.725253435601e-16   1.873733284202e-02
H        -0.0000000000      -0.0000000000      -0.8429541132  -5.219609418472e-17   4.377962907458e-17  -1.873552271868e-02
2
Properties=species:S:1:pos:R:3:forces:R:3 energy=-7.571960561013e+01 dipole="1.0981160861e-15 -1.0498276795e-15 -5.5365811704e-01" quadrupole="-8.0654242522e+00 9.1493991587e-15 -1.6431668994e-15 9.1493991587e-15 -8.0654242522e+00 6.8247798314e-16 -1.6431668994e-15 6.8247798314e-16 -6.2063894122e+00" polarizability="2.0654823844e+01 -5.5733195836e-14 4.7486294724e-15 -5.5733195836e-14 2.0654823844e+01 1.3448048795e-14 4.7486294724e-15 1.3448048795e-14 1.9109129115e+01" charge=-1 multiplicity=1 method=wB97M-V basis=def2-svpd config_type=oh- sample_index=128 temperature=300.0 units=atomic
O        -0.0000000000      -0.0000000000       0.1075534136   1.015383689350e-15   9.764332743751e-17  -3.375392357751e-02
H         0.0000000000       0.0000000000      -0.8960483501   8.714912117362e-17   2.890188927549e-17   3.375273914431e-02
2
Properties=species:S:1:pos:R:3:forces:R:3 energy=-7.571694613958e+01 dipole="-5.3211077558e-16 -1.8713022304e-15 -5.3763072158e-01" quadrupole="-8.0887929176e+00 8.6819639352e-16 2.8856520749e-15 8.6819639352e-16 -8.0887929176e+00 1.8297398488e-15 2.8856520749e-15 1.8297398488e-15 -6.2282273925e+00" polarizability="2.0656085011e+01 -1.8873791419e-13 1.4324219248e-15 -1.8873791419e-13 2.0656085011e+01 1.7152322694e-14 1.4324219248e-15 1.7152322694e-14 1.9876935401e+01" charge=-1 multiplicity=1 method=wB97M-V basis=def2-svpd config_type=oh- sample_index=129 temperature=300.0 units=atomic
O        -0.0000000000      -0.0000000000       0.1094042592  -3.356553068644e-16  -3.670132654731e-16  -5.487068416522e-02
H         0.0000000000       0.0000000000      -0.9256613065  -7.447296787844e-17  -2.413347806576e-17   5.487205637217e-02
2
Properties=species:S:1:pos:R:3:forces:R:3 energy=-7.571685234205e+01 dipole="-6.2388800183e-17 1.2248478814e-15 -5.3714855304e-01" quadrupole="-8.0894359632e+00 4.3153905421e-16 -6.2662550670e-17 4.3153905421e-16 -8.0894359632e+00 -1.2644432337e-15 -6.2662550670e-17 -1.2644432337e-15 -6.2288976658e+00" polarizability="2.0656048633e+01 1.2212453271e-14 -1.1412794238e-14 1.2212453271e-14 2.0656048633e+01 -4.7486186569e-15 -1.1412794238e-14 -4.7486186569e-15 1.9899344076e+01" charge=-1 multiplicity=1 method=wB97M-V basis=def2-svpd config_type=oh- sample_index=130 temperature=300.0 units=atomic
O        -0.0000000000      -0.0000000000       0.1094572125   3.100153515042e-16   9.493721188135e-16  -5.540404477562e-02
H         0.0000000000       0.0000000000      -0.9265085419   8.939262200434e-17  -5.283600904118e-17   5.540540449542e-02
2
Properties=species:S:1:pos:R:3:forces:R:3 energy=-7.572057003676e+01 dipole="8.2208879325e-16 1.5790192884e-15 -5.7867920247e-01" quadrupole="-8.0185742614e+00 -7.8195854871e-16 6.7768860407e-16 -7.8195854871e-16 -8.0185742614e+00 -1.2819009527e-15 6.7768860407e-16 -1.2819009527e-15 -6.1733179446e+00" polarizability="2.0637439778e+01 -2.5046631436e-13 -8.5161710353e-15 -2.5046631436e-13 2.0637439778e+01 -7.8738937513e-15 -8.5161710353e-15 -7.8738937513e-15 1.7791910548e+01" charge=-1 multiplicity=1 method=wB97M-V basis=def2-svpd config_type=oh- sample_index=131 temperature=300.0 units=atomic
O         0.0000000000       0.0000000000       0.1041949766  -2.234636808052e-15  -1.823063155698e-15   1.950723941874e-02
H        -0.0000000000      -0.0000000000      -0.8423143975   6.311554415646e-17  -2.130467130176e-17  -1.950549111168e-02
2
Properties=species:S:1:pos:R:3:forces:R:3 energy=-7.572030183999e+01 dipole="4.9935457055e-16 4.4432468285e-16 -5.8106936443e-01" quadrupole="-8.0131799529e+00 1.2412794937e-15 1.4382852793e-15 1.2412794937e-15 -8.0131799529e+00 -1.5934380367e-15 1.4382852793e-15 -1.5934380367e-15 -6.1701433272e+00" polarizability="2.0634202548e+01 4.7295500849e-14 1.8620682605e-14 4.7295500849e-14 2.0634202548e+01 8.6904284023e-15 1.8620682605e-14 8.6904284023e-15 1.7655614588e+01" charge=-1 multiplicity=1 method=wB97M-V basis=def2-svpd config_type=oh- sample_index=132 temperature=300.0 units=atomic
O         0.0000000000       0.0000000000       0.1038328172  -6.053836019611e-17   5.484809611478e-16   2.665052814847e-02
H        -0.0000000000      -0.0000000000      -0.8365199593   4.023189758961e-17  -2.811939725466e-17  -2.664966766990e-02
2
Properties=species:S:1:pos:R:3:forces:R:3 energy=-7.571132153410e+01 dipole="-1.0027099406e-15 -2.3254916461e-15 -6.0300443519e-01" quadrupole="-7.9515111982e+00 -2.9541137375e-15 -1.7262815477e-15 -2.9541137375e-15 -7.9515111982e+00 3.4976047278e-18 -1.7262815477e-15 3.4976047278e-18 -6.1390243018e+00" polarizability="2.0580480756e+01 1.7574830480e-13 2.6858241921e-14 1.7574830480e-13 2.0580480756e+01 3.2732720826e-17 2.6858241921e-14 3.2732720826e-17 1.6267132542e+01" charge=-1 multiplicity=1 method=wB97M-V basis=def2-svpd config_type=oh- sample_index=133 temperature=300.0 units=atomic
O         0.0000000000       0.0000000000       0.0999655024   5.255530392446e-16   4.599135233474e-16   1.253297616046e-01
H        -0.0000000000      -0.0000000000      -0.7746441216  -9.458071080665e-17   1.451507897723e-16  -1.253260083384e-01
2
Properties=species:S:1:pos:R:3:forces:R:3 energy=-7.572089944040e+01 dipole="7.3728317935e-16 -9.5203103738e-17 -5.7081851655e-01" quadrupole="-8.0350195092e+00 2.8588333846e-15 -2.8051342172e-15 2.8588333846e-15 -8.0350195092e+00 -4.5532691766e-16 -2.8051342172e-15 -4.5532691766e-16 -6.1836824667e+00" polarizability="2.0645759287e+01 -2.6023627697e-13 2.5329705833e-14 -2.6023627697e-13 2.0645759287e+01 2.8700749768e-15 2.5329705833e-14 2.8700749768e-15 1.8225417412e+01" charge=-1 multiplicity=1 method=wB97M-V basis=def2-svpd config_type=oh- sample_index=134 temperature=300.0 units=atomic
O        -0.0000000000      -0.0000000000       0.1053278694  -4.517865424251e-17   4.475127186224e-17  -9.406594217447e-04
H         0.0000000000       0.0000000000      -0.8604403323  -7.857184679953e-17  -1.036645987193e-16   9.414997461357e-04
2
Properties=species:S:1:pos:R:3:forces:R:3 energy=-7.571523691760e+01 dipole="-9.6732417612e-16 3.3565694360e-16 -5.9728097572e-01" quadrupole="-7.9702246852e+00 -2.1215743823e-15 -1.4867847414e-15 -2.1215743823e-15 -7.9702246852e+00 1.0213243859e-15 -1.4867847414e-15 1.0213243859e-15 -6.1477127529e+00" polarizability="2.0599911594e+01 8.2100992671e-14 7.7525312871e-16 8.2100992671e-14 2.0599911594e+01 1.9328558966e-16 7.7525312871e-16 1.9328558966e-16 1.6659012369e+01" charge=-1 multiplicity=1 method=wB97M-V basis=def2-svpd config_type=oh- sample_index=135 temperature=300.0 units=atomic
O         0.0000000000       0.0000000000       0.1010915175   2.992976599651e-16   1.205711602991e-15   9.187487582663e-02
H        -0.0000000000      -0.0000000000      -0.7926600136  -2.238004230336e-17   8.533153952537e-17  -9.187515487552e-02
2
Properties=species:S:1:pos:R:3:forces:R:3 energy=-7.570997937016e+01 dipole="-4.3209235590e-15 8.1236532343e-16 -6.0453581622e-01" quadrupole="-7.9460778313e+00 4.0862320518e-15 4.0696594350e-15 4.0862320518e-15 -7.9460778313e+00 -1.4029946087e-15 4.0696594350e-15 -1.4029946087e-15 -6.1365784957e+00" polarizability="2.0574355876e+01 1.6142642778e-13 -5.0249397505e-14 1.6142642778e-13 2.0574355876e+01 1.0461516380e-14 -5.0249397505e-14 1.0461516380e-14 1.6157490407e+01" charge=-1 multiplicity=1 method=wB97M-V basis=def2-svpd config_type=oh- sample_index=136 temperature=300.0 units=atomic
O         0.0000000000       0.0000000000       0.0996452650   9.671497410707e-16   4.574768802067e-16   1.356649026873e-01
H        -0.0000000000      -0.0000000000      -0.7695204224  -3.330577530371e-16  -2.478620351403e-17  -1.356616506228e-01
2
Properties=species:S:1:pos:R:3:forces:R:3 energy=-7.571386812390e+01 dipole="-1.3257123770e-15 1.3830402879e-15 -5.9955347120e-01" quadrupole="-7.9630734901e+00 -1.1273824288e-16 2.3751899983e-15 -1.1273824288e-16 -7.9630734901e+00 -9.1558382240e-18 2.3751899983e-15 -9.1558382240e-18 -6.1443376146e+00" polarizability="2.0592795721e+01 -9.6589403142e-15 -2.3860540280e-15 -9.6589403142e-15 2.0592795721e+01 1.0643754005e-14 -2.3860540280e-15 1.0643754005e-14 1.6506554970e+01" charge=-1 multiplicity=1 method=wB97M-V basis=def2-svpd config_type=oh- sample_index=137 temperature=300.0 units=atomic
O         0.0000000000       0.0000000000       0.1006568458   3.340206600644e-16  -1.899697534825e-16   1.042760570754e-01
H        -0.0000000000      -0.0000000000      -0.7857054016   8.311470332709e-17  -3.699204469451e-17  -1.042740601649e-01
2
Properties=species:S:1:pos:R:3:forces:R:3 energy=-7.570378331175e+01 dipole="4.8625307559e-16 1.6239507863e-15 -4.8221923110e-01" quadrupole="-8.1467890571e+00 1.5944023540e-15 2.0956496283e-16 1.5944023540e-15 -8.1467890571e+00 -2.6066187985e-15 2.0956496283e-16 -2.6066187985e-15 -6.3114915429e+00" polarizability="2.0637701783e+01 -4.3076653355e-14 -2.3472905022e-15 -4.3076653355e-14 2.0637701783e+01 -4.2974003390e-15 -2.3472905022e-15 -4.2974003390e-15 2.2267159368e+01" charge=-1 multiplicity=1 method=wB97M-V basis=def2-svpd config_type=oh- sample_index=138 temperature=300.0 units=atomic
O        -0.0000000000      -0.0000000000       0.1147631245   1.498603087449e-16  -9.531061798407e-16  -9.327748359197e-02
H         0.0000000000       0.0000000000      -1.0114014910   2.744972691750e-17   8.493961791360e-17   9.327863285354e-02
2
Properties=species:S:1:pos:R:3:forces:R:3 energy=-7.571276548381e+01 dipole="-1.6231686882e-15 1.0103015943e-15 -6.0115090062e-01" quadrupole="-7.9578327853e+00 2.7752197249e-16 -3.9442275492e-16 2.7752197249e-16 -7.9578327853e+00 -1.4337999556e-16 -3.9442275492e-16 -1.4337999556e-16 -6.1419092510e+00" polarizability="2.0587336478e+01 -2.4069635174e-13 -9.4910907302e-15 -2.4069635174e-13 2.0587336478e+01 -1.8182322611e-14 -9.4910907302e-15 -1.8182322611e-14 1.6396980002e+01" charge=-1 multiplicity=1 method=wB97M-V basis=def2-svpd config_type=oh- sample_index=139 temperature=300.0 units=atomic
O         0.0000000000       0.0000000000       0.1003417818   3.034126561572e-16   6.430864803873e-17   1.136628527047e-01
H        -0.0000000000      -0.0000000000      -0.7806644749   3.732073855670e-17  -1.143927740897e-16  -1.136596358333e-01
2
Properties=species:S:1:pos:R:3:forces:R:3 energy=-7.572036540222e+01 dipole="-7.5677175834e-16 1.8449076434e-15 -5.8056973772e-01" quadrupole="-8.0143241506e+00 -5.5428774735e-16 2.2896926996e-15 -5.5428774735e-16 -8.0143241506e+00 -2.9410255186e-15 2.2896926996e-15 -2.9410255186e-15 -6.1708083603e+00" polarizability="2.0634909864e+01 2.1227464231e-13 -1.9890684572e-14 2.1227464231e-13 2.0634909864e+01 6.1641810507e-15 -1.9890684572e-14 6.1641810507e-15 1.7684293852e+01" charge=-1 multiplicity=1 method=wB97M-V basis=def2-svpd config_type=oh- sample_index=140 temperature=300.0 units=atomic
O         0.0000000000       0.0000000000       0.1039092656  -7.664171679971e-16  -4.563548015399e-16   2.511690855686e-02
H        -0.0000000000      -0.0000000000      -0.8377431099   5.454892597371e-17  -2.182119156410e-17  -2.511581506879e-02
2
Properties=species:S:1:pos:R:3:forces:R:3 energy=-7.572005588917e+01 dipole="2.7853303264e-16 1.0235038582e-15 -5.8275679072e-01" quadrupole="-8.0092480890e+00 7.3164060729e-16 1.1198863884e-15 7.3164060729e-16 -8.0092480890e+00 -2.0185162826e-15 1.1198863884e-15 -2.0185162826e-15 -6.1678906461e+00" polarizability="2.0631687819e+01 2.4291679779e-13 -7.8205796129e-15 2.4291679779e-13 2.0631687819e+01 2.3580155583e-14 -7.8205796129e-15 2.3580155583e-14 1.7557987426e+01" charge=-1 multiplicity=1 method=wB97M-V basis=def2-svpd config_type=oh- sample_index=141 temperature=300.0 units=atomic
O         0.0000000000       0.0000000000       0.1035715973   8.776217144268e-16   1.458755834311e-15   3.199716696064e-02
H        -0.0000000000      -0.0000000000      -0.8323405231  -6.913371743246e-17   9.064300296691e-17  -3.199724428086e-02
2
Properties=species:S:1:pos:R:3:forces:R:3 energy=-7.572025788551e+01 dipole="-7.9219798312e-16 2.2282439588e-15 -5.8139719068e-01" quadrupole="-8.0124243024e+00 1.8628281340e-15 2.5821472685e-15 1.8628281340e-15 -8.0124243024e+00 -6.0251225684e-16 2.5821472685e-15 -6.0251225684e-16 -6.1697065108e+00" polarizability="2.0633729354e+01 1.1146639167e-13 -2.9457582222e-14 1.1146639167e-13 2.0633729354e+01 -1.7536036072e-14 -2.9457582222e-14 -1.7536036072e-14 1.7636741301e+01" charge=-1 multiplicity=1 method=wB97M-V basis=def2-svpd config_type=oh- sample_index=142 temperature=300.0 units=atomic
O         0.0000000000       0.0000000000       0.1037824367   1.683589295628e-15   1.400955279170e-15   2.766884692695e-02
H        -0.0000000000      -0.0000000000      -0.8357138877  -1.131206562718e-18  -3.052746206573e-17  -2.766815151770e-02
2
Properties=species:S:1:pos:R:3:forces:R:3 energy=-7.572021606616e+01 dipole="-5.4032689504e-16 3.6618258036e-17 -5.8169723262e-01" quadrupole="-8.0117292595e+00 1.9073331125e-16 8.0852572892e-16 1.9073331125e-16 -8.0117292595e+00 -8.0174581280e-16 8.0852572892e-16 -8.0174581280e-16 -6.1693063818e+00" polarizability="2.0633289860e+01 4.2021941482e-14 -1.0172910376e-14 4.2021941482e-14 2.0633289860e+01 3.1695091089e-14 -1.0172910376e-14 3.1695091089e-14 1.7619428550e+01" charge=-1 multiplicity=1 method=wB97M-V basis=def2-svpd config_type=oh- sample_index=143 temperature=300.0 units=atomic
O         0.0000000000       0.0000000000       0.1037361721  -4.316672831436e-16  -1.175327369603e-15   2.860935670151e-02
H        -0.0000000000      -0.0000000000      -0.8349736686  -1.032307845880e-17   6.867382391566e-17  -2.860882025643e-02
2
Properties=species:S:1:pos:R:3:forces:R:3 energy=-7.572042871795e+01 dipole="-3.1094645545e-15 1.6167189783e-15 -5.8003698212e-01" quadrupole="-8.0155344244e+00 -2.9456981624e-15 2.3816947557e-15 -2.9456981624e-15 -8.0155344244e+00 -1.5972703881e-15 2.3816947557e-15 -1.5972703881e-15 -6.1715166088e+00" polarizability="2.0635645951e+01 1.8607337893e-13 -2.9675948440e-14 1.8607337893e-13 2.0635645951e+01 -5.0008363357e-15 -2.9675948440e-14 -5.0008363357e-15 1.7714763472e+01" charge=-1 multiplicity=1 method=wB97M-V basis=def2-svpd config_type=oh- sample_index=144 temperature=300.0 units=atomic
O         0.0000000000       0.0000000000       0.1039903439   8.030473701092e-16  -6.448447116222e-17   2.350557160101e-02
H        -0.0000000000      -0.0000000000      -0.8390403384  -2.723143099723e-17   1.871955175921e-17  -2.350425606628e-02
2
Properties=species:S:1:pos:R:3:forces:R:3 energy=-7.572036700419e+01 dipole="-1.3994230118e-15 -3.1320318315e-16 -5.6041389966e-01" quadrupole="-8.0542285160e+00 1.2057669624e-15 2.1737854154e-15 1.2057669624e-15 -8.0542285160e+00 -1.7236567570e-15 2.1737854154e-15 -1.7236567570e-15 -6.1973969253e+00" polarizability="2.0652453473e+01 6.9722005946e-14 -1.8608148265e-14 6.9722005946e-14 2.0652453473e+01 -2.4105524585e-16 -1.8608148265e-14 -2.4105524585e-16 1.8770064230e+01" charge=-1 multiplicity=1 method=wB97M-V basis=def2-svpd config_type=oh- sample_index=145 temperature=300.0 units=atomic
O        -0.0000000000      -0.0000000000       0.1067122213   5.120162058440e-17   3.846075549662e-16  -2.239838768577e-02
H         0.0000000000       0.0000000000      -0.8825895340  -1.752848379936e-18   3.145164935136e-17   2.239648145227e-02
2
Properties=species:S:1:pos:R:3:forces:R:3 energy=-7.570906814005e+01 dipole="-1.5945188881e-15 2.1477228954e-16 -5.0296072796e-01" quadrupole="-8.1282624197e+00 -4.2607862506e-15 2.1607204841e-15 -4.2607862506e-15 -8.1282624197e+00 -2.8526979959e-16 2.1607204841e-15 -2.8526979959e-16 -6.2787873225e+00" polarizability="2.0646876319e+01 2.2604140781e-13 -2.8505561733e-14 2.2604140781e-13 2.0646876319e+01 1.7841421043e-14 -2.8505561733e-14 1.7841421043e-14 2.1409705133e+01" charge=-1 multiplicity=1 method=wB97M-V basis=def2-svpd config_type=oh- sample_index=146 temperature=300.0 units=atomic
O        -0.0000000000      -0.0000000000       0.1129025939  -1.335425762945e-16  -8.421101651884e-16  -8.308967341871e-02
H         0.0000000000       0.0000000000      -0.9816335780   9.738346682289e-17  -3.463939065253e-18   8.309025366899e-02
2
Properties=species:S:1:pos:R:3:forces:R:3 energy=-7.572084920107e+01 dipole="8.1993859271e-16 1.4896645760e-15 -5.6804160817e-01" quadrupole="-8.0404063414e+00 2.3000503658e-15 8.5973545007e-17 2.3000503658e-15 -8.0404063414e+00 -8.0444680768e-16 8.5973545007e-17 -8.0444680768e-16 -6.1873348644e+00" polarizability="2.0647968276e+01 1.5099033135e-13 5.6006596500e-15 1.5099033135e-13 2.0647968276e+01 -1.2210736970e-14 5.6006596500e-15 -1.2210736970e-14 1.8373745604e+01" charge=-1 multiplicity=1 method=wB97M-V basis=def2-svpd config_type=oh- sample_index=147 temperature=300.0 units=atomic
O        -0.0000000000      -0.0000000000       0.1057090695   8.293517170152e-16  -1.160289817118e-15  -7.216129465799e-03
H         0.0000000000       0.0000000000      -0.8665394157  -7.727490463529e-18   3.662792913102e-18   7.215951953480e-03
2
Properties=species:S:1:pos:R:3:forces:R:3 energy=-7.571840622390e+01 dipole="-1.4499095741e-15 6.4134514288e-16 -5.4568649692e-01" quadrupole="-8.0775563362e+00 4.3674472143e-15 1.1346546177e-15 4.3674472143e-15 -8.0775563362e+00 -2.0701073045e-15 1.1346546177e-15 -2.0701073045e-15 -6.2171494256e+00" polarizability="2.0656104324e+01 1.5765166950e-13 2.5907546922e-15 1.5765166950e-13 2.0656104324e+01 3.4242547535e-15 2.5907546922e-15 3.4242547535e-15 1.9496866128e+01" charge=-1 multiplicity=1 method=wB97M-V basis=def2-svpd config_type=oh- sample_index=148 temperature=300.0 units=atomic
O        -0.0000000000      -0.0000000000       0.1084971136  -3.683992228495e-16   8.411507937060e-16  -4.514300430378e-02
H         0.0000000000       0.0000000000      -0.9111472568   1.219801035983e-17   2.079031208923e-17   4.514369625774e-02
2
Properties=species:S:1:pos:R:3:forces:R:3 energy=-7.571477240857e+01 dipole="8.7983854255e-16 4.9717210825e-16 -5.9809408219e-01" quadrupole="-7.9677052383e+00 1.9311731013e-15 -4.5574010048e-15 1.9311731013e-15 -7.9677052383e+00 -1.9099212692e-15 -4.5574010048e-15 -1.9099212692e-15 -6.1465149867e+00" polarizability="2.0597448873e+01 1.0519363158e-14 3.0075463538e-14 1.0519363158e-14 2.0597448873e+01 1.3206044207e-14 3.0075463538e-14 1.3206044207e-14 1.6604904859e+01" charge=-1 multiplicity=1 method=wB97M-V basis=def2-svpd config_type=oh- sample_index=149 temperature=300.0 units=atomic
O         0.0000000000       0.0000000000       0.1009377389  -1.467728315053e-15  -1.430556363035e-15   9.619092458743e-02
H        -0.0000000000      -0.0000000000      -0.7901996030   1.376339736417e-16   2.380449187680e-17  -9.619036609880e-02
2
Properties=species:S:1:pos:R:3:forces:R:3 energy=-7.572055122924e+01 dipole="-5.8430201283e-16 -2.0798799299e-15 -5.6260110961e-01" quadrupole="-8.0504018975e+00 -1.8328863828e-15 2.5941134472e-15 -1.8328863828e-15 -8.0504018975e+00 1.0031007890e-15 2.5941134472e-15 1.0031007890e-15 -6.1945043644e+00" polarizability="2.0651383676e+01 -1.4388490399e-13 -3.5778860556e-14 -1.4388490399e-13 2.0651383676e+01 -2.1997095311e-14 -3.5778860556e-14 -2.1997095311e-14 1.8657983076e+01" charge=-1 multiplicity=1 method=wB97M-V basis=def2-svpd config_type=oh- sample_index=150 temperature=300.0 units=atomic
O        -0.0000000000      -0.0000000000       0.1064307482   4.306025718728e-16  -6.232686620534e-16  -1.832578040922e-02
H         0.0000000000       0.0000000000      -0.8780860505   3.247493376152e-17   3.282308632693e-17   1.832409575753e-02
2
Properties=species:S:1:pos:R:3:forces:R:3 energy=-7.572086926938e+01 dipole="7.5901342788e-16 3.6684849024e-16 -5.7359612887e-01" quadrupole="-8.0294203843e+00 2.6217944243e-15 -5.7417085607e-16 2.6217944243e-15 -8.0294203843e+00 -2.0805568661e-16 -5.7417085607e-16 -2.0805568661e-16 -6.1800278737e+00" polarizability="2.0643191651e+01 9.0816243414e-14 1.7178869172e-15 9.0816243414e-14 2.0643191651e+01 6.5471699925e-15 1.7178869172e-15 6.5471699925e-15 1.8074648149e+01" charge=-1 multiplicity=1 method=wB97M-V basis=def2-svpd config_type=oh- sample_index=151 temperature=300.0 units=atomic
O         0.0000000000       0.0000000000       0.1049370793  -8.450010408599e-16  -1.131996697938e-15   5.800576028832e-03
H        -0.0000000000      -0.0000000000      -0.8541878111  -3.455672946535e-17   4.987118460121e-17  -5.798893635161e-03
2
Properties=species:S:1:pos:R:3:forces:R:3 energy=-7.571813313442e+01 dipole="-3.2265232957e-16 -1.3652717795e-15 -5.4408302714e-01" quadrupole="-8.0798701136e+00 -1.6743383682e-16 -1.2514988168e-15 -1.6743383682e-16 -8.0798701136e+00 1.3072986602e-15 -1.2514988168e-15 1.3072986602e-15 -6.2193369618e+00" polarizability="2.0656195279e+01 -2.5623947408e-13 -3.8986880393e-14 -2.5623947408e-13 2.0656195279e+01 7.4377024483e-15 -3.8986880393e-14 7.4377024483e-15 1.9573405747e+01" charge=-1 multiplicity=1 method=wB97M-V basis=def2-svpd config_type=oh- sample_index=152 temperature=300.0 units=atomic
O        -0.0000000000      -0.0000000000       0.1086811894  -4.577027871049e-16   2.029330028594e-16  -4.720972274430e-02
H         0.0000000000       0.0000000000      -0.9140924129  -3.429166366415e-17  -6.644020364669e-17   4.721068974305e-02
2
Properties=species:S:1:pos:R:3:forces:R:3 energy=-7.571984643762e+01 dipole="2.0354024380e-15 -8.1711178663e-16 -5.5555779253e-01" quadrupole="-8.0623666062e+00 -2.6450029092e-15 -3.2255401306e-15 -2.6450029092e-15 -8.0623666062e+00 -7.0669381096e-16 -3.2255401306e-15 -7.0669381096e-16 -6.2038505997e+00" polarizability="2.0654289235e+01 -9.0816243414e-14 4.2175564793e-14 -9.0816243414e-14 2.0654289235e+01 2.8449594111e-14 4.2175564793e-14 2.8449594111e-14 1.9014821634e+01" charge=-1 multiplicity=1 method=wB97M-V basis=def2-svpd config_type=oh- sample_index=153 temperature=300.0 units=atomic
O        -0.0000000000      -0.0000000000       0.1073209740   1.078190106347e-15   6.969538369509e-16  -3.073446563353e-02
H         0.0000000000       0.0000000000      -0.8923293891   6.023310192600e-17   2.909301222420e-17   3.073290546797e-02
2
Properties=species:S:1:pos:R:3:forces:R:3 energy=-7.572089970447e+01 dipole="9.2923418941e-16 1.4702995302e-15 -5.7088727519e-01" quadrupole="-8.0348835132e+00 -4.7576449362e-15 -1.4791818047e-15 -4.7576449362e-15 -8.0348835132e+00 1.0587042431e-16 -1.4791818047e-15 1.0587042431e-16 -6.1835920350e+00" polarizability="2.0645700194e+01 -1.2700951402e-13 2.8381267569e-14 -1.2700951402e-13 2.0645700194e+01 2.3601661921e-14 2.8381267569e-14 2.3601661921e-14 1.8221714894e+01" charge=-1 multiplicity=1 method=wB97M-V basis=def2-svpd config_type=oh- sample_index=154 temperature=300.0 units=atomic
O        -0.0000000000      -0.0000000000       0.1053183129   6.802321341545e-16  -1.316726485376e-16  -7.795762085281e-04
H         0.0000000000       0.0000000000      -0.8602874311  -7.164463912290e-17  -6.758709702275e-18   7.804408109422e-04
2
Properties=species:S:1:pos:R:3:forces:R:3 energy=-7.571322226890e+01 dipole="-1.8263879558e-15 1.5552497788e-15 -5.2022450403e-01" quadrupole="-8.1101781400e+00 -3.7179547798e-15 2.9850334474e-16 -3.7179547798e-15 -8.1101781400e+00 -6.4947433777e-16 2.9850334474e-16 -6.4947433777e-16 -6.2529921869e+00" polarizability="2.0652853961e+01 1.7719159473e-13 -2.6739795170e-14 1.7719159473e-13 2.0652853961e+01 -6.5303789669e-15 -2.6739795170e-14 -6.5303789669e-15 2.0664697690e+01" charge=-1 multiplicity=1 method=wB97M-V basis=def2-svpd config_type=oh- sample_index=155 temperature=300.0 units=atomic
O        -0.0000000000      -0.0000000000       0.1112322961   2.162075233665e-16   5.101358697040e-16  -7.128443768893e-02
H         0.0000000000       0.0000000000      -0.9549093300   2.151419339402e-17  -3.227151951245e-17   7.128422867105e-02
2
Properties=species:S:1:pos:R:3:forces:R:3 energy=-7.572048367556e+01 dipole="-2.6657234658e-16 -8.2479018609e-16 -5.7954051974e-01" quadrupole="-8.0166532864e+00 -6.2508642001e-16 3.4184387292e-16 -6.2508642001e-16 -8.0166532864e+00 -1.3052225586e-16 3.4184387292e-16 -1.3052225586e-16 -6.1721758431e+00" polarizability="2.0636315364e+01 1.9095836024e-13 -8.9789545919e-15 1.9095836024e-13 2.0636315364e+01 5.7944969283e-15 -8.9789545919e-15 5.7944969283e-15 1.7743055509e+01" charge=-1 multiplicity=1 method=wB97M-V basis=def2-svpd config_type=oh- sample_index=156 temperature=300.0 units=atomic
O         0.0000000000       0.0000000000       0.1040654969  -1.618042328732e-16  -4.962739809318e-16   2.202581600916e-02
H        -0.0000000000      -0.0000000000      -0.8402427627  -3.780336328939e-18   4.284922463779e-17  -2.202431951561e-02
2
Properties=species:S:1:pos:R:3:forces:R:3 energy=-7.572085181144e+01 dipole="-2.2914216537e-15 -2.8252783487e-16 -5.6812566480e-01" quadrupole="-8.0402462372e+00 -3.6291750612e-15 7.4466240956e-16 -3.6291750612e-15 -8.0402462372e+00 -1.1205901225e-15 7.4466240956e-16 -1.1205901225e-15 -6.1872242786e+00" polarizability="2.0647906335e+01 5.9507954120e-14 -2.5802625054e-14 5.9507954120e-14 2.0647906335e+01 9.6724392893e-15 -2.5802625054e-14 9.6724392893e-15 1.8369289407e+01" charge=-1 multiplicity=1 method=wB97M-V basis=def2-svpd config_type=oh- sample_index=157 temperature=300.0 units=atomic
O        -0.0000000000      -0.0000000000       0.1056976637  -1.345983158044e-15  -4.402354010812e-17  -7.032553389487e-03
H         0.0000000000       0.0000000000      -0.8663569264   6.656814245861e-17   1.654157847865e-17   7.032406352855e-03
2
Properties=species:S:1:pos:R:3:forces:R:3 energy=-7.571578145996e+01 dipole="-7.8177878125e-16 -1.3961500281e-15 -5.3184991525e-01" quadrupole="-8.0962999943e+00 1.0695068364e-15 8.7789607474e-16 1.0695068364e-15 -8.0962999943e+00 2.2024425350e-15 8.7789607474e-16 2.2024425350e-15 -6.2363203638e+00" polarizability="2.0655422619e+01 -1.7674750552e-13 3.7464928425e-16 -1.7674750552e-13 2.0655422619e+01 -2.4066346660e-15 3.7464928425e-16 -2.4066346660e-15 2.0143256674e+01" charge=-1 multiplicity=1 method=wB97M-V basis=def2-svpd config_type=oh- sample_index=158 temperature=300.0 units=atomic
O        -0.0000000000      -0.0000000000       0.1100298899   2.984677772859e-16   7.890898737495e-16  -6.094217437048e-02
H         0.0000000000       0.0000000000      -0.9356712036  -7.596425522594e-17  -1.029459437737e-16   6.094312531907e-02
2
Properties=species:S:1:pos:R:3:forces:R:3 energy=-7.570338605342e+01 dipole="3.0603182329e-16 8.9088557568e-16 -4.8068638100e-01" quadrupole="-8.1480413005e+00 -1.2336017040e-15 -1.1866914215e-15 -1.2336017040e-15 -8.1480413005e+00 -1.5131566009e-15 -1.1866914215e-15 -1.5131566009e-15 -6.3139833175e+00" polarizability="2.0636976786e+01 2.7255975255e-14 4.8638611657e-15 2.7255975255e-14 2.0636976786e+01 -2.2005077779e-14 4.8638611657e-15 -2.2005077779e-14 2.2329130014e+01" charge=-1 multiplicity=1 method=wB97M-V basis=def2-svpd config_type=oh- sample_index=159 temperature=300.0 units=atomic
O        -0.0000000000      -0.0000000000       0.1148952562   7.961952386719e-16   1.097845549571e-15  -9.389710563921e-02
H         0.0000000000       0.0000000000      -1.0135155578   1.564647322986e-17   2.296950333609e-18   9.389820246075e-02
2
Properties=species:S:1:pos:R:3:forces:R:3 energy=-7.571964418656e+01 dipole="-3.1335963232e-15 8.8314409886e-16 -5.8502149013e-01" quadrupole="-8.0037999984e+00 3.9805797661e-15 2.7169309179e-15 3.9805797661e-15 -8.0037999984e+00 -2.1050894523e-15 2.7169309179e-15 -2.1050894523e-15 -6.1648482599e+00" polarizability="2.0627989818e+01 5.2180482157e-14 -1.1633710942e-14 5.2180482157e-14 2.0627989818e+01 2.4141001865e-14 -1.1633710942e-14 2.4141001865e-14 1.7425019200e+01" charge=-1 multiplicity=1 method=wB97M-V basis=def2-svpd config_type=oh- sample_index=160 temperature=300.0 units=atomic
O         0.0000000000       0.0000000000       0.1032133466   2.423349068191e-16  -2.428774216892e-16   3.960438614267e-02
H        -0.0000000000      -0.0000000000      -0.8266086221  -1.724281182510e-17  -1.592638856063e-17  -3.960593634471e-02
2
Properties=species:S:1:pos:R:3:forces:R:3 energy=-7.572053010433e+01 dipole="-1.4357666969e-15 -1.0224778802e-15 -5.6232819146e-01" quadrupole="-8.0508851242e+00 3.3413843833e-16 4.1283413281e-15 3.3413843833e-16 -8.0508851242e+00 -5.3663887176e-16 4.1283413281e-15 -5.3663887176e-16 -6.1948648946e+00" polarizability="2.0651526038e+01 -1.7985612999e-13 -4.1666956557e-14 -1.7985612999e-13 2.0651526038e+01 -1.3368361949e-14 -4.1666956557e-14 -1.3368361949e-14 1.8672034050e+01" charge=-1 multiplicity=1 method=wB97M-V basis=def2-svpd config_type=oh- sample_index=161 temperature=300.0 units=atomic
O        -0.0000000000      -0.0000000000       0.1064661297   9.392039647800e-16   5.013550460075e-16  -1.884552831273e-02
H         0.0000000000       0.0000000000      -0.8786521435  -7.377896516043e-17  -8.427167801922e-17   1.884380236404e-02
2
Properties=species:S:1:pos:R:3:forces:R:3 energy=-7.571976835615e+01 dipole="7.3576288596e-16 -2.6813392556e-16 -5.5492484541e-01" quadrupole="-8.0633929408e+00 2.8780609761e-15 -1.8192118126e-15 2.8780609761e-15 -8.0633929408e+00 7.2506829879e-16 -1.8192118126e-15 7.2506829879e-16 -6.2046955313e+00" polarizability="2.0654478154e+01 -1.1524114996e-13 2.4613560674e-14 -1.1524114996e-13 2.0654478154e+01 5.4751118944e-15 2.4613560674e-14 5.4751118944e-15 1.9046330250e+01" charge=-1 multiplicity=1 method=wB97M-V basis=def2-svpd config_type=oh- sample_index=162 temperature=300.0 units=atomic
O        -0.0000000000      -0.0000000000       0.1073987627  -6.189927152231e-16  -1.617034295147e-15  -3.175477302409e-02
H         0.0000000000       0.0000000000      -0.8935739830   6.903653597637e-17   3.988188032808e-17   3.175332710199e-02
2
Properties=species:S:1:pos:R:3:forces:R:3 energy=-7.572066488025e+01 dipole="5.0908080956e-18 -1.1076771135e-16 -5.6421750336e-01" quadrupole="-8.0475053394e+00 2.4930825735e-15 1.1438397831e-15 2.4930825735e-15 -8.0475053394e+00 9.2249477484e-16 1.1438397831e-15 9.2249477484e-16 -6.1923710746e+00" polarizability="2.0650484956e+01 6.8389738317e-14 2.2260380251e-15 6.8389738317e-14 2.0650484956e+01 -2.3560526430e-14 2.2260380251e-15 -2.3560526430e-14 1.8574369619e+01" charge=-1 multiplicity=1 method=wB97M-V basis=def2-svpd config_type=oh- sample_index=163 temperature=300.0 units=atomic
O        -0.0000000000      -0.0000000000       0.1062196362  -4.121685980204e-16  -1.775359079476e-16  -1.517704097004e-02
H         0.0000000000       0.0000000000      -0.8747083240   7.991474337844e-17  -1.593146044800e-17   1.517567928284e-02
2
Properties=species:S:1:pos:R:3:forces:R:3 energy=-7.570117981686e+01 dipole="1.0424197845e-15 3.5124293535e-16 -6.1181973083e-01" quadrupole="-7.9171075419e+00 2.3261425136e-16 -1.0004445615e-15 2.3261425136e-16 -7.9171075419e+00 -1.3231268943e-15 -1.0004445615e-15 -1.3231268943e-15 -6.1239008145e+00" polarizability="2.0538229189e+01 1.7938341784e-14 -2.2547562873e-14 1.7938341784e-14 2.0538229189e+01 1.0008122486e-14 -2.2547562873e-14 1.0008122486e-14 1.5601031825e+01" charge=-1 multiplicity=1 method=wB97M-V basis=def2-svpd config_type=oh- sample_index=164 temperature=300.0 units=atomic
O         0.0000000000       0.0000000000       0.0979831891   7.111749066910e-16   1.134645715186e-16   1.958610720787e-01
H        -0.0000000000      -0.0000000000      -0.7429277219   3.408930899479e-17   2.956232427680e-17  -1.958651864703e-01
2
Properties=species:S:1:pos:R:3:forces:R:3 energy=-7.572088951081e+01 dipole="-2.0608513583e-15 3.5478104280e-16 -5.6977738315e-01" quadrupole="-8.0370630826e+00 8.2039630121e-16 6.8955141439e-16 8.2039630121e-16 -8.0370630826e+00 -2.0901100822e-15 6.8955141439e-16 -2.0901100822e-15 -6.1850517247e+00" polarizability="2.0646627574e+01 1.4122036873e-13 -1.1595975202e-15 1.4122036873e-13 2.0646627574e+01 8.8907106341e-15 -1.1595975202e-15 8.8907106341e-15 1.8281301973e+01" charge=-1 multiplicity=1 method=wB97M-V basis=def2-svpd config_type=oh- sample_index=165 temperature=300.0 units=atomic
O        -0.0000000000      -0.0000000000       0.1054718679   5.846681210752e-17  -4.514664292011e-16  -3.345427901634e-03
H         0.0000000000       0.0000000000      -0.8627442628   2.952040807252e-17   1.072528233981e-17   3.345890473583e-03
2
Properties=species:S:1:pos:R:3:forces:R:3 energy=-7.572086687357e+01 dipole="2.9574883364e-15 -7.9528648138e-16 -5.7368463135e-01" quadrupole="-8.0292383415e+00 -6.8170486011e-16 -4.7399015152e-15 -6.8170486011e-16 -8.0292383415e+00 1.2928892231e-15 -4.7399015152e-15 1.2928892231e-15 -6.1799113485e+00" polarizability="2.0643103550e+01 2.5845992013e-13 8.5314407218e-15 2.5845992013e-13 2.0643103550e+01 -1.5367892661e-14 8.5314407218e-15 -1.5367892661e-14 1.8069802765e+01" charge=-1 multiplicity=1 method=wB97M-V basis=def2-svpd config_type=oh- sample_index=166 temperature=300.0 units=atomic
O         0.0000000000       0.0000000000       0.1049244639   3.079477205076e-16   1.724064938746e-16   6.023532322044e-03
H        -0.0000000000      -0.0000000000      -0.8539859697  -2.076081452517e-17   1.611882637523e-17  -6.021829601057e-03
2
Properties=species:S:1:pos:R:3:forces:R:3 energy=-7.571320666283e+01 dipole="-1.7145638680e-15 2.4671691511e-16 -5.2015671645e-01" quadrupole="-8.1102547255e+00 -1.6074750003e-15 -1.2787419270e-15 -1.6074750003e-15 -8.1102547255e+00 -1.3042733539e-15 -1.2787419270e-15 -1.3042733539e-15 -6.2530910127e+00" polarizability="2.0652835042e+01 7.1720407391e-14 2.0181000046e-15 7.1720407391e-14 2.0652835042e+01 5.1905484013e-15 2.0181000046e-15 5.1905484013e-15 2.0667687654e+01" charge=-1 multiplicity=1 method=wB97M-V basis=def2-svpd config_type=oh- sample_index=167 temperature=300.0 units=atomic
O        -0.0000000000      -0.0000000000       0.1112391083   2.128176412165e-16   4.069309603418e-16  -7.133837321998e-02
H         0.0000000000       0.0000000000      -0.9550183228   3.202480213118e-17   5.718777290271e-17   7.133816088954e-02
2
Properties=species:S:1:pos:R:3:forces:R:3 energy=-7.570516322552e+01 dipole="2.3025058049e-15 3.1461594507e-15 -6.0897807183e-01" quadrupole="-7.9290911957e+00 2.3440800780e-16 2.8200606812e-15 2.3440800780e-16 -7.9290911957e+00 -5.9955780764e-16 2.8200606812e-15 -5.9955780764e-16 -6.1290879107e+00" polarizability="2.0553864290e+01 2.3125945603e-13 -2.0184964373e-14 2.3125945603e-13 2.0553864290e+01 1.0277396368e-14 -2.0184964373e-14 1.0277396368e-14 1.5825721730e+01" charge=-1 multiplicity=1 method=wB97M-V basis=def2-svpd config_type=oh- sample_index=168 temperature=300.0 units=atomic
O         0.0000000000       0.0000000000       0.0986618728   1.911993568364e-15   1.061663553393e-15   1.698863427033e-01
H        -0.0000000000      -0.0000000000      -0.7537864509  -6.823843007818e-17   1.595498240957e-17  -1.698883186790e-01
2
Properties=species:S:1:pos:R:3:forces:R:3 energy=-7.571660053555e+01 dipole="-1.3688456369e-15 -1.7187301732e-15 -5.9457322560e-01" quadrupole="-7.9783201191e+00 7.2112410949e-16 1.3192231338e-15 7.2112410949e-16 -7.9783201191e+00 1.0168369727e-15 1.3192231338e-15 1.0168369727e-15 -6.1516319686e+00" polarizability="2.0607494807e+01 1.5953904864e-13 2.2562416775e-15 1.5953904864e-13 2.0607494807e+01 -2.0050161676e-14 2.2562416775e-15 -2.0050161676e-14 1.6835876544e+01" charge=-1 multiplicity=1 method=wB97M-V basis=def2-svpd config_type=oh- sample_index=169 temperature=300.0 units=atomic
O         0.0000000000       0.0000000000       0.1015904952  -6.257937709115e-16   7.471786667857e-17   7.839011603295e-02
H        -0.0000000000      -0.0000000000      -0.8006435018   7.343430320175e-17   5.500331340892e-17  -7.839282915678e-02
2
Properties=species:S:1:pos:R:3:forces:R:3 energy=-7.571493515944e+01 dipole="-6.6729491585e-16 -1.2252801489e-15 -5.9781454824e-01" quadrupole="-7.9685762030e+00 2.2374777874e-15 1.6060449845e-15 2.2374777874e-15 -7.9685762030e+00 1.1909177870e-15 1.6060449845e-15 1.1909177870e-15 -6.1469279444e+00" polarizability="2.0598305700e+01 -9.7588603865e-14 -8.6820703811e-15 -9.7588603865e-14 2.0598305700e+01 -2.4936384187e-14 -8.6820703811e-15 -2.4936384187e-14 1.6623560467e+01" charge=-1 multiplicity=1 method=wB97M-V basis=def2-svpd config_type=oh- sample_index=170 temperature=300.0 units=atomic
O         0.0000000000       0.0000000000       0.1009908201  -1.316913024021e-15   2.677835614856e-16   9.469239897040e-02
H        -0.0000000000      -0.0000000000      -0.7910488867  -2.004243683457e-16  -1.167099721290e-16  -9.469212885495e-02
2
Properties=species:S:1:pos:R:3:forces:R:3 energy=-7.572089021773e+01 dipole="1.6904464924e-15 -8.9854946525e-16 -5.7258313993e-01" quadrupole="-8.0314877698e+00 3.3350565272e-15 -1.4110174665e-15 3.3350565272e-15 -8.0314877698e+00 2.1680158267e-15 -1.4110174665e-15 2.1680158267e-15 -6.1813611696e+00" polarizability="2.0644171804e+01 6.8167693712e-14 2.1634916909e-14 6.8167693712e-14 2.0644171804e+01 -1.8566766576e-14 2.1634916909e-14 -1.8566766576e-14 1.8129922674e+01" charge=-1 multiplicity=1 method=wB97M-V basis=def2-svpd config_type=oh- sample_index=171 temperature=300.0 units=atomic
O         0.0000000000       0.0000000000       0.1050807420   4.640597388639e-16   2.654723230325e-16   3.285318652715e-03
H        -0.0000000000      -0.0000000000      -0.8564863696  -2.896634524274e-17  -3.695351207014e-17  -3.283902597212e-03
2
Properties=species:S:1:pos:R:3:forces:R:3 energy=-7.571660895034e+01 dipole="9.4498572879e-16 -2.1777799833e-16 -5.9455472335e-01" quadrupole="-7.9783739493e+00 -3.1419707761e-15 2.1768461077e-16 -3.1419707761e-15 -7.9783739493e+00 7.7687324683e-16 2.1768461077e-16 7.7687324683e-16 -6.1516584146e+00" polarizability="2.0607543534e+01 2.2637447472e-13 2.3241881245e-14 2.2637447472e-13 2.0607543534e+01 8.0995622995e-15 2.3241881245e-14 8.0995622995e-15 1.6837068306e+01" charge=-1 multiplicity=1 method=wB97M-V basis=def2-svpd config_type=oh- sample_index=172 temperature=300.0 units=atomic
O         0.0000000000       0.0000000000       0.1015938385   6.972458227971e-16   2.642955184422e-16   7.830238282931e-02
H        -0.0000000000      -0.0000000000      -0.8006969936  -1.444366364521e-17  -1.155465986362e-17  -7.830510915075e-02
2
Properties=species:S:1:pos:R:3:forces:R:3 energy=-7.572025888581e+01 dipole="2.3039801009e-15 7.9449752568e-16 -5.8138987704e-01" quadrupole="-8.0124412033e+00 -3.0808763130e-15 -8.4667440154e-17 -3.0808763130e-15 -8.0124412033e+00 3.0542067819e-16 -8.4667440154e-17 3.0542067819e-16 -6.1697162601e+00" polarizability="2.0633739990e+01 -1.4743761767e-13 1.9279376837e-14 -1.4743761767e-13 2.0633739990e+01 -1.4378513724e-15 1.9279376837e-14 -1.4378513724e-15 1.7637162841e+01" charge=-1 multiplicity=1 method=wB97M-V basis=def2-svpd config_type=oh- sample_index=173 temperature=300.0 units=atomic
O         0.0000000000       0.0000000000       0.1037835626   9.278937807214e-16  -5.100336981716e-16   2.764602335558e-02
H        -0.0000000000      -0.0000000000      -0.8357319014  -1.106405487118e-16  -5.395682387021e-17  -2.764532416348e-02
2
Properties=species:S:1:pos:R:3:forces:R:3 energy=-7.571907582778e+01 dipole="-2.5981647561e-15 -5.1155197240e-16 -5.8749385395e-01" quadrupole="-7.9976130600e+00 -2.5307236226e-15 5.1354459963e-16 -2.5307236226e-15 -7.9976130600e+00 8.0177964614e-16 5.1354459963e-16 8.0177964614e-16 -6.1614956415e+00" polarizability="2.0623493481e+01 1.4521717162e-13 -1.7169978306e-14 1.4521717162e-13 2.0623493481e+01 8.8885207114e-15 -1.7169978306e-14 8.8885207114e-15 1.7277145094e+01" charge=-1 multiplicity=1 method=wB97M-V basis=def2-svpd config_type=oh- sample_index=174 temperature=300.0 units=atomic
O         0.0000000000       0.0000000000       0.1028115341  -6.447165987504e-16   7.226145509342e-16   4.852903309222e-02
H        -0.0000000000      -0.0000000000      -0.8201797464   4.985033641318e-17  -4.659322592718e-17  -4.853209037572e-02
2
Properties=species:S:1:pos:R:3:forces:R:3 energy=-7.572080120870e+01 dipole="8.3207337578e-16 2.4199813749e-15 -5.6675440143e-01" quadrupole="-8.0428358309e+00 4.4333159504e-15 -7.6700702233e-16 4.4333159504e-15 -8.0428358309e+00 -3.2247396791e-15 -7.6700702233e-16 -3.2247396791e-15 -6.1890287977e+00" polarizability="2.0648880191e+01 -2.2870594307e-13 -3.0623966859e-14 -2.2870594307e-13 2.0648880191e+01 3.6458045929e-14 -3.0623966859e-14 3.6458045929e-14 1.8441731864e+01" charge=-1 multiplicity=1 method=wB97M-V basis=def2-svpd config_type=oh- sample_index=175 temperature=300.0 units=atomic
O        -0.0000000000      -0.0000000000       0.1058827290   3.737557717820e-16  -7.419636757701e-16  -9.979858507118e-03
H         0.0000000000       0.0000000000      -0.8693179143   1.730719562285e-17  -3.130896045192e-17   9.979231263736e-03
2
Properties=species:S:1:pos:R:3:forces:R:3 energy=-7.571332755517e+01 dipole="1.2113118161e-15 -8.2354754335e-17 -5.2068261575e-01" quadrupole="-8.1096593295e+00 -2.0300074385e-17 -1.2782948250e-15 -2.0300074385e-17 -8.1096593295e+00 -5.4839409687e-16 -1.2782948250e-15 -5.4839409687e-16 -6.2523248158e+00" polarizability="2.0652980762e+01 -1.1435297154e-13 1.4724960230e-14 -1.1435297154e-13 2.0652980762e+01 3.1847408332e-14 1.4724960230e-14 3.1847408332e-14 2.0644476894e+01" charge=-1 multiplicity=1 method=wB97M-V basis=def2-svpd config_type=oh- sample_index=176 temperature=300.0 units=atomic
O        -0.0000000000      -0.0000000000       0.1111862020   2.457684557382e-16  -9.992810154589e-17  -7.091816458558e-02
H         0.0000000000       0.0000000000      -0.9541718398  -5.157071656810e-17  -4.176614040092e-18   7.091797954094e-02
2
Properties=species:S:1:pos:R:3:forces:R:3 energy=-7.571538949769e+01 dipole="-9.3483998927e-16 -1.3416422405e-15 -5.9700318797e-01" quadrupole="-7.9710757462e+00 1.0144525684e-15 -1.7901786489e-15 1.0144525684e-15 -7.9710757462e+00 7.9984697747e-16 -1.7901786489e-15 7.9984697747e-16 -6.1481196010e+00" polarizability="2.0600732538e+01 5.7582411062e-14 3.9398739688e-14 5.7582411062e-14 2.0600732538e+01 4.2304306776e-15 3.9398739688e-14 4.2304306776e-15 1.6677388510e+01" charge=-1 multiplicity=1 method=wB97M-V basis=def2-svpd config_type=oh- sample_index=177 temperature=300.0 units=atomic
O         0.0000000000       0.0000000000       0.1011436231   1.701304012051e-15   4.303979436202e-17   9.042983937923e-02
H        -0.0000000000      -0.0000000000      -0.7934936879  -5.905340383772e-17  -3.675661499570e-17  -9.043040074564e-02
2
Properties=species:S:1:pos:R:3:forces:R:3 energy=-7.570870942330e+01 dipole="-1.1879948805e-15 -6.1781452514e-17 -5.0152290115e-01" quadrupole="-8.1296500850e+00 -1.8746617747e-16 -8.8685297682e-17 -1.8746617747e-16 -8.1296500850e+00 -2.6526247924e-16 -8.8685297682e-17 -2.6526247924e-16 -6.2809936192e+00" polarizability="2.0646292136e+01 -1.7541523789e-13 2.9142835447e-14 -1.7541523789e-13 2.0646292136e+01 3.1113791583e-15 2.9142835447e-14 3.1113791583e-15 2.1470372584e+01" charge=-1 multiplicity=1 method=wB97M-V basis=def2-svpd config_type=oh- sample_index=178 temperature=300.0 units=atomic
O        -0.0000000000      -0.0000000000       0.1130363121  -4.858171052723e-16   3.132436591021e-16  -8.391922781823e-02
H         0.0000000000       0.0000000000      -0.9837730284   3.947638368687e-17  -2.052537845015e-17   8.391993609816e-02
2
Properties=species:S:1:pos:R:3:forces:R:3 energy=-7.572065742534e+01 dipole="1.3239207731e-15 1.5916355538e-15 -5.6410199542e-01" quadrupole="-8.0477143160e+00 -1.6774915436e-15 1.3140594573e-15 -1.6774915436e-15 -8.0477143160e+00 -8.8740996640e-16 1.3140594573e-15 -8.8740996640e-16 -6.1925234079e+00" polarizability="2.0650552213e+01 2.3581137043e-13 -3.1470193737e-14 2.3581137043e-13 2.0650552213e+01 -4.0784746485e-15 -3.1470193737e-14 -4.0784746485e-15 1.8580367340e+01" charge=-1 multiplicity=1 method=wB97M-V basis=def2-svpd config_type=oh- sample_index=179 temperature=300.0 units=atomic
O        -0.0000000000      -0.0000000000       0.1062348121   1.846945365125e-17  -6.197682278659e-16  -1.540612913295e-02
H         0.0000000000       0.0000000000      -0.8749511342   3.557998285423e-17   1.318276377508e-16   1.540474031459e-02
2
Properties=species:S:1:pos:R:3:forces:R:3 energy=-7.572072283384e+01 dipole="-1.2775438981e-15 1.5123365779e-15 -5.6517941862e-01" quadrupole="-8.0457529130e+00 1.0182296200e-16 1.7004943710e-15 1.0182296200e-16 -8.0457529130e+00 -2.0514076203e-15 1.7004943710e-15 -2.0514076203e-15 -6.1911030616e+00" polarizability="2.0649905559e+01 2.2604140781e-13 -3.3208562386e-14 2.2604140781e-13 2.0649905559e+01 1.5345872876e-14 -3.3208562386e-14 1.5345872876e-14 1.8524283967e+01" charge=-1 multiplicity=1 method=wB97M-V basis=def2-svpd config_type=oh- sample_index=180 temperature=300.0 units=atomic
O        -0.0000000000      -0.0000000000       0.1060927081  -5.326085191461e-16  -7.598130617540e-16  -1.324418475399e-02
H         0.0000000000       0.0000000000      -0.8726775140  -6.941800237969e-17   3.743087355782e-19   1.324307204598e-02
2
Properties=species:S:1:pos:R:3:forces:R:3 energy=-7.571685334860e+01 dipole="1.2858102871e-15 7.4460262171e-16 -5.3715370943e-01" quadrupole="-8.0894291030e+00 5.4904194444e-15 -1.1775378886e-16 5.4904194444e-15 -8.0894291030e+00 8.6560960208e-16 -1.1775378886e-16 8.6560960208e-16 -6.2288904930e+00" polarizability="2.0656049041e+01 2.7755575616e-14 1.2221451821e-14 2.7755575616e-14 2.0656049041e+01 5.4453954564e-16 1.2221451821e-14 5.4453954564e-16 1.9899104622e+01" charge=-1 multiplicity=1 method=wB97M-V basis=def2-svpd config_type=oh- sample_index=181 temperature=300.0 units=atomic
O        -0.0000000000      -0.0000000000       0.1094566469   1.207355406266e-15   8.831232853290e-16  -5.539836790415e-02
H         0.0000000000       0.0000000000      -0.9264994935   1.251370002684e-16  -1.632067620989e-17   5.539972778464e-02
2
Properties=species:S:1:pos:R:3:forces:R:3 energy=-7.571907624027e+01 dipole="-2.9762959580e-16 -5.7073716356e-15 -5.8749224926e-01" quadrupole="-7.9976171608e+00 1.4634415370e-15 -1.4344712003e-15 1.4634415370e-15 -7.9976171608e+00 -3.7549758557e-16 -1.4344712003e-15 -3.7549758557e-16 -6.1614978298e+00" polarizability="2.0623496565e+01 1.8074430841e-13 4.4720367769e-15 1.8074430841e-13 2.0623496565e+01 -1.1528139390e-14 4.4720367769e-15 -1.1528139390e-14 1.7277242036e+01" charge=-1 multiplicity=1 method=wB97M-V basis=def2-svpd config_type=oh- sample_index=182 temperature=300.0 units=atomic
O         0.0000000000       0.0000000000       0.1028117987   7.338628962915e-16   1.181956855878e-15   4.852301554879e-02
H        -0.0000000000      -0.0000000000      -0.8201839800   1.641879937035e-16  -8.031818361693e-17  -4.852607199639e-02
2
Properties=species:S:1:pos:R:3:forces:R:3 energy=-7.572072992199e+01 dipole="-4.0682350750e-16 3.5197502524e-16 -5.6530636041e-01" quadrupole="-8.0455200159e+00 -5.7916621719e-15 1.1000323117e-15 -5.7916621719e-15 -8.0455200159e+00 2.0670423979e-16 1.1000323117e-15 2.0670423979e-16 -6.1909357966e+00" polarizability="2.0649826488e+01 1.2123635429e-13 -9.3848941754e-15 1.2123635429e-13 2.0649826488e+01 -1.3295247607e-14 -9.3848941754e-15 -1.3295247607e-14 1.8517655643e+01" charge=-1 multiplicity=1 method=wB97M-V basis=def2-svpd config_type=oh- sample_index=183 temperature=300.0 units=atomic
O        -0.0000000000      -0.0000000000       0.1060758840   3.316281458171e-16  -6.635058065326e-16  -1.298572065986e-02
H         0.0000000000       0.0000000000      -0.8724083335  -4.565495197020e-17  -7.517653790671e-18   1.298464372653e-02
2
Properties=species:S:1:pos:R:3:forces:R:3 energy=-7.572011986725e+01 dipole="4.5037435616e-16 7.3642490770e-16 -5.5794011940e-01" quadrupole="-8.0584337800e+00 1.9467224597e-15 -1.3558214068e-15 1.9467224597e-15 -8.0584337800e+00 -9.7036527811e-16 -1.3558214068e-15 -9.7036527811e-16 -6.2006785090e+00" polarizability="2.0653476880e+01 -1.9273471707e-13 6.6074055736e-15 -1.9273471707e-13 2.0653476880e+01 -1.8039466932e-14 6.6074055736e-15 -1.8039466932e-14 1.8895428721e+01" charge=-1 multiplicity=1 method=wB97M-V basis=def2-svpd config_type=oh- sample_index=184 temperature=300.0 units=atomic
O        -0.0000000000      -0.0000000000       0.1070250260  -7.150052754735e-16  -1.200887001654e-16  -2.676074002318e-02
H         0.0000000000       0.0000000000      -0.8875943114  -4.253948111643e-17   3.478536849041e-17   2.675887861124e-02
2
Properties=species:S:1:pos:R:3:forces:R:3 energy=-7.571960926602e+01 dipole="1.7453558325e-15 1.1085314911e-15 -5.8519138110e-01" quadrupole="-8.0033830532e+00 -1.6178046307e-16 -1.4402607841e-15 -1.6178046307e-16 -8.0033830532e+00 9.4115217170e-16 -1.4402607841e-15 9.4115217170e-16 -6.1646190105e+00" polarizability="2.0627696675e+01 4.5297099405e-14 3.3399218390e-14 4.5297099405e-14 2.0627696675e+01 -2.4105311963e-14 3.3399218390e-14 -2.4105311963e-14 1.7414950786e+01" charge=-1 multiplicity=1 method=wB97M-V basis=def2-svpd config_type=oh- sample_index=185 temperature=300.0 units=atomic
O         0.0000000000       0.0000000000       0.1031861025   6.797111153679e-16  -7.690837788722e-16   4.019620494100e-02
H        -0.0000000000      -0.0000000000      -0.8261727243   9.923177253074e-17  -3.789504369068e-17  -4.019786743561e-02
2
Properties=species:S:1:pos:R:3:forces:R:3 energy=-7.571997733966e+01 dipole="-1.8026334455e-15 -1.5695123441e-15 -5.5666248845e-01" quadrupole="-8.0605568274e+00 3.3201764415e-15 2.4068386121e-16 3.3201764415e-15 -8.0605568274e+00 1.8041746901e-15 2.4068386121e-16 1.8041746901e-15 -6.2023781382e+00" polarizability="2.0653932819e+01 -1.9584334154e-13 -1.4003843388e-14 -1.9584334154e-13 2.0653932819e+01 -9.4252009104e-16 -1.4003843388e-14 -9.4252009104e-16 1.8959617430e+01" charge=-1 multiplicity=1 method=wB97M-V basis=def2-svpd config_type=oh- sample_index=186 temperature=300.0 units=atomic
O        -0.0000000000      -0.0000000000       0.1071843704  -3.767163902405e-16  -3.136258126535e-16  -2.891851034119e-02
H         0.0000000000       0.0000000000      -0.8901437725   1.448207074828e-16  -1.679103342919e-17   2.891678291530e-02
2
Properties=species:S:1:pos:R:3:forces:R:3 energy=-7.571021019460e+01 dipole="-3.6039906210e-16 -5.2075467879e-16 -6.0428382205e-01" quadrupole="-7.9469856595e+00 1.7367023759e-15 4.4565506358e-16 1.7367023759e-15 -7.9469856595e+00 -6.0314594481e-17 4.4565506358e-16 -6.0314594481e-17 -6.1369851705e+00" polarizability="2.0575394025e+01 4.4436676561e-14 -7.8611896372e-15 4.4436676561e-14 2.0575394025e+01 1.6170320721e-14 -7.8611896372e-15 1.6170320721e-14 1.6175686585e+01" charge=-1 multiplicity=1 method=wB97M-V basis=def2-svpd config_type=oh- sample_index=187 temperature=300.0 units=atomic
O         0.0000000000       0.0000000000       0.0996985722  -5.814817378301e-16   3.065305439239e-16   1.339179914499e-01
H        -0.0000000000      -0.0000000000      -0.7703733210  -3.004916048067e-17  -1.914217741877e-17  -1.339145948298e-01
2
Properties=species:S:1:pos:R:3:forces:R:3 energy=-7.572032636065e+01 dipole="1.0807186238e-15 -1.3007722580e-16 -5.8088041461e-01" quadrupole="-8.0136137214e+00 2.8459309917e-15 -1.5759730996e-16 2.8459309917e-15 -8.0136137214e+00 -1.0412176671e-15 -1.5759730996e-16 -1.0412176671e-15 -6.1703949279e+00" polarizability="2.0634471998e+01 -2.2915003228e-13 8.0890537556e-15 -2.2915003228e-13 2.0634471998e+01 1.1715140868e-14 8.0890537556e-15 1.1715140868e-14 1.7666472538e+01" charge=-1 multiplicity=1 method=wB97M-V basis=def2-svpd config_type=oh- sample_index=188 temperature=300.0 units=atomic
O         0.0000000000       0.0000000000       0.1038617758   6.928264003230e-16   1.275073052178e-16   2.606795283988e-02
H        -0.0000000000      -0.0000000000      -0.8369832886   7.883778023106e-17  -1.660327196968e-17  -2.606700152921e-02
2
Properties=species:S:1:pos:R:3:forces:R:3 energy=-7.571998569493e+01 dipole="-8.4581558115e-16 -1.4061380737e-15 -5.5673506670e-01" quadrupole="-8.0604370916e+00 4.3465712913e-16 -2.5986848849e-15 4.3465712913e-16 -8.0604370916e+00 2.8940465682e-15 -2.5986848849e-15 2.8940465682e-15 -6.2022814935e+00" polarizability="2.0653908191e+01 1.8607337893e-13 2.5040881324e-14 1.8607337893e-13 2.0653908191e+01 -4.0523614989e-14 2.5040881324e-14 -4.0523614989e-14 1.8955980990e+01" charge=-1 multiplicity=1 method=wB97M-V basis=def2-svpd config_type=oh- sample_index=189 temperature=300.0 units=atomic
O        -0.0000000000      -0.0000000000       0.1071753578   7.113704071421e-16   1.022427090129e-15  -2.879760711783e-02
H         0.0000000000       0.0000000000      -0.8899995740   7.230321110104e-17  -1.128050918206e-17   2.879587028196e-02
2
Properties=species:S:1:pos:R:3:forces:R:3 energy=-7.570860862359e+01 dipole="1.2466102948e-16 2.5576154456e-16 -5.0111993630e-01" quadrupole="-8.1300360035e+00 7.2435431706e-16 -1.1363784217e-15 7.2435431706e-16 -8.1300360035e+00 9.1769370394e-16 -1.1363784217e-15 9.1769370394e-16 -6.2816135752e+00" polarizability="2.0646126635e+01 -1.7630341631e-13 1.8244145391e-14 -1.7630341631e-13 2.0646126635e+01 1.0664431564e-15 1.8244145391e-14 1.0664431564e-15 2.1487339968e+01" charge=-1 multiplicity=1 method=wB97M-V basis=def2-svpd config_type=oh- sample_index=190 temperature=300.0 units=atomic
O        -0.0000000000      -0.0000000000       0.1130736510  -5.784246266608e-16  -7.825554824290e-16  -8.414801032001e-02
H         0.0000000000       0.0000000000      -0.9843704390   1.290092692419e-16   4.014802630948e-17   8.414875319141e-02
2
Properties=species:S:1:pos:R:3:forces:R:3 energy=-7.571478767882e+01 dipole="-2.6678953224e-15 -8.6956743055e-16 -5.2719722113e-01" quadrupole="-8.1020385934e+00 3.7206063258e-15 3.4236824719e-15 3.7206063258e-15 -8.1020385934e+00 -1.6766015723e-15 3.4236824719e-15 -1.6766015723e-15 -6.2429275167e+00" polarizability="2.0654569466e+01 9.5035090908e-14 -3.8847411418e-14 9.5035090908e-14 2.0654569466e+01 2.5241989179e-15 -3.8847411418e-14 2.5241989179e-15 2.0354091849e+01" charge=-1 multiplicity=1 method=wB97M-V basis=def2-svpd config_type=oh- sample_index=191 temperature=300.0 units=atomic
O        -0.0000000000      -0.0000000000       0.1105195648   5.236741221800e-16  -4.093509668332e-16  -6.535643813588e-02
H         0.0000000000       0.0000000000      -0.9435058496  -3.295778603191e-17  -9.930827631356e-19   6.535684336246e-02
2
Properties=species:S:1:pos:R:3:forces:R:3 energy=-7.571468940935e+01 dipole="-2.7602359893e-15 2.2397446438e-16 -5.9823451867e-01" quadrupole="-7.9672657397e+00 -2.7221168225e-15 2.2936173068e-15 -2.7221168225e-15 -7.9672657397e+00 4.9783320763e-16 2.2936173068e-15 4.9783320763e-16 -6.1463070385e+00" polarizability="2.0597014319e+01 -1.7985612999e-13 -3.9849315679e-14 -1.7985612999e-13 2.0597014319e+01 -1.1639655793e-14 -3.9849315679e-14 -1.1639655793e-14 1.6595510632e+01" charge=-1 multiplicity=1 method=wB97M-V basis=def2-svpd config_type=oh- sample_index=192 temperature=300.0 units=atomic
O         0.0000000000       0.0000000000       0.1009109852  -1.181002224359e-15  -1.216583445500e-15   9.694970668851e-02
H        -0.0000000000      -0.0000000000      -0.7897715521  -8.146976433391e-17   3.912409892130e-17  -9.694900384856e-02
2
Properties=species:S:1:pos:R:3:forces:R:3 energy=-7.572088916172e+01 dipole="-1.5603812580e-15 6.3452420195e-16 -5.6975397489e-01" quadrupole="-8.0371086947e+00 -1.0419875347e-15 1.7189382107e-15 -1.0419875347e-15 -8.0371086947e+00 5.9210558308e-17 1.7189382107e-15 5.9210558308e-17 -6.1850825103e+00" polarizability="2.0646646532e+01 1.4388490399e-13 -1.4957727370e-14 1.4388490399e-13 2.0646646532e+01 -2.5830694536e-15 -1.4957727370e-14 -2.5830694536e-15 1.8282554637e+01" charge=-1 multiplicity=1 method=wB97M-V basis=def2-svpd config_type=oh- sample_index=193 temperature=300.0 units=atomic
O        -0.0000000000      -0.0000000000       0.1054750904  -9.652045457398e-17  -1.128145368531e-16  -3.398764786772e-03
H         0.0000000000       0.0000000000      -0.8627958221   9.268560865353e-18   3.406405069381e-18   3.399218715156e-03
2
Properties=species:S:1:pos:R:3:forces:R:3 energy=-7.572056443450e+01 dipole="-3.3832803404e-16 -3.1076386464e-15 -5.6277541718e-01" quadrupole="-8.0500924002e+00 -7.8143647415e-16 -8.6594758812e-16 -7.8143647415e-16 -8.0500924002e+00 1.9086766730e-15 -8.6594758812e-16 1.9086766730e-15 -6.1942741592e+00" polarizability="2.0651291431e+01 1.4965806372e-13 -6.3494660759e-15 1.4965806372e-13 2.0651291431e+01 -3.5183509559e-14 -6.3494660759e-15 -3.5183509559e-14 1.8648999005e+01" charge=-1 multiplicity=1 method=wB97M-V basis=def2-svpd config_type=oh- sample_index=194 temperature=300.0 units=atomic
O        -0.0000000000      -0.0000000000       0.1064081111  -1.642164216419e-16   2.735369067810e-16  -1.799205493468e-02
H         0.0000000000       0.0000000000      -0.8777238653  -5.215867412899e-17  -4.588542450812e-17   1.799039866180e-02
2
Properties=species:S:1:pos:R:3:forces:R:3 energy=-7.570525257739e+01 dipole="5.0121700714e-18 -8.3889215706e-16 -6.0890715760e-01" quadrupole="-7.9293781922e+00 4.2436392663e-15 -2.6209680457e-15 4.2436392663e-15 -7.9293781922e+00 -8.4194350069e-16 -2.6209680457e-15 -8.4194350069e-16 -6.1292129171e+00" polarizability="2.0554226989e+01 -2.1549428908e-13 5.1004708215e-14 -2.1549428908e-13 2.0554226989e+01 2.2510450091e-14 5.1004708215e-14 2.2510450091e-14 1.5831194703e+01" charge=-1 multiplicity=1 method=wB97M-V basis=def2-svpd config_type=oh- sample_index=195 temperature=300.0 units=atomic
O         0.0000000000       0.0000000000       0.0986782742   8.979746440383e-16   7.238133940729e-16   1.692833227234e-01
H        -0.0000000000      -0.0000000000      -0.7540488688  -1.399961302827e-16  -4.239471470527e-17  -1.692852063750e-01
2
Properties=species:S:1:pos:R:3:forces:R:3 energy=-7.571499774987e+01 dipole="1.2767917225e-16 -1.6622325612e-15 -5.2816353088e-01" quadrupole="-8.1008678752e+00 1.9997105836e-15 -2.2573342820e-15 1.9997105836e-15 -8.1008678752e+00 -9.0965738289e-16 -2.2573342820e-15 -9.0965738289e-16 -6.2415482465e+00" polarizability="2.0654767713e+01 -1.1679546219e-13 3.7394494834e-14 -1.1679546219e-13 2.0654767713e+01 -8.6706862476e-15 3.7394494834e-14 -8.6706862476e-15 2.0310549147e+01" charge=-1 multiplicity=1 method=wB97M-V basis=def2-svpd config_type=oh- sample_index=196 temperature=300.0 units=atomic
O        -0.0000000000      -0.0000000000       0.1104188319   1.250073539801e-15   9.187403311844e-16  -6.447174209441e-02
H         0.0000000000       0.0000000000      -0.9418941548   3.289343663848e-17   4.722565505619e-17   6.447226113576e-02
2
Properties=species:S:1:pos:R:3:forces:R:3 energy=-7.571953020351e+01 dipole="-7.7456460746e-16 -3.5569262482e-16 -5.5309224533e-01" quadrupole="-8.0663220549e+00 -3.6882186853e-15 1.2524717857e-15 -3.6882186853e-15 -8.0663220549e+00 1.2867003174e-15 1.2524717857e-15 1.2867003174e-15 -6.2071473967e+00" polarizability="2.0654964671e+01 -1.2612133560e-13 7.4214670708e-15 -1.2612133560e-13 2.0654964671e+01 -1.5155056627e-14 7.4214670708e-15 -1.5155056627e-14 1.9137072415e+01" charge=-1 multiplicity=1 method=wB97M-V basis=def2-svpd config_type=oh- sample_index=197 temperature=300.0 units=atomic
O        -0.0000000000      -0.0000000000       0.1076220631  -4.718189651996e-16   4.275195267375e-17  -3.462898094013e-02
H         0.0000000000       0.0000000000      -0.8971467202  -6.550472437690e-17  -6.069007755949e-17   3.462792470992e-02
2
Properties=species:S:1:pos:R:3:forces:R:3 energy=-7.571999216326e+01 dipole="1.4141014622e-16 -6.3038028781e-16 -5.5679143802e-01" quadrupole="-8.0603440215e+00 -1.8541408222e-15 -6.3475614522e-16 -1.8541408222e-15 -8.0603440215e+00 -1.0711552378e-15 -6.3475614522e-16 -1.0711552378e-15 -6.2022064378e+00" polarizability="2.0653888958e+01 -7.1498362786e-14 8.5355985245e-15 -7.1498362786e-14 2.0653888958e+01 8.8674727865e-15 8.5355985245e-15 8.8674727865e-15 1.8953155759e+01" charge=-1 multiplicity=1 method=wB97M-V basis=def2-svpd config_type=oh- sample_index=198 temperature=300.0 units=atomic
O        -0.0000000000      -0.0000000000       0.1071683545  -7.636417000133e-16  -1.066494023309e-15  -2.870356449017e-02
H         0.0000000000       0.0000000000      -0.8898875236   1.709892933952e-18   1.259913114911e-17   2.870182048807e-02
2
Properties=species:S:1:pos:R:3:forces:R:3 energy=-7.571923957925e+01 dipole="5.2802831238e-16 1.7828005784e-15 -5.8683788302e-01" quadrupole="-7.9992799968e+00 4.2412482006e-16 -5.4406095535e-16 4.2412482006e-16 -7.9992799968e+00 -6.0191253251e-16 -5.4406095535e-16 -6.0191253251e-16 -6.1623887880e+00" polarizability="2.0624735731e+01 -1.3011813849e-13 3.1452461667e-15 -1.3011813849e-13 2.0624735731e+01 1.5009434577e-15 3.1452461667e-15 1.5009434577e-15 1.7316667167e+01" charge=-1 multiplicity=1 method=wB97M-V basis=def2-svpd config_type=oh- sample_index=199 temperature=300.0 units=atomic
O         0.0000000000       0.0000000000       0.1029192804  -5.847268855358e-16  -3.804611085451e-16   4.609417741244e-02
H        -0.0000000000      -0.0000000000      -0.8219036543   1.347397002403e-16  -2.067887506424e-17  -4.609687300051e-02
2
Properties=species:S:1:pos:R:3:forces:R:3 energy=-7.571916291557e+01 dipole="1.5995343044e-15 -2.1762040897e-16 -5.5048861143e-01" quadrupole="-8.0703786089e+00 1.2708741702e-16 -2.6410037633e-15 1.2708741702e-16 -8.0703786089e+00 -4.3723860573e-16 -2.6410037633e-15 -4.3723860573e-16 -6.2106458569e+00" polarizability="2.0655509371e+01 -2.4202861937e-14 2.2041818586e-14 -2.4202861937e-14 2.0655509371e+01 4.1967351590e-15 2.2041818586e-14 4.1967351590e-15 1.9264791029e+01" charge=-1 multiplicity=1 method=wB97M-V basis=def2-svpd config_type=oh- sample_index=200 temperature=300.0 units=atomic
O        -0.0000000000      -0.0000000000       0.1079345563   6.530453390246e-17  -1.970730592370e-16  -3.851804471557e-02
H         0.0000000000       0.0000000000      -0.9021465145   7.285620156496e-17   7.796003909037e-18   3.851762847507e-02
2
Properties=species:S:1:pos:R:3:forces:R:3 energy=-7.571940376720e+01 dipole="5.8033190344e-16 -8.2695801566e-16 -5.5216938452e-01" quadrupole="-8.0677737371e+00 -1.4391407957e-14 7.5330004039e-16 -1.4391407957e-14 -8.0677737371e+00 -2.3576352163e-16 7.5330004039e-16 -2.3576352163e-16 -6.2083853456e+00" polarizability="2.0655176846e+01 -2.1316282073e-13 -6.2781913455e-15 -2.1316282073e-13 2.0655176846e+01 -1.3108777730e-14 -6.2781913455e-15 -1.3108777730e-14 1.9182500886e+01" charge=-1 multiplicity=1 method=wB97M-V basis=def2-svpd config_type=oh- sample_index=201 temperature=300.0 units=atomic
O        -0.0000000000      -0.0000000000       0.1077334539  -1.274962665982e-15  -2.971627725197e-16  -3.603287212623e-02
H         0.0000000000       0.0000000000      -0.8989289386   9.534998581783e-17  -1.053850819494e-17   3.603203587434e-02
2
Properties=species:S:1:pos:R:3:forces:R:3 energy=-7.571209290159e+01 dipole="1.3693193892e-15 -1.3730916483e-16 -5.1538089562e-01" quadrupole="-8.1155449349e+00 -3.7720380616e-15 -1.7804735513e-15 -3.7720380616e-15 -8.1155449349e+00 1.0483794630e-15 -1.7804735513e-15 1.0483794630e-15 -6.2601120499e+00" polarizability="2.0651574054e+01 3.2907010450e-13 -4.6663482994e-15 3.2907010450e-13 2.0651574054e+01 1.8301297169e-16 -4.6663482994e-15 1.8301297169e-16 2.0876741098e+01" charge=-1 multiplicity=1 method=wB97M-V basis=def2-svpd config_type=oh- sample_index=202 temperature=300.0 units=atomic
O        -0.0000000000      -0.0000000000       0.1117129057  -6.550750077984e-16  -6.723955249228e-16  -7.496866616763e-02
H         0.0000000000       0.0000000000      -0.9625989348   4.529418485248e-17  -3.475998507385e-17   7.496837739044e-02
2
Properties=species:S:1:pos:R:3:forces:R:3 energy=-7.571826833173e+01 dipole="-4.9050055424e-16 2.4493965954e-15 -5.9027285021e-01" quadrupole="-7.9903354159e+00 6.9699371085e-16 4.2667929343e-15 6.9699371085e-16 -7.9903354159e+00 -1.2764703677e-15 4.2667929343e-15 -1.2764703677e-15 -6.1576776496e+00" polarizability="2.0617806654e+01 2.7200464103e-13 -2.4189600241e-14 2.7200464103e-13 2.0617806654e+01 1.2338993466e-15 -2.4189600241e-14 1.2338993466e-15 1.7107269240e+01" charge=-1 multiplicity=1 method=wB97M-V basis=def2-svpd config_type=oh- sample_index=203 temperature=300.0 units=atomic
O         0.0000000000       0.0000000000       0.1023454257  -3.463944828644e-16  -1.529063659986e-15   5.942572371461e-02
H        -0.0000000000      -0.0000000000      -0.8127221562  -5.425148517702e-17   2.557604706351e-17  -5.942972451705e-02
2
Properties=species:S:1:pos:R:3:forces:R:3 energy=-7.571764300551e+01 dipole="-1.4666092770e-16 2.5948493371e-16 -5.9205788562e-01" quadrupole="-7.9854652656e+00 1.1343679736e-15 -3.5718751435e-15 1.1343679736e-15 -7.9854652656e+00 5.7602827726e-16 -3.5718751435e-15 5.7602827726e-16 -6.1551911305e+00" polarizability="2.0613764280e+01 -6.9888539400e-14 3.9640540023e-14 -6.9888539400e-14 2.0613764280e+01 5.9041104628e-15 3.9640540023e-14 5.9041104628e-15 1.6995941801e+01" charge=-1 multiplicity=1 method=wB97M-V basis=def2-svpd config_type=oh- sample_index=204 temperature=300.0 units=atomic
O         0.0000000000       0.0000000000       0.1020372960  -5.857684647251e-16  -4.810432278084e-16   6.696411842890e-02
H        -0.0000000000      -0.0000000000      -0.8077921768   6.400699790345e-17  -2.773861411983e-17  -6.696803126820e-02
2
Properties=species:S:1:pos:R:3:forces:R:3 energy=-7.571997809363e+01 dipole="3.0468790714e-15 2.0101052614e-15 -5.5666902675e-01" quadrupole="-8.0605460449e+00 -2.4499138029e-15 -4.4391320788e-15 -2.4499138029e-15 -8.0605460449e+00 -1.9821437755e-15 -4.4391320788e-15 -1.9821437755e-15 -6.2023694311e+00" polarizability="2.0653930606e+01 -3.3306690739e-14 1.8713775596e-14 -3.3306690739e-14 2.0653930606e+01 -8.0000609135e-16 1.8713775596e-14 -8.0000609135e-16 1.8959289879e+01" charge=-1 multiplicity=1 method=wB97M-V basis=def2-svpd config_type=oh- sample_index=205 temperature=300.0 units=atomic
O        -0.0000000000      -0.0000000000       0.1071835586  -5.534815595511e-17   2.217447802234e-17  -2.890762657564e-02
H         0.0000000000       0.0000000000      -0.8901307851   8.338323054617e-17  -9.382655697574e-17   2.890589829362e-02
2
Properties=species:S:1:pos:R:3:forces:R:3 energy=-7.572078004789e+01 dipole="1.3916089298e-16 1.3110557030e-16 -5.7582187486e-01" quadrupole="-8.0247708983e+00 -2.0082402431e-15 -4.3025518202e-16 -2.0082402431e-15 -8.0247708983e+00 -4.4623550369e-16 -4.3025518202e-16 -4.4623550369e-16 -6.1770948201e+00" polarizability="2.0640850830e+01 1.9939605522e-13 -2.1983437845e-14 1.9939605522e-13 2.0640850830e+01 -1.4390767228e-15 -2.1983437845e-14 -1.4390767228e-15 1.7951979996e+01" charge=-1 multiplicity=1 method=wB97M-V basis=def2-svpd config_type=oh- sample_index=206 temperature=300.0 units=atomic
O         0.0000000000       0.0000000000       0.1046166122   4.814248954006e-16  -6.416304891213e-16   1.157044390639e-02
H        -0.0000000000      -0.0000000000      -0.8490604376  -1.195322387492e-16   2.094667017132e-17  -1.156843109246e-02
2
Properties=species:S:1:pos:R:3:forces:R:3 energy=-7.571491443871e+01 dipole="-1.1624622642e-15 -5.7728373316e-17 -5.2777929757e-01" quadrupole="-8.1013346840e+00 -2.1431776432e-15 -5.7659537860e-17 -2.1431776432e-15 -8.1013346840e+00 1.2262239804e-15 -5.7659537860e-17 1.2262239804e-15 -6.2420962387e+00" polarizability="2.0654690143e+01 -6.1395333262e-14 -2.8944691952e-14 -6.1395333262e-14 2.0654690143e+01 1.1723732249e-14 -2.8944691952e-14 1.1723732249e-14 2.0327878090e+01" charge=-1 multiplicity=1 method=wB97M-V basis=def2-svpd config_type=oh- sample_index=207 temperature=300.0 units=atomic
O        -0.0000000000      -0.0000000000       0.1104589457   5.980863051548e-17   1.526342096138e-17  -6.482547430792e-02
H         0.0000000000       0.0000000000      -0.9425359628   2.442451922674e-17  -2.404801614637e-17   6.482594776364e-02
2
Properties=species:S:1:pos:R:3:forces:R:3 energy=-7.571999502695e+01 dipole="2.0670750967e-15 6.0035612003e-16 -5.5681644673e-01" quadrupole="-8.0603027116e+00 2.2576056688e-16 -2.3678277796e-15 2.2576056688e-16 -8.0603027116e+00 2.6976481643e-16 -2.3678277796e-15 2.6976481643e-16 -6.2021731420e+00" polarizability="2.0653880396e+01 1.6253665081e-13 8.0734832526e-15 1.6253665081e-13 2.0653880396e+01 -5.0503293833e-15 8.0734832526e-15 -5.0503293833e-15 1.8951902135e+01" charge=-1 multiplicity=1 method=wB97M-V basis=def2-svpd config_type=oh- sample_index=208 temperature=300.0 units=atomic
O        -0.0000000000      -0.0000000000       0.1071652466   6.376419896760e-16  -3.014570038730e-16  -2.866180457786e-02
H         0.0000000000       0.0000000000      -0.8898377987  -7.046220576300e-17  -4.029081353299e-17   2.866005743669e-02
2
Properties=species:S:1:pos:R:3:forces:R:3 energy=-7.571039955761e+01 dipole="1.8359647171e-15 -1.0358789066e-16 -6.0407373310e-01" quadrupole="-7.9477383102e+00 2.7515556658e-15 -1.0520907945e-15 2.7515556658e-15 -7.9477383102e+00 7.8562979459e-16 -1.0520907945e-15 7.8562979459e-16 -6.1373229136e+00" polarizability="2.0576250243e+01 1.1357581542e-13 1.3070879864e-14 1.1357581542e-13 2.0576250243e+01 1.3204783035e-14 1.3070879864e-14 1.3204783035e-14 1.6190809637e+01" charge=-1 multiplicity=1 method=wB97M-V basis=def2-svpd config_type=oh- sample_index=209 temperature=300.0 units=atomic
O         0.0000000000       0.0000000000       0.0997428276   3.344249747425e-16   4.422448611705e-16   1.324758236452e-01
H        -0.0000000000      -0.0000000000      -0.7710813935   7.914669424643e-17  -1.880552238619e-17  -1.324723250657e-01
2
Properties=species:S:1:pos:R:3:forces:R:3 energy=-7.572081762253e+01 dipole="-3.4965234546e-15 1.0000713939e-15 -5.7505772320e-01" quadrupole="-8.0263841249e+00 2.0854945705e-15 3.6349889460e-15 2.0854945705e-15 -8.0263841249e+00 -1.6083248488e-15 3.6349889460e-15 -1.6083248488e-15 -6.1781024851e+00" polarizability="2.0641684362e+01 8.5709217501e-14 -2.2123066256e-14 8.5709217501e-14 2.0641684362e+01 -8.6499949861e-15 -2.2123066256e-14 -8.6499949861e-15 1.7994287848e+01" charge=-1 multiplicity=1 method=wB97M-V basis=def2-svpd config_type=oh- sample_index=210 temperature=300.0 units=atomic
O         0.0000000000       0.0000000000       0.1047273978  -7.087779410018e-16  -3.120769879038e-16   9.550638262863e-03
H        -0.0000000000      -0.0000000000      -0.8508329721   4.145602093106e-18  -3.143203240720e-17  -9.548692964020e-03
2
Properties=species:S:1:pos:R:3:forces:R:3 energy=-7.568599969177e+01 dipole="1.0597838999e-15 -2.1971297566e-15 -6.1910946948e-01" quadrupole="-7.8809377911e+00 -4.4076958184e-15 -2.3271029914e-15 -4.4076958184e-15 -7.8809377911e+00 1.2709232224e-15 -2.3271029914e-15 1.2709232224e-15 -6.1083866914e+00" polarizability="2.0485460707e+01 7.1331829332e-15 -1.2183309092e-14 7.1331829332e-15 2.0485460707e+01 -2.0736855336e-14 -1.2183309092e-14 -2.0736855336e-14 1.4964534872e+01" charge=-1 multiplicity=1 method=wB97M-V basis=def2-svpd config_type=oh- sample_index=211 temperature=300.0 units=atomic
O         0.0000000000       0.0000000000       0.0960014011  -3.477554519234e-16  -1.378588446485e-15   2.843527030007e-01
H        -0.0000000000      -0.0000000000      -0.7112197277   4.071202164476e-17  -8.109189621084e-17  -2.843444834712e-01
2
Properties=species:S:1:pos:R:3:forces:R:3 energy=-7.571850166375e+01 dipole="-2.3294825730e-15 -9.4919580919e-17 -5.4626070816e-01" quadrupole="-8.0767179296e+00 -2.3761537332e-15 2.1578443451e-15 -2.3761537332e-15 -8.0767179296e+00 -1.6280880605e-15 2.1578443451e-15 -1.6280880605e-15 -6.2163680593e+00" polarizability="2.0656059213e+01 1.6209256160e-13 -1.4762672497e-14 1.6209256160e-13 2.0656059213e+01 2.7389850106e-14 -1.4762672497e-14 2.7389850106e-14 1.9469343901e+01" charge=-1 multiplicity=1 method=wB97M-V basis=def2-svpd config_type=oh- sample_index=212 temperature=300.0 units=atomic
O        -0.0000000000      -0.0000000000       0.1084307482  -7.303543017779e-16  -1.352353229697e-16  -4.438588497098e-02
H         0.0000000000       0.0000000000      -0.9100854324   1.484838323317e-17   3.595049061710e-17   4.438646366948e-02
2
Properties=species:S:1:pos:R:3:forces:R:3 energy=-7.571927533117e+01 dipole="-3.5681587468e-15 -1.8541947724e-16 -5.8668930894e-01" quadrupole="-7.9996549543e+00 2.8068319114e-15 3.2709705446e-15 2.8068319114e-15 -7.9996549543e+00 -1.3444679820e-15 3.2709705446e-15 -1.3444679820e-15 -6.1625906981e+00" polarizability="2.0625012041e+01 9.9920072216e-16 -1.9257400605e-14 9.9920072216e-16 2.0625012041e+01 1.4542740988e-14 -1.9257400605e-14 1.4542740988e-14 1.7325589319e+01" charge=-1 multiplicity=1 method=wB97M-V basis=def2-svpd config_type=oh- sample_index=213 temperature=300.0 units=atomic
O         0.0000000000       0.0000000000       0.1029435683   1.759601403026e-15  -5.323864971118e-17   4.554958156434e-02
H        -0.0000000000      -0.0000000000      -0.8222922533   1.445737003207e-16   7.112961273452e-17  -4.555219022345e-02
2
Properties=species:S:1:pos:R:3:forces:R:3 energy=-7.572073790401e+01 dipole="2.3023359264e-15 3.1968015979e-15 -5.6545224745e-01" quadrupole="-8.0452518855e+00 -1.5803140868e-15 2.1937146346e-17 -1.5803140868e-15 -8.0452518855e+00 -2.5780249037e-15 2.1937146346e-17 -2.5780249037e-15 -6.1907435877e+00" polarizability="2.0649734854e+01 -8.1046280798e-14 6.8830996365e-15 -8.1046280798e-14 2.0649734854e+01 1.8242849984e-14 6.8830996365e-15 1.8242849984e-14 1.8510032668e+01" charge=-1 multiplicity=1 method=wB97M-V basis=def2-svpd config_type=oh- sample_index=214 temperature=300.0 units=atomic
O        -0.0000000000      -0.0000000000       0.1060565276   5.694589683963e-16  -3.486458766868e-16  -1.268769307018e-02
H         0.0000000000       0.0000000000      -0.8720986368  -4.476678298838e-17   4.856365659072e-17   1.268665804004e-02
2
Properties=species:S:1:pos:R:3:forces:R:3 energy=-7.571935906282e+01 dipole="4.6826529521e-15 1.6275880543e-15 -5.8633315675e-01" quadrupole="-8.0005499245e+00 7.8861355582e-15 -3.2354477607e-15 7.8861355582e-15 -8.0005499245e+00 3.2538674009e-15 -3.2354477607e-15 3.2538674009e-15 -6.1630741485e+00" polarizability="2.0625666909e+01 2.7933211300e-13 2.0028560790e-14 2.7933211300e-13 2.0625666909e+01 -4.6848515986e-14 2.0028560790e-14 -4.6848515986e-14 1.7346933264e+01" charge=-1 multiplicity=1 method=wB97M-V basis=def2-svpd config_type=oh- sample_index=215 temperature=300.0 units=atomic
O         0.0000000000       0.0000000000       0.1030016173  -1.395234197590e-15   7.125236923549e-16   4.425428690902e-02
H        -0.0000000000      -0.0000000000      -0.8232210192   2.516125177221e-17  -5.205046956780e-18  -4.425668088845e-02
2
Properties=species:S:1:pos:R:3:forces:R:3 energy=-7.572090005726e+01 dipole="3.3051427765e-15 2.6236423573e-16 -5.7101193875e-01" quadrupole="-8.0346366140e+00 1.1240960463e-15 -2.3831824488e-15 1.1240960463e-15 -8.0346366140e+00 4.0370051308e-16 -2.3831824488e-15 4.0370051308e-16 -6.1834280746e+00" polarizability="2.0645592493e+01 4.1244785365e-14 1.8724669377e-14 4.1244785365e-14 2.0645592493e+01 6.4309770143e-15 1.8724669377e-14 6.4309770143e-15 1.8214998242e+01" charge=-1 multiplicity=1 method=wB97M-V basis=def2-svpd config_type=oh- sample_index=216 temperature=300.0 units=atomic
O        -0.0000000000      -0.0000000000       0.1053009715   1.314479891996e-16  -2.195414627553e-16  -4.867956550036e-04
H         0.0000000000       0.0000000000      -0.8600099742  -5.689170742329e-17   3.791955468466e-18   4.877039899731e-04
2
Properties=species:S:1:pos:R:3:forces:R:3 energy=-7.571963741746e+01 dipole="2.3479653011e-15 -1.7662873999e-15 -5.5390059370e-01" quadrupole="-8.0650377367e+00 -2.4536509798e-15 -2.7808170418e-15 -2.4536509798e-15 -8.0650377367e+00 1.5077205583e-15 -2.7808170418e-15 1.5077205583e-15 -6.2060648633e+00" polarizability="2.0654760957e+01 1.8696155735e-13 2.9545298305e-14 1.8696155735e-13 2.0654760957e+01 -2.1215361974e-14 2.9545298305e-14 -2.1215361974e-14 1.9097134705e+01" charge=-1 multiplicity=1 method=wB97M-V basis=def2-svpd config_type=oh- sample_index=217 temperature=300.0 units=atomic
O        -0.0000000000      -0.0000000000       0.1075239154  -4.061550157963e-16   7.303267043299e-16  -3.337559268609e-02
H         0.0000000000       0.0000000000      -0.8955763877   1.926441099075e-16   4.780851775588e-17   3.337435525002e-02
2
Properties=species:S:1:pos:R:3:forces:R:3 energy=-7.571802259787e+01 dipole="1.0114624326e-15 -1.2349160193e-15 -5.4344914328e-01" quadrupole="-8.0807738381e+00 -3.6764276619e-15 1.1677840860e-15 -3.6764276619e-15 -8.0807738381e+00 8.3303216888e-16 1.1677840860e-15 8.3303216888e-16 -6.2202040539e+00" polarizability="2.0656217421e+01 -3.1086244690e-14 -1.3894849472e-14 -3.1086244690e-14 2.0656217421e+01 1.2096617891e-14 -1.3894849472e-14 1.2096617891e-14 1.9603537411e+01" charge=-1 multiplicity=1 method=wB97M-V basis=def2-svpd config_type=oh- sample_index=218 temperature=300.0 units=atomic
O        -0.0000000000      -0.0000000000       0.1087534601   3.998763657099e-16  -1.025939185990e-17  -4.800792430880e-02
H         0.0000000000       0.0000000000      -0.9152487219  -4.704759028241e-17  -6.252527062982e-17   4.800898181429e-02
2
Properties=species:S:1:pos:R:3:forces:R:3 energy=-7.565000580802e+01 dipole="1.9687440223e-15 -7.2357109384e-16 -6.2754145040e-01" quadrupole="-7.8224214473e+00 2.7472621265e-15 -2.0376467739e-15 2.7472621265e-15 -7.8224214473e+00 2.8063527570e-16 -2.0376467739e-15 2.8063527570e-16 -6.0823794749e+00" polarizability="2.0383818720e+01 2.0400348077e-14 6.1089953014e-15 2.0400348077e-14 2.0383818720e+01 7.8193482453e-15 6.1089953014e-15 7.8193482453e-15 1.4045838668e+01" charge=-1 multiplicity=1 method=wB97M-V basis=def2-svpd config_type=oh- sample_index=219 temperature=300.0 units=atomic
O         0.0000000000       0.0000000000       0.0929691639  -1.077694579030e-15  -2.453342635718e-16   4.650880971539e-01
H        -0.0000000000      -0.0000000000      -0.6627048719   5.827160467031e-17   4.529352891748e-17  -4.650825901981e-01
2
Properties=species:S:1:pos:R:3:forces:R:3 energy=-7.572087439928e+01 dipole="2.0083717122e-16 1.1544292530e-15 -5.6897181590e-01" quadrupole="-8.0386244410e+00 9.2727776640e-17 -2.1498777274e-15 9.2727776640e-17 -8.0386244410e+00 -1.5400683547e-15 -2.1498777274e-15 -1.5400683547e-15 -6.1861112224e+00" polarizability="2.0647266052e+01 -1.1635137298e-13 2.5465318941e-14 -1.1635137298e-13 2.0647266052e+01 3.7756415324e-14 2.5465318941e-14 3.7756415324e-14 1.8324316038e+01" charge=-1 multiplicity=1 method=wB97M-V basis=def2-svpd config_type=oh- sample_index=220 temperature=300.0 units=atomic
O        -0.0000000000      -0.0000000000       0.1055823921   1.063300366337e-15  -3.312212984186e-16  -5.162880559567e-03
H         0.0000000000       0.0000000000      -0.8645126165   6.623363747812e-17   8.910279220839e-18   5.163044577955e-03
2
Properties=species:S:1:pos:R:3:forces:R:3 energy=-7.570781516668e+01 dipole="-4.1034082819e-16 6.6505214871e-16 -4.9796294122e-01" quadrupole="-8.1330151676e+00 4.7969626209e-15 3.1887390883e-15 4.7969626209e-15 -8.1330151676e+00 1.2928924844e-15 3.1887390883e-15 1.2928924844e-15 -6.2864951484e+00" polarizability="2.0644804959e+01 -1.5321077740e-13 -3.2558010519e-14 -1.5321077740e-13 2.0644804959e+01 -1.1307050848e-14 -3.2558010519e-14 -1.1307050848e-14 2.1619745904e+01" charge=-1 multiplicity=1 method=wB97M-V basis=def2-svpd config_type=oh- sample_index=221 temperature=300.0 units=atomic
O        -0.0000000000      -0.0000000000       0.1133641483  -2.000985573376e-16  -1.799590409428e-15  -8.588602550587e-02
H         0.0000000000       0.0000000000      -0.9890183045   4.369617579054e-17   2.254970628016e-17   8.588701057914e-02
2
Properties=species:S:1:pos:R:3:forces:R:3 energy=-7.571923636404e+01 dipole="1.8839825446e-15 -1.7952166706e-15 -5.5099144377e-01" quadrupole="-8.0696045253e+00 3.8742514005e-15 -2.3261373909e-15 3.8742514005e-15 -8.0696045253e+00 1.1560197732e-15 -2.3261373909e-15 1.1560197732e-15 -6.2099687713e+00" polarizability="2.0655417026e+01 1.3855583347e-13 2.1914590272e-14 1.3855583347e-13 2.0655417026e+01 -1.5405504266e-14 2.1914590272e-14 -1.5405504266e-14 1.9240232203e+01" charge=-1 multiplicity=1 method=wB97M-V basis=def2-svpd config_type=oh- sample_index=222 temperature=300.0 units=atomic
O        -0.0000000000      -0.0000000000       0.1078746293   1.687523015314e-16   9.834256915053e-16  -3.778406860988e-02
H         0.0000000000       0.0000000000      -0.9011877012  -1.080703670791e-17   1.631330949164e-17   3.778352544704e-02
2
Properties=species:S:1:pos:R:3:forces:R:3 energy=-7.571864515431e+01 dipole="3.7806371792e-15 -1.1887256733e-15 -5.8905706124e-01" quadrupole="-7.9935633590e+00 4.0506190988e-15 -1.9285692269e-15 4.0506190988e-15 -7.9935633590e+00 -3.6576936390e-16 -1.9285692269e-15 -3.6576936390e-16 -6.1593552647e+00" polarizability="2.0620381644e+01 -2.0861784522e-14 4.6310075651e-14 -2.0861784522e-14 2.0620381644e+01 6.1219065152e-15 4.6310075651e-14 6.1219065152e-15 1.7182086821e+01" charge=-1 multiplicity=1 method=wB97M-V basis=def2-svpd config_type=oh- sample_index=223 temperature=300.0 units=atomic
O         0.0000000000       0.0000000000       0.1025513124  -3.572831256250e-16  -2.707624017060e-16   5.453868958456e-02
H        -0.0000000000      -0.0000000000      -0.8160162804   3.488001521643e-17   4.686979693086e-17  -5.454241673492e-02
2
Properties=species:S:1:pos:R:3:forces:R:3 energy=-7.571988810426e+01 dipole="-2.3423704374e-15 -5.4404615851e-16 -5.5590314545e-01" quadrupole="-8.0618033727e+00 -1.3344391183e-15 2.9426206971e-15 -1.3344391183e-15 -8.0618033727e+00 1.9699205604e-15 2.9426206971e-15 1.9699205604e-15 -6.2033899774e+00" polarizability="2.0654181496e+01 -1.6830981053e-13 -2.4506913476e-15 -1.6830981053e-13 2.0654181496e+01 -1.9638135639e-14 -2.4506913476e-15 -1.9638135639e-14 1.8997592656e+01" charge=-1 multiplicity=1 method=wB97M-V basis=def2-svpd config_type=oh- sample_index=224 temperature=300.0 units=atomic
O        -0.0000000000      -0.0000000000       0.1072783839  -5.779284737755e-16   8.704961377152e-17  -3.017161237637e-02
H         0.0000000000       0.0000000000      -0.8916479592   3.982815830208e-17  -3.941546654134e-19   3.016999527982e-02
2
Properties=species:S:1:pos:R:3:forces:R:3 energy=-7.571069591137e+01 dipole="-1.6243997180e-15 9.3628138183e-16 -6.0373863930e-01" quadrupole="-7.9489309716e+00 7.9078604878e-16 3.5638499643e-15 7.9078604878e-16 -7.9489309716e+00 7.5723168516e-16 3.5638499643e-15 7.5723168516e-16 -6.1378592153e+00" polarizability="2.0577598680e+01 3.1592783944e-14 -4.8280607083e-14 3.1592783944e-14 2.0577598680e+01 -1.0719651686e-14 -4.8280607083e-14 -1.0719651686e-14 1.6214843320e+01" charge=-1 multiplicity=1 method=wB97M-V basis=def2-svpd config_type=oh- sample_index=225 temperature=300.0 units=atomic
O         0.0000000000       0.0000000000       0.0998130677   1.868255907628e-16  -4.842915129010e-16   1.302018941776e-01
H        -0.0000000000      -0.0000000000      -0.7722052131  -1.514108902273e-16  -1.999950633635e-17  -1.301982682748e-01
2
Properties=species:S:1:pos:R:3:forces:R:3 energy=-7.571569291386e+01 dipole="1.0543555727e-15 2.4307323865e-15 -5.9643365559e-01" quadrupole="-7.9728055672e+00 -1.8092841381e-15 1.9456164368e-16 -1.8092841381e-15 -7.9728055672e+00 -2.8336952707e-15 1.9456164368e-16 -2.8336952707e-15 -6.1489501539e+00" polarizability="2.0602384032e+01 -7.3809014456e-14 8.2692964594e-15 -7.3809014456e-14 2.0602384032e+01 3.6374539097e-14 8.2692964594e-15 3.6374539097e-14 1.6714894349e+01" charge=-1 multiplicity=1 method=wB97M-V basis=def2-svpd config_type=oh- sample_index=226 temperature=300.0 units=atomic
O         0.0000000000       0.0000000000       0.1012497816   3.438298355128e-16  -2.878834442816e-16   8.751270839396e-02
H        -0.0000000000      -0.0000000000      -0.7951921901  -5.689735018752e-17   2.139644667086e-17  -8.751383353775e-02
2
Properties=species:S:1:pos:R:3:forces:R:3 energy=-7.572080102121e+01 dipole="-3.1339023635e-15 -5.3518977857e-16 -5.6675004522e-01" quadrupole="-8.0428439828e+00 -2.1439427415e-15 2.0590618898e-15 -2.1439427415e-15 -8.0428439828e+00 -2.3285347721e-15 2.0590618898e-15 -2.3285347721e-15 -6.1890345324e+00" polarizability="2.0648883162e+01 1.9584334154e-13 -3.2919683680e-16 1.9584334154e-13 2.0648883162e+01 1.9113164620e-14 -3.2919683680e-16 1.9113164620e-14 1.8441961149e+01" charge=-1 multiplicity=1 method=wB97M-V basis=def2-svpd config_type=oh- sample_index=227 temperature=300.0 units=atomic
O        -0.0000000000      -0.0000000000       0.1058833136   9.572469999456e-16  -1.476554978776e-16  -9.989062835555e-03
H         0.0000000000       0.0000000000      -0.8693272669   5.640562037952e-18   2.450194695681e-17   9.988434137609e-03
2
Properties=species:S:1:pos:R:3:forces:R:3 energy=-7.571999353821e+01 dipole="-8.4562618558e-17 -7.0851609742e-16 -5.5680344164e-01" quadrupole="-8.0603241953e+00 1.8564378542e-15 4.2743645182e-16 1.8564378542e-15 -8.0603241953e+00 7.1260315085e-16 4.2743645182e-16 7.1260315085e-16 -6.2021904566e+00" polarizability="2.0653884851e+01 2.9531932455e-14 -3.0013621603e-14 2.9531932455e-14 2.0653884851e+01 -2.0487776859e-14 -3.0013621603e-14 -2.0487776859e-14 1.8952554069e+01" charge=-1 multiplicity=1 method=wB97M-V basis=def2-svpd config_type=oh- sample_index=228 temperature=300.0 units=atomic
O        -0.0000000000      -0.0000000000       0.1071668629   8.060768183312e-16  -5.125860660655e-16  -2.868352376502e-02
H         0.0000000000       0.0000000000      -0.8898636580   7.121552360514e-17  -2.745341356538e-17   2.868177825316e-02
2
Properties=species:S:1:pos:R:3:forces:R:3 energy=-7.571712135417e+01 dipole="-7.3451656715e-17 -1.0595857123e-15 -5.3854066924e-01" quadrupole="-8.0875706660e+00 -4.8609080759e-15 -1.5339589803e-15 -4.8609080759e-15 -8.0875706660e+00 2.6752100721e-15 -1.5339589803e-15 2.6752100721e-15 -6.2269647525e+00" polarizability="2.0656143646e+01 1.4011014571e-13 -1.2945231537e-14 1.4011014571e-13 2.0656143646e+01 -6.8148743030e-15 -1.2945231537e-14 -6.8148743030e-15 1.9834545458e+01" charge=-1 multiplicity=1 method=wB97M-V basis=def2-svpd config_type=oh- sample_index=229 temperature=300.0 units=atomic
O        -0.0000000000      -0.0000000000       0.1093039297  -1.340194409696e-15  -7.970660938689e-16  -5.385000529774e-02
H         0.0000000000       0.0000000000      -0.9240560652  -8.085828994251e-17  -6.640445479339e-17   5.385138645287e-02
2
Properties=species:S:1:pos:R:3:forces:R:3 energy=-7.571897786171e+01 dipole="1.1464705582e-15 -2.7951886968e-16 -5.4925496867e-01" quadrupole="-8.0722592530e+00 2.3799585541e-15 -1.0235447262e-15 2.3799585541e-15 -8.0722592530e+00 1.8033663121e-15 -1.0235447262e-15 1.8033663121e-15 -6.2123100460e+00" polarizability="2.0655710902e+01 1.3322676296e-13 -1.0184271664e-14 1.3322676296e-13 2.0655710902e+01 -6.1386019157e-15 -1.0184271664e-14 -6.1386019157e-15 1.9324831439e+01" charge=-1 multiplicity=1 method=wB97M-V basis=def2-svpd config_type=oh- sample_index=230 temperature=300.0 units=atomic
O        -0.0000000000      -0.0000000000       0.1080807418   3.969457255468e-16  -2.768231754568e-16  -4.028533957270e-02
H         0.0000000000       0.0000000000      -0.9044854373  -5.857120281915e-17   2.181004506825e-17   4.028523283229e-02
2
Properties=species:S:1:pos:R:3:forces:R:3 energy=-7.571333436356e+01 dipole="2.6920394502e-15 3.7251073801e-16 -5.2071228723e-01" quadrupole="-8.1096256517e+00 -3.1815713992e-15 -1.2906764144e-15 -3.1815713992e-15 -8.1096256517e+00 7.9071400131e-16 -1.2906764144e-15 7.9071400131e-16 -6.2522816207e+00" polarizability="2.0652988911e+01 1.0347278590e-13 1.7713346834e-14 1.0347278590e-13 2.0652988911e+01 -3.4858331516e-15 1.7713346834e-14 -3.4858331516e-15 2.0643166339e+01" charge=-1 multiplicity=1 method=wB97M-V basis=def2-svpd config_type=oh- sample_index=231 temperature=300.0 units=atomic
O        -0.0000000000      -0.0000000000       0.1111832131   4.222109502526e-18   5.752841620265e-16  -7.089433437912e-02
H         0.0000000000       0.0000000000      -0.9541240183  -7.112269444949e-17  -3.707670132465e-17   7.089415098180e-02
2
Properties=species:S:1:pos:R:3:forces:R:3 energy=-7.571311672674e+01 dipole="-5.8513653747e-16 3.4036744901e-16 -6.0066122203e-01" quadrupole="-7.9594589778e+00 -2.5745672274e-16 2.7130291472e-15 -2.5745672274e-16 -7.9594589778e+00 4.3209290026e-16 2.7130291472e-15 4.3209290026e-16 -6.1426589977e+00" polarizability="2.0589052401e+01 -3.5749181393e-14 -4.2377428564e-14 -3.5749181393e-14 2.0589052401e+01 -9.5765617170e-15 -4.2377428564e-14 -9.5765617170e-15 1.6430790818e+01" charge=-1 multiplicity=1 method=wB97M-V basis=def2-svpd config_type=oh- sample_index=232 temperature=300.0 units=atomic
O         0.0000000000       0.0000000000       0.1004392383  -1.399534083596e-16   9.723058808641e-16   1.107227346495e-01
H        -0.0000000000      -0.0000000000      -0.7822237481  -9.255670279646e-17  -8.552892628088e-17  -1.107198329158e-01
2
Properties=species:S:1:pos:R:3:forces:R:3 energy=-7.570637327442e+01 dipole="1.4905903422e-15 -1.3563083587e-15 -6.0798592604e-01" quadrupole="-7.9330569435e+00 -1.1975538038e-15 -7.3016867204e-16 -1.1975538038e-15 -7.9330569435e+00 7.2310276557e-17 -7.3016867204e-16 7.2310276557e-17 -6.1308192818e+00" polarizability="2.0558826652e+01 -2.8899105331e-13 1.8698565017e-14 -2.8899105331e-13 2.0558826652e+01 -5.7817627795e-15 1.8698565017e-14 -5.7817627795e-15 1.5901740326e+01" charge=-1 multiplicity=1 method=wB97M-V basis=def2-svpd config_type=oh- sample_index=233 temperature=300.0 units=atomic
O         0.0000000000       0.0000000000       0.0988891412   1.484451740696e-16  -8.548781667444e-16   1.616308176058e-01
H        -0.0000000000      -0.0000000000      -0.7574226759  -1.090736150486e-16   2.531928414672e-17  -1.616314413197e-01
2
Properties=species:S:1:pos:R:3:forces:R:3 energy=-7.571521646669e+01 dipole="2.5554312340e-15 -1.5963692278e-15 -5.2917884331e-01" quadrupole="-8.0996260346e+00 3.7850222639e-15 -3.3922855677e-15 3.7850222639e-15 -8.0996260346e+00 9.6957516074e-16 -3.3922855677e-15 9.6957516074e-16 -6.2401030355e+00" polarizability="2.0654964497e+01 1.4210854715e-13 9.9217700534e-15 1.4210854715e-13 2.0654964497e+01 4.0282128836e-15 9.9217700534e-15 4.0282128836e-15 2.0264661725e+01" charge=-1 multiplicity=1 method=wB97M-V basis=def2-svpd config_type=oh- sample_index=234 temperature=300.0 units=atomic
O        -0.0000000000      -0.0000000000       0.1103124523  -4.490597577102e-16   6.715228885579e-16  -6.352443744265e-02
H         0.0000000000       0.0000000000      -0.9401921152  -1.323979370856e-17  -7.038386240413e-17   6.352507797475e-02
2
Properties=species:S:1:pos:R:3:forces:R:3 energy=-7.571581313369e+01 dipole="-1.8771356830e-15 -1.3636813068e-15 -5.3200190304e-01" quadrupole="-8.0961081109e+00 3.2240341353e-15 1.1090691961e-15 3.2240341353e-15 -8.0961081109e+00 2.0335608932e-15 1.1090691961e-15 2.0335608932e-15 -6.2361059599e+00" polarizability="2.0655445972e+01 -2.0738966100e-13 -6.8624920243e-15 -2.0738966100e-13 2.0655445972e+01 7.2186673638e-15 -6.8624920243e-15 7.2186673638e-15 2.0136318101e+01" charge=-1 multiplicity=1 method=wB97M-V basis=def2-svpd config_type=oh- sample_index=235 temperature=300.0 units=atomic
O        -0.0000000000      -0.0000000000       0.1100136916  -2.097698476811e-16   5.610246863255e-16  -6.079119178744e-02
H         0.0000000000       0.0000000000      -0.9354120358   6.793065285242e-17   5.000302707735e-18   6.079215928565e-02
2
Properties=species:S:1:pos:R:3:forces:R:3 energy=-7.571046453589e+01 dipole="-3.6466315107e-16 -5.8467678918e-16 -5.0862212048e-01" quadrupole="-8.1226308698e+00 -3.5864623507e-16 1.4355401400e-15 -3.5864623507e-16 -8.1226308698e+00 -2.3355109284e-16 1.4355401400e-15 -2.3355109284e-16 -6.2701875310e+00" polarizability="2.0649067112e+01 -1.5676349108e-13 -5.4082230794e-15 -1.5676349108e-13 2.0649067112e+01 2.3472283068e-14 -5.4082230794e-15 2.3472283068e-14 2.1168859598e+01" charge=-1 multiplicity=1 method=wB97M-V basis=def2-svpd config_type=oh- sample_index=236 temperature=300.0 units=atomic
O        -0.0000000000      -0.0000000000       0.1123684188  -6.553456366693e-16  -6.717186736549e-17  -7.961194281802e-02
H         0.0000000000       0.0000000000      -0.9730869416   1.079157804062e-17   2.957953916931e-17   7.961201423198e-02
2
Properties=species:S:1:pos:R:3:forces:R:3 energy=-7.571740112218e+01 dipole="9.6595307910e-17 1.4888281880e-16 -5.4002064073e-01" quadrupole="-8.0855580594e+00 9.6661110795e-16 2.3783141943e-15 9.6661110795e-16 -8.0855580594e+00 -5.3087645383e-16 2.3783141943e-15 -5.3087645383e-16 -6.2249174857e+00" polarizability="2.0656210178e+01 -6.2616578589e-14 9.4008901695e-15 -6.2616578589e-14 2.0656210178e+01 -3.3379374568e-16 9.4008901695e-15 -3.3379374568e-16 1.9765316204e+01" charge=-1 multiplicity=1 method=wB97M-V basis=def2-svpd config_type=oh- sample_index=237 temperature=300.0 units=atomic
O        -0.0000000000      -0.0000000000       0.1091396254   6.357885981664e-16  -6.186305764022e-16  -5.214952716128e-02
H         0.0000000000       0.0000000000      -0.9214272479   4.798930160326e-17  -5.263463182645e-18   5.215087881069e-02
2
Properties=species:S:1:pos:R:3:forces:R:3 energy=-7.569429682125e+01 dipole="8.5966941343e-16 5.1820752777e-16 -4.4585356262e-01" quadrupole="-8.1729787193e+00 5.0939040240e-17 -1.0930750980e-15 5.0939040240e-17 -8.1729787193e+00 8.2666773226e-16 -1.0930750980e-15 8.2666773226e-16 -6.3733500442e+00" polarizability="2.0619985224e+01 -1.5332179970e-13 -1.4201727047e-14 -1.5332179970e-13 2.0619985224e+01 -1.2815827342e-15 -1.4201727047e-14 -1.2815827342e-15 2.3694555958e+01" charge=-1 multiplicity=1 method=wB97M-V basis=def2-svpd config_type=oh- sample_index=238 temperature=300.0 units=atomic
O        -0.0000000000      -0.0000000000       0.1177366153  -8.059353221556e-16   1.047019713095e-15  -1.044075561665e-01
H         0.0000000000       0.0000000000      -1.0589764236   5.472714134223e-17   2.912575578905e-17   1.044085707415e-01
2
Properties=species:S:1:pos:R:3:forces:R:3 energy=-7.571611814930e+01 dipole="2.9173788707e-16 4.4490414304e-16 -5.3347902542e-01" quadrupole="-8.0942282208e+00 1.5489280921e-15 -2.1803434137e-15 1.5489280921e-15 -8.0942282208e+00 -1.0692141395e-15 -2.1803434137e-15 -1.0692141395e-15 -6.2340269620e+00" polarizability="2.0655657622e+01 -3.6637359813e-14 -7.0217035408e-15 -3.6637359813e-14 2.0655657622e+01 5.4903110258e-15 -7.0217035408e-15 5.4903110258e-15 2.0068710953e+01" charge=-1 multiplicity=1 method=wB97M-V basis=def2-svpd config_type=oh- sample_index=239 temperature=300.0 units=atomic
O        -0.0000000000      -0.0000000000       0.1098555778   1.098601348463e-15  -7.361571502855e-16  -5.930035119856e-02
H         0.0000000000       0.0000000000      -0.9328822648   1.022077664945e-16  -3.274188937018e-17   5.930147092995e-02
2
Properties=species:S:1:pos:R:3:forces:R:3 energy=-7.571172885628e+01 dipole="6.1914843716e-16 2.2430295948e-16 -6.0250539252e-01" quadrupole="-7.9532397986e+00 -2.3374578812e-15 -7.1140258239e-16 -2.3374578812e-15 -7.9532397986e+00 -1.9079915756e-15 -7.1140258239e-16 -1.9079915756e-15 -6.1398087231e+00" polarizability="2.0582384519e+01 -6.8167693712e-14 8.0947023243e-15 -6.8167693712e-14 2.0582384519e+01 1.5926755470e-14 8.0947023243e-15 1.5926755470e-14 1.6302391065e+01" charge=-1 multiplicity=1 method=wB97M-V basis=def2-svpd config_type=oh- sample_index=240 temperature=300.0 units=atomic
O         0.0000000000       0.0000000000       0.1000679933   1.390794982679e-16   2.498476174187e-16   1.221016585939e-01
H        -0.0000000000      -0.0000000000      -0.7762839438   1.028401858867e-16  -8.816261473592e-18  -1.220979347021e-01
2
Properties=species:S:1:pos:R:3:forces:R:3 energy=-7.572040458756e+01 dipole="1.7109083959e-15 -7.9654555333e-17 -5.6082956439e-01" quadrupole="-8.0535092987e+00 1.5217010642e-15 -8.9073089630e-16 1.5217010642e-15 -8.0535092987e+00 1.0247214152e-15 -8.9073089630e-16 1.0247214152e-15 -6.1968466213e+00" polarizability="2.0652262464e+01 2.7006175074e-14 -5.3032236755e-15 2.7006175074e-14 2.0652262464e+01 -4.0668074367e-14 -5.3032236755e-15 -4.0668074367e-14 1.8748855368e+01" charge=-1 multiplicity=1 method=wB97M-V basis=def2-svpd config_type=oh- sample_index=241 temperature=300.0 units=atomic
O        -0.0000000000      -0.0000000000       0.1066590910   9.224864806825e-16   1.974720063341e-15  -2.164046633553e-02
H         0.0000000000       0.0000000000      -0.8817394649   7.079320043143e-18   7.977402049442e-18   2.163858291315e-02
2
Properties=species:S:1:pos:R:3:forces:R:3 energy=-7.571720958569e+01 dipole="5.1800212590e-16 1.2839580102e-15 -5.9316283312e-01" quadrupole="-7.9823686833e+00 2.2594499612e-15 -2.0130460534e-15 2.2594499612e-15 -7.9823686833e+00 -2.8787278382e-15 -2.0130460534e-15 -2.8787278382e-15 -6.1536362729e+00" polarizability="2.0611096389e+01 -1.9440005161e-13 1.7352025380e-14 -1.9440005161e-13 2.0611096389e+01 -4.1417006496e-15 1.7352025380e-14 -4.1417006496e-15 1.6926103783e+01" charge=-1 multiplicity=1 method=wB97M-V basis=def2-svpd config_type=oh- sample_index=242 temperature=300.0 units=atomic
O         0.0000000000       0.0000000000       0.1018429046  -9.194421410951e-16   2.972959211697e-16   7.186195536691e-02
H        -0.0000000000      -0.0000000000      -0.8046819752   1.612728946754e-17   1.126479832304e-16  -7.186549443229e-02
2
Properties=species:S:1:pos:R:3:forces:R:3 energy=-7.571993062132e+01 dipole="4.0559876555e-16 -1.0440263221e-15 -5.5626144202e-01" quadrupole="-8.0612165903e+00 8.4724785041e-16 -8.9902154312e-16 8.4724785041e-16 -8.0612165903e+00 1.6526471313e-15 -8.9902154312e-16 1.6526471313e-15 -6.2029123790e+00" polarizability="2.0654066192e+01 1.1057821325e-13 4.5535151323e-15 1.1057821325e-13 2.0654066192e+01 -1.0564806812e-14 4.5535151323e-15 -1.0564806812e-14 1.8979690039e+01" charge=-1 multiplicity=1 method=wB97M-V basis=def2-svpd config_type=oh- sample_index=243 temperature=300.0 units=atomic
O        -0.0000000000      -0.0000000000       0.1072340870   1.035903036917e-16  -5.905179230268e-16  -2.958301462516e-02
H         0.0000000000       0.0000000000      -0.8909392224   9.775922266380e-17  -3.342628360890e-17   2.958134283022e-02
2
Properties=species:S:1:pos:R:3:forces:R:3 energy=-7.570255706316e+01 dipole="1.5663021026e-15 -1.5129551322e-16 -6.1090200971e-01" quadrupole="-7.9210848673e+00 -1.7339590016e-15 -1.3145990197e-15 -1.7339590016e-15 -7.9210848673e+00 1.0559956691e-15 -1.3145990197e-15 1.0559956691e-15 -6.1256161887e+00" polarizability="2.0543523764e+01 1.9118040484e-13 3.2729568880e-15 1.9118040484e-13 2.0543523764e+01 1.9140554748e-15 3.2729568880e-15 1.9140554748e-15 1.5674787766e+01" charge=-1 multiplicity=1 method=wB97M-V basis=def2-svpd config_type=oh- sample_index=244 temperature=300.0 units=atomic
O         0.0000000000       0.0000000000       0.0982071285  -3.282961963011e-16  -1.229780853775e-15   1.870658175731e-01
H        -0.0000000000      -0.0000000000      -0.7465106836   2.912357968617e-18   4.538063769653e-17  -1.870696809650e-01
2
Properties=species:S:1:pos:R:3:forces:R:3 energy=-7.572072039414e+01 dipole="1.4802522865e-15 -6.8400840924e-16 -5.7680655333e-01" quadrupole="-8.0226652154e+00 -7.9803894477e-15 -2.2348474841e-16 -7.9803894477e-15 -8.0226652154e+00 9.1974862793e-16 -2.2348474841e-16 9.1974862793e-16 -6.1757950297e+00" polarizability="2.0639728882e+01 -1.9806378759e-13 1.3249393874e-14 -1.9806378759e-13 2.0639728882e+01 1.0565939591e-14 1.3249393874e-14 1.0565939591e-14 1.7897156389e+01" charge=-1 multiplicity=1 method=wB97M-V basis=def2-svpd config_type=oh- sample_index=245 temperature=300.0 units=atomic
O         0.0000000000       0.0000000000       0.1044726469  -5.288371084725e-16   8.682472706873e-16   1.423555595461e-02
H        -0.0000000000      -0.0000000000      -0.8467570375  -5.931538750187e-17   9.486463042520e-17  -1.423353791459e-02
2
Properties=species:S:1:pos:R:3:forces:R:3 energy=-7.572029838751e+01 dipole="2.0757452886e-16 1.6510008003e-15 -5.5968594073e-01" quadrupole="-8.0554792348e+00 -1.1470503070e-15 -9.9900023863e-16 -1.1470503070e-15 -8.0554792348e+00 -8.2423927204e-16 -9.9900023863e-16 -8.2423927204e-16 -6.1983614064e+00" polarizability="2.0652774532e+01 -8.1268325403e-14 7.9453139743e-15 -8.1268325403e-14 2.0652774532e+01 1.0064710699e-14 7.9453139743e-15 1.0064710699e-14 1.8807106443e+01" charge=-1 multiplicity=1 method=wB97M-V basis=def2-svpd config_type=oh- sample_index=246 temperature=300.0 units=atomic
O        -0.0000000000      -0.0000000000       0.1068048689   1.423970495907e-16   1.656614622389e-15  -2.370815341556e-02
H         0.0000000000       0.0000000000      -0.8840718660  -4.245457251572e-17   6.614084287561e-17   2.370622879687e-02
2
Properties=species:S:1:pos:R:3:forces:R:3 energy=-7.567634253281e+01 dipole="8.8405466734e-16 -1.0582161621e-15 -6.2215508937e-01" quadrupole="-7.8625937027e+00 -5.6630706061e-16 -9.0703279897e-16 -5.6630706061e-16 -7.8625937027e+00 3.9561251373e-16 -9.0703279897e-16 3.9561251373e-16 -6.1004356861e+00" polarizability="2.0455660837e+01 1.8651746814e-13 7.5369690223e-15 1.8651746814e-13 2.0455660837e+01 -1.7066836133e-14 7.5369690223e-15 -1.7066836133e-14 1.4663062831e+01" charge=-1 multiplicity=1 method=wB97M-V basis=def2-svpd config_type=oh- sample_index=247 temperature=300.0 units=atomic
O         0.0000000000       0.0000000000       0.0950301017  -1.071872040956e-15  -1.090067848938e-15   3.355903720940e-01
H        -0.0000000000      -0.0000000000      -0.6956792384  -3.847140958160e-17   9.281227780431e-17  -3.355858632985e-01
2
Properties=species:S:1:pos:R:3:forces:R:3 energy=-7.572046205830e+01 dipole="1.5361402684e-15 2.3226159869e-16 -5.6149238713e-01" quadrupole="-8.0523547205e+00 3.2432815922e-15 -2.0976490774e-15 3.2432815922e-15 -8.0523547205e+00 -8.4324263327e-16 -2.0976490774e-15 -8.4324263327e-16 -6.1959696950e+00" polarizability="2.0651946088e+01 -6.6622055095e-15 4.3002254677e-14 -6.6622055095e-15 2.0651946088e+01 3.6593172194e-15 4.3002254677e-14 3.6593172194e-15 1.8714947502e+01" charge=-1 multiplicity=1 method=wB97M-V basis=def2-svpd config_type=oh- sample_index=248 temperature=300.0 units=atomic
O        -0.0000000000      -0.0000000000       0.1065740205  -8.487361880297e-16  -1.324695014805e-16  -2.041648077609e-02
H         0.0000000000       0.0000000000      -0.8803783639   8.862619806140e-17   9.898664189249e-17   2.041465246654e-02
2
Properties=species:S:1:pos:R:3:forces:R:3 energy=-7.571549953071e+01 dipole="2.6710427545e-15 -3.3854243559e-16 -5.3050789352e-01" quadrupole="-8.0979819207e+00 1.2626801996e-15 1.4717218251e-16 1.2626801996e-15 -8.0979819207e+00 -1.2482080803e-15 1.4717218251e-16 -1.2482080803e-15 -6.2382173972e+00" polarizability="2.0655203535e+01 -1.4077627952e-13 -1.0472967780e-14 -1.4077627952e-13 2.0655203535e+01 1.0776510276e-14 -1.0472967780e-14 1.0776510276e-14 2.0204379591e+01" charge=-1 multiplicity=1 method=wB97M-V basis=def2-svpd config_type=oh- sample_index=249 temperature=300.0 units=atomic
O        -0.0000000000      -0.0000000000       0.1101723525   5.556486636321e-16   6.650322104557e-16  -6.225620330504e-02
H         0.0000000000       0.0000000000      -0.9379505609   2.264399514496e-17  -6.682187634011e-17   6.225700173536e-02
2
Properties=species:S:1:pos:R:3:forces:R:3 energy=-7.572071541944e+01 dipole="3.0168746769e-15 -8.5334058801e-16 -5.7688005697e-01" quadrupole="-8.0225067970e+00 -2.1710686839e-15 -2.6904544212e-15 -2.1710686839e-15 -8.0225067970e+00 -7.3064750017e-17 -2.6904544212e-15 -7.3064750017e-17 -6.1756979368e+00" polarizability="2.0639642922e+01 -1.6386891843e-13 -4.8366024858e-15 -1.6386891843e-13 2.0639642922e+01 -9.2456020939e-15 -4.8366024858e-15 -9.2456020939e-15 1.7893049905e+01" charge=-1 multiplicity=1 method=wB97M-V basis=def2-svpd config_type=oh- sample_index=250 temperature=300.0 units=atomic
O         0.0000000000       0.0000000000       0.1044618449   2.890466465287e-16   2.237286536449e-16   1.443738431599e-02
H        -0.0000000000      -0.0000000000      -0.8465842076  -5.839052734362e-17  -1.425534967268e-16  -1.443536980628e-02
2
Properties=species:S:1:pos:R:3:forces:R:3 energy=-7.572089372393e+01 dipole="-7.9820168566e-15 1.2105968877e-16 -5.7009653623e-01" quadrupole="-8.0364397391e+00 3.1378638443e-15 3.3161335114e-15 3.1378638443e-15 -8.0364397391e+00 7.0001583353e-16 3.3161335114e-15 7.0001583353e-16 -6.1846319891e+00" polarizability="2.0646366639e+01 -1.5853984792e-13 -3.3303686460e-14 -1.5853984792e-13 2.0646366639e+01 -8.3381735611e-15 -3.3303686460e-14 -8.3381735611e-15 1.8264206243e+01" charge=-1 multiplicity=1 method=wB97M-V basis=def2-svpd config_type=oh- sample_index=251 temperature=300.0 units=atomic
O        -0.0000000000      -0.0000000000       0.1054278656   1.190926236566e-15   1.909193161996e-16  -2.615042618853e-03
H         0.0000000000       0.0000000000      -0.8620402409  -5.900705976297e-17  -5.295848654390e-17   2.615622567351e-03
2
Properties=species:S:1:pos:R:3:forces:R:3 energy=-7.571494260655e+01 dipole="3.2510131096e-16 1.3439270518e-15 -5.9780162284e-01" quadrupole="-7.9686163529e+00 7.9694403760e-17 -8.6637672669e-16 7.9694403760e-17 -7.9686163529e+00 -2.2131076308e-15 -8.6637672669e-16 -2.2131076308e-15 -6.1469470090e+00" polarizability="2.0598345059e+01 -2.6312285684e-13 1.7177578318e-14 -2.6312285684e-13 2.0598345059e+01 9.3675532035e-15 1.7177578318e-14 9.3675532035e-15 1.6624421705e+01" charge=-1 multiplicity=1 method=wB97M-V basis=def2-svpd config_type=oh- sample_index=252 temperature=300.0 units=atomic
O         0.0000000000       0.0000000000       0.1009932691  -3.343218611981e-16   5.191223365461e-18   9.462348513098e-02
H        -0.0000000000      -0.0000000000      -0.7910880694   2.247321971355e-16   8.881014340844e-17  -9.462322836267e-02
2
Properties=species:S:1:pos:R:3:forces:R:3 energy=-7.571768009000e+01 dipole="2.2108127456e-15 -6.8844901954e-16 -5.4153338237e-01" quadrupole="-8.0834685530e+00 2.4862784417e-15 -1.7269779135e-15 2.4862784417e-15 -8.0834685530e+00 2.0099312735e-15 -1.7269779135e-15 2.0099312735e-15 -6.2228328490e+00" polarizability="2.0656239717e+01 1.1279865930e-13 1.8068579815e-14 1.1279865930e-13 2.0656239717e+01 -1.0319253823e-14 1.8068579815e-14 -1.0319253823e-14 1.9694181469e+01" charge=-1 multiplicity=1 method=wB97M-V basis=def2-svpd config_type=oh- sample_index=253 temperature=300.0 units=atomic
O        -0.0000000000      -0.0000000000       0.1089702110  -4.363066585939e-16  -1.038687748527e-15  -5.035790748866e-02
H         0.0000000000       0.0000000000      -0.9187166689   2.881571270254e-18   1.348433556464e-18   5.035916835134e-02
2
Properties=species:S:1:pos:R:3:forces:R:3 energy=-7.571765527110e+01 dipole="6.5644787839e-15 -6.8668887996e-17 -5.9202519523e-01" quadrupole="-7.9855559050e+00 3.5446893392e-15 -3.8832590808e-15 3.5446893392e-15 -7.9855559050e+00 -1.0364274153e-15 -3.8832590808e-15 -1.0364274153e-15 -6.1552369401e+00" polarizability="2.0613841232e+01 -1.1812772982e-13 5.6348897576e-14 -1.1812772982e-13 2.0613841232e+01 -4.7374196455e-15 5.6348897576e-14 -4.7374196455e-15 1.6997996986e+01" charge=-1 multiplicity=1 method=wB97M-V basis=def2-svpd config_type=oh- sample_index=254 temperature=300.0 units=atomic
O         0.0000000000       0.0000000000       0.1020430037   5.637693914539e-16  -1.936299139063e-16   6.682198823627e-02
H        -0.0000000000      -0.0000000000      -0.8078834978  -9.318602414602e-17   1.311062250203e-16  -6.682590835826e-02
2
Properties=species:S:1:pos:R:3:forces:R:3 energy=-7.571722656919e+01 dipole="-8.1286066769e-16 4.3829217112e-16 -5.9312126028e-01" quadrupole="-7.9824863645e+00 -8.6113942826e-16 7.8807273701e-16 -8.6113942826e-16 -7.9824863645e+00 -1.3712063471e-16 7.8807273701e-16 -1.3712063471e-16 -6.1536950084e+00" polarizability="2.0611199158e+01 2.4846791291e-13 -1.3733797688e-14 2.4846791291e-13 2.0611199158e+01 -8.7485741852e-15 -1.3733797688e-14 -8.7485741852e-15 1.6928744654e+01" charge=-1 multiplicity=1 method=wB97M-V basis=def2-svpd config_type=oh- sample_index=255 temperature=300.0 units=atomic
O         0.0000000000       0.0000000000       0.1018502709   6.505055470790e-16   9.097740106673e-17   7.167431786826e-02
H        -0.0000000000      -0.0000000000      -0.8047998328  -1.306897846942e-17  -4.963475098896e-17  -7.167787546150e-02
2
Properties=species:S:1:pos:R:3:forces:R:3 energy=-7.571914224498e+01 dipole="1.1225076561e-15 1.8162963042e-15 -5.5034851679e-01" quadrupole="-8.0705934944e+00 -2.1859157409e-15 -1.1024678497e-15 -2.1859157409e-15 -8.0705934944e+00 -8.1751140609e-16 -1.1024678497e-15 -8.1751140609e-16 -6.2108346266e+00" polarizability="2.0655534036e+01 2.8060886947e-14 3.0035287818e-15 2.8060886947e-14 2.0655534036e+01 8.2714085467e-15 3.0035287818e-15 8.2714085467e-15 1.9271624415e+01" charge=-1 multiplicity=1 method=wB97M-V basis=def2-svpd config_type=oh- sample_index=256 temperature=300.0 units=atomic
O        -0.0000000000      -0.0000000000       0.1079512171  -8.725337434483e-16   1.321896303383e-15  -3.872111808886e-02
H         0.0000000000       0.0000000000      -0.9024130823   5.673483554413e-17  -1.038846539414e-17   3.872073723006e-02
2
Properties=species:S:1:pos:R:3:forces:R:3 energy=-7.572078019093e+01 dipole="1.7899823851e-15 -5.1932235333e-15 -5.7581922921e-01" quadrupole="-8.0247765149e+00 -1.0938808345e-15 -7.0568152267e-16 -1.0938808345e-15 -8.0247765149e+00 3.1004890002e-15 -7.0568152267e-16 3.1004890002e-15 -6.1770983104e+00" polarizability="2.0640853771e+01 1.3811174426e-13 3.4458267768e-15 1.3811174426e-13 2.0640853771e+01 -2.0078829280e-14 3.4458267768e-15 -2.0078829280e-14 1.7952126833e+01" charge=-1 multiplicity=1 method=wB97M-V basis=def2-svpd config_type=oh- sample_index=257 temperature=300.0 units=atomic
O         0.0000000000       0.0000000000       0.1046169972   1.343309249305e-15   1.552080271936e-16   1.156337867032e-02
H        -0.0000000000      -0.0000000000      -0.8490665970  -2.628349094214e-18  -7.405926727855e-17  -1.156136599794e-02
2
Properties=species:S:1:pos:R:3:forces:R:3 energy=-7.571824685091e+01 dipole="8.0059164953e-16 8.3617786842e-16 -5.4474396514e-01" quadrupole="-8.0789212438e+00 -6.4020797286e-16 -1.0712362774e-15 -6.4020797286e-16 -8.0789212438e+00 1.3471238900e-15 -1.0712362774e-15 1.3471238900e-15 -6.2184342679e+00" polarizability="2.0656163937e+01 1.3367085216e-13 1.2814284686e-14 1.3367085216e-13 2.0656163937e+01 -1.4220719776e-14 1.2814284686e-14 -1.4220719776e-14 1.9541912469e+01" charge=-1 multiplicity=1 method=wB97M-V basis=def2-svpd config_type=oh- sample_index=258 temperature=300.0 units=atomic
O        -0.0000000000      -0.0000000000       0.1086055353   2.154531248734e-16  -4.345437440140e-16  -4.636619798383e-02
H         0.0000000000       0.0000000000      -0.9128819704  -7.167425919859e-18  -2.316674327108e-17   4.636705935722e-02
2
Properties=species:S:1:pos:R:3:forces:R:3 energy=-7.568468419757e+01 dipole="8.1567720808e-16 6.2173622512e-16 -6.1957655778e-01" quadrupole="-7.8782764020e+00 1.7072274119e-15 -2.0213169557e-15 1.7072274119e-15 -7.8782764020e+00 9.8537737685e-16 -2.0213169557e-15 9.8537737685e-16 -6.1072402239e+00" polarizability="2.0481259931e+01 -8.1774864658e-14 4.3502991568e-15 -8.1774864658e-14 2.0481259931e+01 -9.9105779625e-15 4.3502991568e-15 -9.9105779625e-15 1.4919963819e+01" charge=-1 multiplicity=1 method=wB97M-V basis=def2-svpd config_type=oh- sample_index=259 temperature=300.0 units=atomic
O         0.0000000000       0.0000000000       0.0958591751   2.782665337185e-17  -1.018149193150e-15   2.915060019154e-01
H        -0.0000000000      -0.0000000000      -0.7089441555   6.932239887531e-17   1.901910042344e-16  -2.914975630592e-01
2
Properties=species:S:1:pos:R:3:forces:R:3 energy=-7.571895613697e+01 dipole="-2.0970820985e-15 -2.0020179687e-15 -5.4911302401e-01" quadrupole="-8.0724739783e+00 2.9643367060e-15 -5.7394662274e-16 2.9643367060e-15 -8.0724739783e+00 1.7966520770e-15 -5.7394662274e-16 1.7966520770e-15 -6.2125018118e+00" polarizability="2.0655731854e+01 1.7497114868e-13 2.1010191046e-15 1.7497114868e-13 2.0655731854e+01 -1.1614585294e-14 2.1010191046e-15 -1.1614585294e-14 1.9331720687e+01" charge=-1 multiplicity=1 method=wB97M-V basis=def2-svpd config_type=oh- sample_index=260 temperature=300.0 units=atomic
O        -0.0000000000      -0.0000000000       0.1080974866   3.780379519207e-16   1.611041563978e-15  -4.048569374037e-02
H         0.0000000000       0.0000000000      -0.9047533486   6.633666771280e-17  -8.979337441493e-17   4.048562207916e-02
2
Properties=species:S:1:pos:R:3:forces:R:3 energy=-7.572006303603e+01 dipole="-1.5804595421e-15 3.7203642661e-15 -5.5742013810e-01" quadrupole="-8.0593017646e+00 9.5334459146e-16 1.3153008879e-15 9.5334459146e-16 -8.0593017646e+00 -1.7206557498e-15 1.3153008879e-15 -1.7206557498e-15 -6.2013698205e+00" polarizability="2.0653668217e+01 3.0242475191e-13 -5.2776324913e-15 3.0242475191e-13 2.0653668217e+01 -1.7783554244e-14 -5.2776324913e-15 -1.7783554244e-14 1.8921597705e+01" charge=-1 multiplicity=1 method=wB97M-V basis=def2-svpd config_type=oh- sample_index=261 temperature=300.0 units=atomic
O        -0.0000000000      -0.0000000000       0.1070900551  -1.688944201552e-16  -2.570127518332e-17  -2.764651707877e-02
H         0.0000000000       0.0000000000      -0.8886347577  -1.019607049196e-16   1.351221721122e-18   2.764470187562e-02
2
Properties=species:S:1:pos:R:3:forces:R:3 energy=-7.571668789168e+01 dipole="-1.8900133022e-16 1.7901331986e-15 -5.3631104557e-01" quadrupole="-8.0905454161e+00 1.1495879241e-15 1.7975533846e-15 1.1495879241e-15 -8.0905454161e+00 -7.1763609848e-16 1.7975533846e-15 -7.1763609848e-16 -6.2300639272e+00" polarizability="2.0655976910e+01 1.6520118606e-13 1.9834134688e-14 1.6520118606e-13 2.0655976910e+01 4.4907795008e-15 1.9834134688e-14 4.4907795008e-15 1.9938180576e+01" charge=-1 multiplicity=1 method=wB97M-V basis=def2-svpd config_type=oh- sample_index=262 temperature=300.0 units=atomic
O        -0.0000000000      -0.0000000000       0.1095488487  -7.282714764477e-16  -4.115562907346e-16  -5.631837910267e-02
H         0.0000000000       0.0000000000      -0.9279746927  -6.493208940106e-17  -5.157595620387e-17   5.631970529697e-02
2
Properties=species:S:1:pos:R:3:forces:R:3 energy=-7.572040333502e+01 dipole="-5.9245509544e-16 -5.9414014925e-16 -5.6081549841e-01" quadrupole="-8.0535336972e+00 3.0204973853e-15 -8.3020979400e-16 3.0204973853e-15 -8.0535336972e+00 1.1012143687e-15 -8.3020979400e-16 1.1012143687e-15 -6.1968652385e+00" polarizability="2.0652269020e+01 -1.4255263636e-13 -2.0757825704e-15 -1.4255263636e-13 2.0652269020e+01 5.4161040836e-16 -2.0757825704e-15 5.4161040836e-16 1.8749573758e+01" charge=-1 multiplicity=1 method=wB97M-V basis=def2-svpd config_type=oh- sample_index=263 temperature=300.0 units=atomic
O        -0.0000000000      -0.0000000000       0.1066608916   3.205470034807e-16   2.112040479150e-16  -2.166623483331e-02
H         0.0000000000       0.0000000000      -0.8817682747  -7.180825077831e-18   1.754638565677e-17   2.166435049134e-02
2
Properties=species:S:1:pos:R:3:forces:R:3 energy=-7.572090013326e+01 dipole="1.0672212079e-15 2.1482082058e-15 -5.7105042981e-01" quadrupole="-8.0345602954e+00 -1.5160818048e-15 3.3367549378e-16 -1.5160818048e-15 -8.0345602954e+00 -1.4735088323e-15 3.3367549378e-16 -1.4735088323e-15 -6.1833774496e+00" polarizability="2.0645559093e+01 1.8829382498e-13 4.6344912351e-15 1.8829382498e-13 2.0645559093e+01 -7.5946934843e-15 4.6344912351e-15 -7.5946934843e-15 1.8212923430e+01" charge=-1 multiplicity=1 method=wB97M-V basis=def2-svpd config_type=oh- sample_index=264 temperature=300.0 units=atomic
O        -0.0000000000      -0.0000000000       0.1052956133   4.242601898580e-16   1.510504561771e-15  -3.962070348908e-04
H         0.0000000000       0.0000000000      -0.8599242447  -2.895923331676e-17   2.073428556267e-17   3.971287948477e-04
2
Properties=species:S:1:pos:R:3:forces:R:3 energy=-7.571796463208e+01 dipole="-1.1570674745e-15 9.0141671920e-17 -5.9117156813e-01" quadrupole="-7.9879033720e+00 3.0391563865e-15 -7.0936852893e-16 3.0391563865e-15 -7.9879033720e+00 1.1516003523e-15 -7.0936852893e-16 1.1516003523e-15 -6.1564294506e+00" polarizability="2.0615811544e+01 9.4702024001e-14 2.1227638512e-15 9.4702024001e-14 2.0615811544e+01 -2.8633636770e-15 2.1227638512e-15 -2.8633636770e-15 1.7051444281e+01" charge=-1 multiplicity=1 method=wB97M-V basis=def2-svpd config_type=oh- sample_index=265 temperature=300.0 units=atomic
O         0.0000000000       0.0000000000       0.1021911813   6.291765213618e-16  -8.571830258641e-17   6.316523222199e-02
H        -0.0000000000      -0.0000000000      -0.8102542933   9.399821564252e-17   6.451562599206e-17  -6.316926641113e-02
2
Properties=species:S:1:pos:R:3:forces:R:3 energy=-7.571941735449e+01 dipole="-2.8949342657e-16 -1.6450663181e-15 -5.5226710331e-01" quadrupole="-8.0676207508e+00 1.5576203973e-15 -3.3149036355e-16 1.5576203973e-15 -8.0676207508e+00 -3.0590804513e-18 -3.3149036355e-16 -3.0590804513e-18 -6.2082541571e+00" polarizability="2.0655155391e+01 1.1279865930e-13 1.0283401157e-14 1.1279865930e-13 2.0655155391e+01 -6.0444189631e-15 1.0283401157e-14 -6.0444189631e-15 1.9177698945e+01" charge=-1 multiplicity=1 method=wB97M-V basis=def2-svpd config_type=oh- sample_index=266 temperature=300.0 units=atomic
O        -0.0000000000      -0.0000000000       0.1077216921   2.406414088064e-16   5.105466013424e-16  -3.588556231614e-02
H         0.0000000000       0.0000000000      -0.8987407530   1.028082812948e-16   1.718604919195e-17   3.588470225692e-02
2
Properties=species:S:1:pos:R:3:forces:R:3 energy=-7.572075344205e+01 dipole="2.9982595183e-15 2.7249671482e-16 -5.6574603915e-01" quadrupole="-8.0447103679e+00 4.5016891830e-15 -2.7802737304e-16 4.5016891830e-15 -8.0447103679e+00 -6.3783205805e-16 -2.7802737304e-16 -6.3783205805e-16 -6.1903565718e+00" polarizability="2.0649547830e+01 3.0531133177e-14 3.7468766776e-16 3.0531133177e-14 2.0649547830e+01 -3.0036094537e-15 3.7468766776e-16 -3.0036094537e-15 1.8494663626e+01" charge=-1 multiplicity=1 method=wB97M-V basis=def2-svpd config_type=oh- sample_index=267 temperature=300.0 units=atomic
O        -0.0000000000      -0.0000000000       0.1060174772   1.232368411620e-15   2.366632712419e-15  -1.208428445491e-02
H         0.0000000000       0.0000000000      -0.8714738427   1.868857440389e-17   1.213567774494e-18   1.208333628864e-02
2
Properties=species:S:1:pos:R:3:forces:R:3 energy=-7.571384542184e+01 dipole="8.9048517765e-16 -6.9309775763e-16 -5.2295684888e-01" quadrupole="-8.1070512657e+00 2.3288567648e-15 -1.2927324346e-15 2.3288567648e-15 -8.1070512657e+00 -3.3939800086e-17 -1.2927324346e-15 -3.3939800086e-17 -6.2490245527e+00" polarizability="2.0653582253e+01 1.3189449533e-13 2.7548306862e-14 1.3189449533e-13 2.0653582253e+01 -1.2476219932e-14 2.7548306862e-14 -1.2476219932e-14 2.0543714411e+01" charge=-1 multiplicity=1 method=wB97M-V basis=def2-svpd config_type=oh- sample_index=268 temperature=300.0 units=atomic
O        -0.0000000000      -0.0000000000       0.1109558828   5.560574825741e-16   2.804888216154e-16  -6.905310810800e-02
H         0.0000000000       0.0000000000      -0.9504868028   2.882015305403e-17  -2.897860882717e-17   6.905308102678e-02
2
Properties=species:S:1:pos:R:3:forces:R:3 energy=-7.571826683961e+01 dipole="-5.8525289224e-16 2.0349726030e-15 -5.4486111126e-01" quadrupole="-8.0787523575e+00 1.9772155116e-15 2.8837761881e-15 1.9772155116e-15 -8.0787523575e+00 -1.4089180213e-15 2.8837761881e-15 -1.4089180213e-15 -6.2182744204e+00" polarizability="2.0656157490e+01 1.5720758029e-13 -3.6997213828e-15 1.5720758029e-13 2.0656157490e+01 6.0036854392e-15 -3.6997213828e-15 6.0036854392e-15 1.9536322404e+01" charge=-1 multiplicity=1 method=wB97M-V basis=def2-svpd config_type=oh- sample_index=269 temperature=300.0 units=atomic
O        -0.0000000000      -0.0000000000       0.1085920940   3.772925781541e-16   1.767105902999e-16  -4.621547540511e-02
H         0.0000000000       0.0000000000      -0.9126669150  -1.574379907121e-16  -3.064170213892e-17   4.621631689613e-02
2
Properties=species:S:1:pos:R:3:forces:R:3 energy=-7.566692938182e+01 dipole="1.2366589691e-15 1.3143322293e-16 -6.2445882473e-01" quadrupole="-7.8468835767e+00 -4.2326396485e-16 -1.7666403135e-16 -4.2326396485e-16 -7.8468835767e+00 -7.4740337166e-16 -1.7666403135e-16 -7.4740337166e-16 -6.0935020009e+00" polarizability="2.0428617175e+01 -1.3630763185e-13 2.6639974905e-14 -1.3630763185e-13 2.0428617175e+01 1.4678666353e-14 2.6639974905e-14 1.4678666353e-14 1.4415014657e+01" charge=-1 multiplicity=1 method=wB97M-V basis=def2-svpd config_type=oh- sample_index=270 temperature=300.0 units=atomic
O         0.0000000000       0.0000000000       0.0942139988  -2.114641081595e-16   4.225986288597e-17   3.832522482096e-01
H        -0.0000000000      -0.0000000000      -0.6826218452   4.714198044950e-17   7.218299282915e-17  -3.832536092183e-01
2
Properties=species:S:1:pos:R:3:forces:R:3 energy=-7.571524398040e+01 dipole="-5.2269988010e-15 2.5650482547e-16 -5.9726823904e-01" quadrupole="-7.9702638133e+00 -1.3200799633e-15 -6.6550962673e-16 -1.3200799633e-15 -7.9702638133e+00 -1.5660648731e-15 -6.6550962673e-16 -1.5660648731e-15 -6.1477314326e+00" polarizability="2.0599949459e+01 -6.0396132540e-14 1.4880884991e-14 -6.0396132540e-14 2.0599949459e+01 4.8877424296e-15 1.4880884991e-14 4.8877424296e-15 1.6659856122e+01" charge=-1 multiplicity=1 method=wB97M-V basis=def2-svpd config_type=oh- sample_index=271 temperature=300.0 units=atomic
O         0.0000000000       0.0000000000       0.1010939113  -1.600348079926e-15   1.881912915292e-16   9.180829689738e-02
H        -0.0000000000      -0.0000000000      -0.7926983138  -1.655123092773e-16  -1.235418578647e-17  -9.180858896556e-02
2
Properties=species:S:1:pos:R:3:forces:R:3 energy=-7.571853457174e+01 dipole="2.9380959421e-16 -4.9375324845e-16 -5.4646050335e-01" quadrupole="-8.0764249749e+00 -4.5213888138e-15 1.0440006882e-15 -4.5213888138e-15 -8.0764249749e+00 2.1460704367e-15 1.0440006882e-15 2.1460704367e-15 -6.2160964291e+00" polarizability="2.0656041927e+01 2.5368596113e-14 1.4771607694e-14 2.5368596113e-14 2.0656041927e+01 1.2227622945e-14 1.4771607694e-14 1.2227622945e-14 1.9459753456e+01" charge=-1 multiplicity=1 method=wB97M-V basis=def2-svpd config_type=oh- sample_index=272 temperature=300.0 units=atomic
O        -0.0000000000      -0.0000000000       0.1084076006  -4.501707204200e-16   6.862137830605e-16  -4.412029727535e-02
H         0.0000000000       0.0000000000      -0.9097150770   4.665087314962e-17  -4.061339069911e-17   4.412083491563e-02
2
Properties=species:S:1:pos:R:3:forces:R:3 energy=-7.571453595745e+01 dipole="1.6137157311e-16 -7.0735581971e-16 -5.2605003010e-01" quadrupole="-8.1034145318e+00 -7.7662052021e-16 -1.2406536318e-15 -7.7662052021e-16 -8.1034145318e+00 1.2770524777e-15 -1.2406536318e-15 1.2770524777e-15 -6.2445698271e+00" polarizability="2.0654320746e+01 -8.7707618945e-15 -4.8289587242e-15 -8.7707618945e-15 2.0654320746e+01 -7.0855765594e-15 -4.8289587242e-15 -7.0855765594e-15 2.0405623200e+01" charge=-1 multiplicity=1 method=wB97M-V basis=def2-svpd config_type=oh- sample_index=273 temperature=300.0 units=atomic
O        -0.0000000000      -0.0000000000       0.1106385153  -1.306446068612e-15  -1.617329263819e-16  -6.638587152551e-02
H         0.0000000000       0.0000000000      -0.9454090221   1.582574101771e-17  -3.556512973204e-17   6.638614667968e-02
2
Properties=species:S:1:pos:R:3:forces:R:3 energy=-7.571732190541e+01 dipole="-1.5515718430e-15 1.4631217999e-15 -5.3959801909e-01" quadrupole="-8.0861359363e+00 6.5672340264e-15 -4.1337392233e-16 6.5672340264e-15 -8.0861359363e+00 -1.6181863837e-15 -4.1337392233e-16 -1.6181863837e-15 -6.2255013117e+00" polarizability="2.0656194899e+01 -2.1449508836e-13 -2.6471022519e-14 -2.1449508836e-13 2.0656194899e+01 -8.4603829863e-15 -2.6471022519e-14 -8.4603829863e-15 1.9785121731e+01" charge=-1 multiplicity=1 method=wB97M-V basis=def2-svpd config_type=oh- sample_index=274 temperature=300.0 units=atomic
O        -0.0000000000      -0.0000000000       0.1091866880   9.862959678736e-16  -1.062768919339e-15  -5.264030855449e-02
H         0.0000000000       0.0000000000      -0.9221802338   1.451782151457e-17   2.788659513229e-17   5.264167444064e-02
2
Properties=species:S:1:pos:R:3:forces:R:3 energy=-7.572089823437e+01 dipole="-1.4230269615e-15 -4.7222308549e-16 -5.7059372104e-01" quadrupole="-8.0354632264e+00 -2.0685253223e-16 1.7347563284e-15 -2.0685253223e-16 -8.0354632264e+00 1.4324178579e-15 1.7347563284e-15 1.4324178579e-15 -6.1839781144e+00" polarizability="2.0645950955e+01 -2.5801583092e-13 1.3759979891e-14 -2.5801583092e-13 2.0645950955e+01 -6.8709408121e-15 1.3759979891e-14 -6.8709408121e-15 1.8237511952e+01" charge=-1 multiplicity=1 method=wB97M-V basis=def2-svpd config_type=oh- sample_index=275 temperature=300.0 units=atomic
O        -0.0000000000      -0.0000000000       0.1053590724  -2.416386547752e-16   4.893943254872e-16  -1.465316218629e-03
H         0.0000000000       0.0000000000      -0.8609395703   3.606514805974e-17   5.459893464823e-18   1.466076458919e-03
2
Properties=species:S:1:pos:R:3:forces:R:3 energy=-7.572089494888e+01 dipole="6.2376256289e-16 1.1440226092e-15 -5.7221455740e-01" quadrupole="-8.0322326787e+00 4.2406507439e-15 -5.0232077572e-16 4.2406507439e-15 -8.0322326787e+00 -4.3920333231e-16 -5.0232077572e-16 -4.3920333231e-16 -6.1818461323e+00" polarizability="2.0644515773e+01 -1.5321077740e-13 1.3969577428e-14 -1.5321077740e-13 2.0644515773e+01 7.5987310639e-15 1.3969577428e-14 7.5987310639e-15 1.8149951253e+01" charge=-1 multiplicity=1 method=wB97M-V basis=def2-svpd config_type=oh- sample_index=276 temperature=300.0 units=atomic
O         0.0000000000       0.0000000000       0.1051326852   1.194538630944e-15  -1.592725844009e-16   2.386564147450e-03
H        -0.0000000000      -0.0000000000      -0.8573174458  -7.428823250615e-17  -1.995719820064e-17  -2.385258451686e-03
2
Properties=species:S:1:pos:R:3:forces:R:3 energy=-7.571874125990e+01 dipole="-1.7018414708e-15 -1.6644352884e-15 -5.4773819028e-01" quadrupole="-8.0745362799e+00 -5.6558360034e-16 1.4421042376e-16 -5.6558360034e-16 -8.0745362799e+00 2.8160576242e-16 1.4421042376e-16 2.8160576242e-16 -6.2143622834e+00" polarizability="2.0655911567e+01 -1.8030021920e-13 2.3283300769e-14 -1.8030021920e-13 2.0655911567e+01 -1.8047183949e-14 2.3283300769e-14 -1.8047183949e-14 1.9398247513e+01" charge=-1 multiplicity=1 method=wB97M-V basis=def2-svpd config_type=oh- sample_index=277 temperature=300.0 units=atomic
O        -0.0000000000      -0.0000000000       0.1082588787  -4.806243695690e-16   8.066751417246e-16  -4.239511584773e-02
H         0.0000000000       0.0000000000      -0.9073355730   9.361853902750e-18   2.915419993441e-18   4.239537307037e-02
2
Properties=species:S:1:pos:R:3:forces:R:3 energy=-7.571496509254e+01 dipole="8.3233865837e-16 -7.9059046989e-16 -5.2801275350e-01" quadrupole="-8.1010512609e+00 2.9490848871e-15 -1.6320721400e-15 2.9490848871e-15 -8.1010512609e+00 1.1387440368e-15 -1.6320721400e-15 1.1387440368e-15 -6.2417632142e+00" polarizability="2.0654737474e+01 3.6082248300e-15 2.1107043030e-14 3.6082248300e-15 2.0654737474e+01 -1.2626630880e-14 2.1107043030e-14 -1.2626630880e-14 2.0317351591e+01" charge=-1 multiplicity=1 method=wB97M-V basis=def2-svpd config_type=oh- sample_index=278 temperature=300.0 units=atomic
O        -0.0000000000      -0.0000000000       0.1104345823  -5.149158570577e-16  -4.554522339830e-18  -6.461085939049e-02
H         0.0000000000       0.0000000000      -0.9421461574   1.614290263781e-17  -1.143245216043e-16   6.461136050225e-02
2
Properties=species:S:1:pos:R:3:forces:R:3 energy=-7.570962417828e+01 dipole="6.1543216952e-16 1.4529921204e-15 -6.0491513156e-01" quadrupole="-7.9447007899e+00 1.8360657752e-15 1.1192814000e-15 1.8360657752e-15 -7.9447007899e+00 -9.6670760517e-16 1.1192814000e-15 -9.6670760517e-16 -6.1359630561e+00" polarizability="2.0572769922e+01 2.6900703887e-13 -3.4261978459e-14 2.6900703887e-13 2.0572769922e+01 9.8628881433e-15 -3.4261978459e-14 9.8628881433e-15 1.6129982536e+01" charge=-1 multiplicity=1 method=wB97M-V basis=def2-svpd config_type=oh- sample_index=279 temperature=300.0 units=atomic
O         0.0000000000       0.0000000000       0.0995645563   4.790476239530e-16   5.508370114974e-16   1.383302320371e-01
H        -0.0000000000      -0.0000000000      -0.7682291074  -1.517758821043e-16  -1.086306254068e-16  -1.383272423679e-01
2
Properties=species:S:1:pos:R:3:forces:R:3 energy=-7.571993655061e+01 dipole="2.8409302974e-16 2.2381800407e-16 -5.8347100158e-01" quadrupole="-8.0075516309e+00 -9.5817485676e-16 1.4648615460e-15 -9.5817485676e-16 -8.0075516309e+00 7.6926927721e-16 1.4648615460e-15 7.6926927721e-16 -6.1669337466e+00" polarizability="2.0630562779e+01 -4.1633363423e-15 -1.7761082523e-14 -4.1633363423e-15 2.0630562779e+01 5.3664189631e-15 -1.7761082523e-14 5.3664189631e-15 1.7516299776e+01" charge=-1 multiplicity=1 method=wB97M-V basis=def2-svpd config_type=oh- sample_index=280 temperature=300.0 units=atomic
O         0.0000000000       0.0000000000       0.1034595884   2.489099882700e-16  -6.412216129410e-16   3.434100887639e-02
H        -0.0000000000      -0.0000000000      -0.8305484146   3.627974105634e-18  -6.671896609345e-17  -3.434153598716e-02
2
Properties=species:S:1:pos:R:3:forces:R:3 energy=-7.572032090619e+01 dipole="-7.1849406390e-16 -6.4696991674e-16 -5.5992076618e-01" quadrupole="-8.0550770008e+00 -2.4914396761e-15 2.4176343489e-15 -2.4914396761e-15 -8.0550770008e+00 4.2305933987e-16 2.4176343489e-15 4.2305933987e-16 -6.1980501801e+00" polarizability="2.0652672818e+01 2.2374463393e-14 -2.5564549909e-14 2.2374463393e-14 2.0652672818e+01 1.0934314753e-14 -2.5564549909e-14 1.0934314753e-14 1.8795171320e+01" charge=-1 multiplicity=1 method=wB97M-V basis=def2-svpd config_type=oh- sample_index=281 temperature=300.0 units=atomic
O        -0.0000000000      -0.0000000000       0.1067750379  -1.089196349131e-16   3.730317408250e-16  -2.328807201896e-02
H         0.0000000000       0.0000000000      -0.8835945795   8.826143116676e-17  -5.475639333825e-17   2.328615035895e-02
2
Properties=species:S:1:pos:R:3:forces:R:3 energy=-7.572069425062e+01 dipole="9.3476314046e-16 2.0908079563e-15 -5.6468957932e-01" quadrupole="-8.0466480263e+00 -6.3587049610e-16 -1.4575489650e-16 -6.3587049610e-16 -8.0466480263e+00 -1.3721872635e-16 -1.4575489650e-16 -1.3721872635e-16 -6.1917486518e+00" polarizability="2.0650204942e+01 -1.4033219031e-13 -1.1461744987e-15 -1.4033219031e-13 2.0650204942e+01 1.9595881837e-14 -1.1461744987e-15 1.9595881837e-14 1.8549820273e+01" charge=-1 multiplicity=1 method=wB97M-V basis=def2-svpd config_type=oh- sample_index=282 temperature=300.0 units=atomic
O        -0.0000000000      -0.0000000000       0.1061574668   2.461937565087e-16  -2.014672493927e-17  -1.423409131079e-02
H         0.0000000000       0.0000000000      -0.8737136333  -4.158177103341e-17  -7.328338381628e-17   1.423284679427e-02
2
Properties=species:S:1:pos:R:3:forces:R:3 energy=-7.571977031184e+01 dipole="2.4138556789e-15 -2.2763945302e-16 -5.5494048436e-01" quadrupole="-8.0633676738e+00 -7.9254657286e-16 4.9054363096e-16 -7.9254657286e-16 -8.0633676738e+00 -8.7530062669e-16 4.9054363096e-16 -8.7530062669e-16 -6.2046746430e+00" polarizability="2.0654473618e+01 9.7699626167e-15 -1.6821324363e-14 9.7699626167e-15 2.0654473618e+01 -5.8776117244e-15 -1.6821324363e-14 -5.8776117244e-15 1.9045552779e+01" charge=-1 multiplicity=1 method=wB97M-V basis=def2-svpd config_type=oh- sample_index=283 temperature=300.0 units=atomic
O        -0.0000000000      -0.0000000000       0.1073968448  -5.240212390819e-16  -9.327535385762e-17  -3.172973694786e-02
H         0.0000000000       0.0000000000      -0.8935432979  -5.573873340949e-17  -3.848254193538e-17   3.172828805808e-02
2
Properties=species:S:1:pos:R:3:forces:R:3 energy=-7.569656643824e+01 dipole="7.8150324260e-17 -5.2835142150e-16 -4.5455215788e-01" quadrupole="-8.1673246121e+00 -1.9225975059e-15 1.3420232135e-16 -1.9225975059e-15 -8.1673246121e+00 1.2283868836e-15 1.3420232135e-16 1.2283868836e-15 -6.3580375493e+00" polarizability="2.0624240380e+01 -1.5196177650e-14 1.1175665365e-14 -1.5196177650e-14 2.0624240380e+01 4.5332536646e-15 1.1175665365e-14 4.5332536646e-15 2.3360618908e+01" charge=-1 multiplicity=1 method=wB97M-V basis=def2-svpd config_type=oh- sample_index=284 temperature=300.0 units=atomic
O        -0.0000000000      -0.0000000000       0.1170532991   8.760834521625e-16  -1.899565498359e-16  -1.023323865245e-01
H         0.0000000000       0.0000000000      -1.0480435760   7.182453307930e-17   2.506192776541e-17   1.023331272897e-01
2
Properties=species:S:1:pos:R:3:forces:R:3 energy=-7.572084044821e+01 dipole="-1.6146858869e-15 -1.2029704567e-15 -5.7449876169e-01" quadrupole="-8.0275528552e+00 1.9808112439e-15 3.5357995211e-15 1.9808112439e-15 -8.0275528552e+00 -3.7742433287e-16 3.5357995211e-15 -3.7742433287e-16 -6.1788390903e+00" polarizability="2.0642274081e+01 6.9722005946e-14 -2.7429438401e-14 6.9722005946e-14 2.0642274081e+01 2.9356753159e-14 -2.7429438401e-14 2.9356753159e-14 1.8025106400e+01" charge=-1 multiplicity=1 method=wB97M-V basis=def2-svpd config_type=oh- sample_index=285 temperature=300.0 units=atomic
O         0.0000000000       0.0000000000       0.1048079269  -5.499189449476e-16   1.003555899574e-15   8.099221646235e-03
H        -0.0000000000      -0.0000000000      -0.8521214127   5.815672621173e-17   8.032481516406e-17  -8.097357618577e-03
2
Properties=species:S:1:pos:R:3:forces:R:3 energy=-7.571665366709e+01 dipole="2.8794336205e-15 -1.1338431430e-15 -5.3613795657e-01" quadrupole="-8.0907735328e+00 -6.7742939438e-16 -3.6234557478e-15 -6.7742939438e-16 -8.0907735328e+00 1.7840113493e-15 -3.6234557478e-15 1.7840113493e-15 -6.2303052821e+00" polarizability="2.0655960758e+01 6.8167693712e-14 2.5015894496e-14 6.8167693712e-14 2.0655960758e+01 -1.3041510747e-14 2.5015894496e-14 -1.3041510747e-14 1.9946193397e+01" charge=-1 multiplicity=1 method=wB97M-V basis=def2-svpd config_type=oh- sample_index=286 temperature=300.0 units=atomic
O        -0.0000000000      -0.0000000000       0.1095677336  -1.088616042424e-15   1.640664985581e-15  -5.650545601318e-02
H         0.0000000000       0.0000000000      -0.9282768468   2.673449075268e-17   8.754628244302e-17   5.650677350998e-02
2
Properties=species:S:1:pos:R:3:forces:R:3 energy=-7.571713603584e+01 dipole="1.5527625836e-15 -1.3103282297e-15 -5.3861748531e-01" quadrupole="-8.0874669609e+00 -2.6565753823e-15 -1.7858745535e-15 -2.6565753823e-15 -8.0874669609e+00 2.1296105117e-15 -1.7858745535e-15 2.1296105117e-15 -6.2268582997e+00" polarizability="2.0656147990e+01 9.8809849192e-14 -3.4879120122e-16 9.8809849192e-14 2.0656147990e+01 3.7737741136e-15 -3.4879120122e-16 3.7737741136e-15 1.9830960917e+01" charge=-1 multiplicity=1 method=wB97M-V basis=def2-svpd config_type=oh- sample_index=287 temperature=300.0 units=atomic
O        -0.0000000000      -0.0000000000       0.1092954361   1.113939688562e-15   1.807864507983e-15  -5.376298563232e-02
H         0.0000000000       0.0000000000      -0.9239201708  -2.113297080553e-17  -4.621001935243e-17   5.376436663009e-02
2
Properties=species:S:1:pos:R:3:forces:R:3 energy=-7.571927675505e+01 dipole="1.4972333681e-15 4.3380986561e-16 -5.5127145304e-01" quadrupole="-8.0691715497e+00 8.5945692436e-16 -2.9182960143e-15 8.5945692436e-16 -8.0691715497e+00 -1.0171789475e-17 -2.9182960143e-15 -1.0171789475e-17 -6.2095920311e+00" polarizability="2.0655362986e+01 -1.2745360323e-13 -1.4744896427e-15 -1.2745360323e-13 2.0655362986e+01 9.0424782688e-15 -1.4744896427e-15 9.0424782688e-15 1.9226534313e+01" charge=-1 multiplicity=1 method=wB97M-V basis=def2-svpd config_type=oh- sample_index=288 temperature=300.0 units=atomic
O        -0.0000000000      -0.0000000000       0.1078411712  -6.965537819540e-16  -1.574359403721e-15  -3.737185609459e-02
H         0.0000000000       0.0000000000      -0.9006523817  -3.423267937795e-17   4.332011700174e-17   3.737124251236e-02
2
Properties=species:S:1:pos:R:3:forces:R:3 energy=-7.571824566177e+01 dipole="4.2645550512e-16 -1.9938575205e-15 -5.9034224232e-01" quadrupole="-7.9901490436e+00 -5.7455995081e-16 -1.0684438701e-15 -5.7455995081e-16 -7.9901490436e+00 1.5108636139e-15 -1.0684438701e-15 1.5108636139e-15 -6.1575815272e+00" polarizability="2.0617655434e+01 1.7774670624e-13 -5.6113453065e-15 1.7774670624e-13 2.0617655434e+01 -8.5755715272e-15 -5.6113453065e-15 -8.5755715272e-15 1.7102974819e+01" charge=-1 multiplicity=1 method=wB97M-V basis=def2-svpd config_type=oh- sample_index=289 temperature=300.0 units=atomic
O         0.0000000000       0.0000000000       0.1023335791   5.576182861278e-16   6.909758606817e-17   5.971053534449e-02
H        -0.0000000000      -0.0000000000      -0.8125326154  -4.995174185701e-17  -9.819666207901e-17  -5.971454409699e-02
2
Properties=species:S:1:pos:R:3:forces:R:3 energy=-7.571590022735e+01 dipole="-5.6135658984e-16 1.7124365859e-15 -5.3242116016e-01" quadrupole="-8.0955773711e+00 1.6709950725e-15 1.7945162795e-16 1.6709950725e-15 -8.0955773711e+00 1.4499123949e-15 1.7945162795e-16 1.4499123949e-15 -6.2355150987e+00" polarizability="2.0655509563e+01 1.7896795157e-13 -3.4723626973e-15 1.7896795157e-13 2.0655509563e+01 -2.4774358784e-14 -3.4723626973e-15 -2.4774358784e-14 2.0117162197e+01" charge=-1 multiplicity=1 method=wB97M-V basis=def2-svpd config_type=oh- sample_index=290 temperature=300.0 units=atomic
O        -0.0000000000      -0.0000000000       0.1099689421  -3.001193477086e-16  -1.591858176103e-16  -6.037240031811e-02
H         0.0000000000       0.0000000000      -0.9346960573  -1.681954687157e-17  -4.023639589360e-17   6.037341485264e-02
2
Properties=species:S:1:pos:R:3:forces:R:3 energy=-7.571368637508e+01 dipole="-9.1489045234e-16 -7.0762808606e-16 -5.2225453997e-01" quadrupole="-8.1078624990e+00 1.4959630411e-15 -4.8293541667e-16 1.4959630411e-15 -8.1078624990e+00 -1.0554859741e-15 -4.8293541667e-16 -1.0554859741e-15 -6.2500414414e+00" polarizability="2.0653401577e+01 1.4566126083e-13 4.0323027293e-15 1.4566126083e-13 2.0653401577e+01 2.5627934496e-14 4.0323027293e-15 2.5627934496e-14 2.0574899083e+01" charge=-1 multiplicity=1 method=wB97M-V basis=def2-svpd config_type=oh- sample_index=291 temperature=300.0 units=atomic
O        -0.0000000000      -0.0000000000       0.1110272759  -4.430467617068e-16   1.523262705147e-15  -6.963749149502e-02
H         0.0000000000       0.0000000000      -0.9516290701  -3.040307750610e-17  -1.385663692759e-17   6.963740901448e-02
2
Properties=species:S:1:pos:R:3:forces:R:3 energy=-7.571890483496e+01 dipole="1.8454724852e-16 3.5187779451e-16 -5.8814015702e-01" quadrupole="-7.9959521235e+00 3.9326145414e-15 -2.0400553960e-15 3.9326145414e-15 -7.9959521235e+00 -1.4727683463e-15 -2.0400553960e-15 -1.4727683463e-15 -6.1606128358e+00" polarizability="2.0622233245e+01 -2.7122748492e-13 1.0773905603e-16 -2.7122748492e-13 2.0622233245e+01 3.9454138499e-15 1.0773905603e-16 3.9454138499e-15 1.7237995232e+01" charge=-1 multiplicity=1 method=wB97M-V basis=def2-svpd config_type=oh- sample_index=292 temperature=300.0 units=atomic
O         0.0000000000       0.0000000000       0.1027045453  -7.524743855140e-16  -2.662281689506e-16   5.097758236926e-02
H        -0.0000000000      -0.0000000000      -0.8184679597   4.065024618977e-17   7.254837829392e-17  -5.098095369492e-02
2
Properties=species:S:1:pos:R:3:forces:R:3 energy=-7.571807276824e+01 dipole="-6.2120277749e-16 -4.1176499203e-16 -5.9085898103e-01" quadrupole="-7.9887537946e+00 -6.7060298587e-16 4.4511949189e-16 -6.7060298587e-16 -7.9887537946e+00 1.5520042584e-15 4.4511949189e-16 1.5520042584e-15 -6.1568644139e+00" polarizability="2.0616514539e+01 2.1893598046e-13 2.1675164408e-15 2.1893598046e-13 2.0616514539e+01 -8.9610621601e-15 2.1675164408e-15 -8.9610621601e-15 1.7070912135e+01" charge=-1 multiplicity=1 method=wB97M-V basis=def2-svpd config_type=oh- sample_index=293 temperature=300.0 units=atomic
O         0.0000000000       0.0000000000       0.1022450317  -5.148895612744e-16   5.387418566699e-17   6.185197600060e-02
H        -0.0000000000      -0.0000000000      -0.8111158833   8.989373811315e-17   2.192158766188e-17  -6.185601595361e-02
2
Properties=species:S:1:pos:R:3:forces:R:3 energy=-7.571743413478e+01 dipole="-8.5864124470e-16 -3.6985680535e-15 -5.4019763474e-01" quadrupole="-8.0853152878e+00 -1.0283006804e-15 1.5151238004e-15 -1.0283006804e-15 -8.0853152878e+00 3.4136459198e-15 1.5151238004e-15 3.4136459198e-15 -6.2246731665e+00" polarizability="2.0656215677e+01 -1.2878587086e-13 -5.8637305823e-15 -1.2878587086e-13 2.0656215677e+01 -1.2851048551e-14 -5.8637305823e-15 -1.2851048551e-14 1.9757012931e+01" charge=-1 multiplicity=1 method=wB97M-V basis=def2-svpd config_type=oh- sample_index=294 temperature=300.0 units=atomic
O        -0.0000000000      -0.0000000000       0.1091198812   6.103038091698e-16   9.873905506656e-16  -5.194273727420e-02
H         0.0000000000       0.0000000000      -0.9211113462   9.434689707687e-18  -3.286557034540e-17   5.194408154079e-02
2
Properties=species:S:1:pos:R:3:forces:R:3 energy=-7.571937850608e+01 dipole="6.4684850762e-16 2.7710477233e-16 -5.8624873823e-01" quadrupole="-8.0007612665e+00 4.2055626328e-15 1.1466482174e-15 4.2055626328e-15 -8.0007612665e+00 -4.4436682188e-16 1.1466482174e-15 -4.4436682188e-16 -6.1631886278e+00" polarizability="2.0625820596e+01 -1.6209256160e-13 -1.9977380583e-14 -1.6209256160e-13 2.0625820596e+01 2.3325469193e-14 -1.9977380583e-14 2.3325469193e-14 1.7351983431e+01" charge=-1 multiplicity=1 method=wB97M-V basis=def2-svpd config_type=oh- sample_index=295 temperature=300.0 units=atomic
O         0.0000000000       0.0000000000       0.1030153412   9.541093699986e-17   1.376012646962e-15   4.394935056939e-02
H        -0.0000000000      -0.0000000000      -0.8234405969  -1.238086475353e-16   6.188348309207e-17  -4.395169249007e-02
2
Properties=species:S:1:pos:R:3:forces:R:3 energy=-7.572054442793e+01 dipole="3.0731100107e-15 -2.4123393347e-16 -5.6251246768e-01" quadrupole="-8.0505590284e+00 6.6400456368e-15 -4.9701332495e-15 6.6400456368e-15 -8.0505590284e+00 1.3716157127e-16 -4.9701332495e-15 1.3716157127e-16 -6.1946214500e+00" polarizability="2.0651430198e+01 1.5765166950e-14 4.0111110898e-15 1.5765166950e-14 2.0651430198e+01 8.7229965199e-15 4.0111110898e-15 8.7229965199e-15 1.8662548810e+01" charge=-1 multiplicity=1 method=wB97M-V basis=def2-svpd config_type=oh- sample_index=296 temperature=300.0 units=atomic
O        -0.0000000000      -0.0000000000       0.1064422480  -1.041132319333e-15  -8.563986415293e-16  -1.849496061166e-02
H         0.0000000000       0.0000000000      -0.8782700452  -2.227700809239e-17   3.455561764296e-17   1.849326212592e-02
2
Properties=species:S:1:pos:R:3:forces:R:3 energy=-7.572048195018e+01 dipole="8.5837820264e-16 2.5331508750e-16 -5.7955665138e-01" quadrupole="-8.0166170657e+00 3.3455035534e-15 -3.6212524492e-16 3.3455035534e-15 -8.0166170657e+00 -5.7488837566e-16 -3.6212524492e-16 -5.7488837566e-16 -6.1721544337e+00" polarizability="2.0636293861e+01 -6.4170890823e-14 -3.0980468848e-15 -6.4170890823e-14 2.0636293861e+01 1.3106528737e-14 -3.0980468848e-15 1.3106528737e-14 1.7742137744e+01" charge=-1 multiplicity=1 method=wB97M-V basis=def2-svpd config_type=oh- sample_index=297 temperature=300.0 units=atomic
O         0.0000000000       0.0000000000       0.1040630610  -9.384262108351e-17   1.909452523899e-16   2.207357161629e-02
H        -0.0000000000      -0.0000000000      -0.8402037888   6.156301729284e-17   1.099044005880e-16  -2.207208059765e-02
2
Properties=species:S:1:pos:R:3:forces:R:3 energy=-7.571517692474e+01 dipole="2.7920938199e-15 -2.7372006046e-15 -5.2899455942e-01" quadrupole="-8.0998523381e+00 -2.8660855262e-15 -1.7003952630e-15 -2.8660855262e-15 -8.0998523381e+00 3.9908283363e-16 -1.7003952630e-15 3.9908283363e-16 -6.2403650447e+00" polarizability="2.0654929676e+01 2.5224267119e-13 1.1686415992e-14 2.5224267119e-13 2.0654929676e+01 -2.8735717130e-16 1.1686415992e-14 -2.8735717130e-16 2.0273001003e+01" charge=-1 multiplicity=1 method=wB97M-V basis=def2-svpd config_type=oh- sample_index=298 temperature=300.0 units=atomic
O        -0.0000000000      -0.0000000000       0.1103318021   1.277481539751e-15   3.054020239126e-16  -6.369774752185e-02
H         0.0000000000       0.0000000000      -0.9405017052  -4.832421349112e-17  -2.067929316610e-17   6.369836596394e-02
2
Properties=species:S:1:pos:R:3:forces:R:3 energy=-7.571740741993e+01 dipole="4.9894754907e-15 -1.7720542120e-15 -5.9267014599e-01" quadrupole="-7.9837573922e+00 1.0048841540e-15 -2.1664272680e-15 1.0048841540e-15 -7.9837573922e+00 -2.6071310379e-17 -2.1664272680e-15 -2.6071310379e-17 -6.1543311542e+00" polarizability="2.0612302187e+01 1.8740564656e-13 2.6571942604e-14 1.8740564656e-13 2.0612302187e+01 -8.1932345973e-15 2.6571942604e-14 -8.1932345973e-15 1.6957333976e+01" charge=-1 multiplicity=1 method=wB97M-V basis=def2-svpd config_type=oh- sample_index=299 temperature=300.0 units=atomic
O         0.0000000000       0.0000000000       0.1019299377   8.918679489852e-16  -3.001861666616e-19   6.965529921878e-02
H        -0.0000000000      -0.0000000000      -0.8060744776  -4.834816564398e-17  -5.909329894783e-17  -6.965903552282e-02
2
Properties=species:S:1:pos:R:3:forces:R:3 energy=-7.571313294969e+01 dipole="-2.1693100108e-15 -1.5934007772e-15 -6.0063819387e-01" quadrupole="-7.9595350171e+00 6.5490370940e-16 3.5699626829e-15 6.5490370940e-16 -7.9595350171e+00 4.1049172904e-16 3.5699626829e-15 4.1049172904e-16 -6.1426941362e+00" polarizability="2.0589132155e+01 -2.1516122217e-13 -1.4824839981e-14 -2.1516122217e-13 2.0589132155e+01 -1.2312051719e-14 -1.4824839981e-14 -1.2312051719e-14 1.6432375943e+01" charge=-1 multiplicity=1 method=wB97M-V basis=def2-svpd config_type=oh- sample_index=300 temperature=300.0 units=atomic
O         0.0000000000       0.0000000000       0.1004438020   4.425021698720e-16   2.794761256491e-16   1.105858631172e-01
H        -0.0000000000      -0.0000000000      -0.7822967661  -1.307032729405e-18  -5.942404656266e-17  -1.105829776584e-01
2
Properties=species:S:1:pos:R:3:forces:R:3 energy=-7.571892304949e+01 dipole="-1.5627357729e-15 -4.6409687126e-16 -5.8807303369e-01" quadrupole="-7.9961254936e+00 5.6549444162e-15 2.9440413484e-15 5.6549444162e-15 -7.9961254936e+00 -1.6675109324e-15 2.9440413484e-15 -1.6675109324e-15 -6.1607046572e+00" polarizability="2.0622365835e+01 2.5179858198e-13 -2.7105157786e-14 2.5179858198e-13 2.0622365835e+01 1.3703583926e-14 -2.7105157786e-14 1.3703583926e-14 1.7242071081e+01" charge=-1 multiplicity=1 method=wB97M-V basis=def2-svpd config_type=oh- sample_index=301 temperature=300.0 units=atomic
O         0.0000000000       0.0000000000       0.1027156958  -7.850790034937e-16  -1.501289841074e-15   5.072094843766e-02
H        -0.0000000000      -0.0000000000      -0.8186463635  -8.860160938816e-17   1.405469085891e-17  -5.072428937474e-02
2
Properties=species:S:1:pos:R:3:forces:R:3 energy=-7.571940139952e+01 dipole="1.6787068353e-15 3.4794798044e-16 -5.8614847539e-01" quadrupole="-8.0010118825e+00 5.7690319242e-16 1.2933559966e-15 5.7690319242e-16 -8.0010118825e+00 6.4024196272e-16 1.2933559966e-15 6.4024196272e-16 -6.1633245380e+00" polarizability="2.0626002369e+01 -1.7985612999e-13 -8.0112175662e-15 -1.7985612999e-13 2.0626002369e+01 -1.7866514917e-15 -8.0112175662e-15 -1.7866514917e-15 1.7357977003e+01" charge=-1 multiplicity=1 method=wB97M-V basis=def2-svpd config_type=oh- sample_index=302 temperature=300.0 units=atomic
O         0.0000000000       0.0000000000       0.1030316233   3.719411963126e-16  -4.949845363154e-17   4.358821219774e-02
H        -0.0000000000      -0.0000000000      -0.8237011057  -1.736730413771e-17  -4.803926121925e-17  -4.359049176424e-02
2
Properties=species:S:1:pos:R:3:forces:R:3 energy=-7.568505887205e+01 dipole="-1.9867219282e-15 2.3150438981e-16 -4.0996270938e-01" quadrupole="-8.1930751423e+00 4.5761183693e-15 1.6026421975e-15 4.5761183693e-15 -8.1930751423e+00 -4.4337941241e-16 1.6026421975e-15 -4.4337941241e-16 -6.4398412577e+00" polarizability="2.0603328875e+01 1.0874634526e-13 -1.6118084970e-14 1.0874634526e-13 2.0603328875e+01 1.3846544217e-14 -1.6118084970e-14 1.3846544217e-14 2.5031673635e+01" charge=-1 multiplicity=1 method=wB97M-V basis=def2-svpd config_type=oh- sample_index=303 temperature=300.0 units=atomic
O        -0.0000000000      -0.0000000000       0.1204087796   7.146984527101e-17  -5.400194243621e-16  -1.102649823851e-01
H         0.0000000000       0.0000000000      -1.1017302239   3.977866833951e-17   4.797109015988e-17   1.102655754909e-01
2
Properties=species:S:1:pos:R:3:forces:R:3 energy=-7.572058931538e+01 dipole="-6.7613178754e-16 -4.5663729633e-16 -5.7847020497e-01" quadrupole="-8.0190365861e+00 -1.6209243538e-15 1.1726510325e-15 -1.6209243538e-15 -8.0190365861e+00 2.7124575104e-16 1.1726510325e-15 2.7124575104e-16 -6.1735947877e+00" polarizability="2.0637705680e+01 -6.6391336873e-14 -1.4381650128e-14 -6.6391336873e-14 2.0637705680e+01 6.8989660987e-15 -1.4381650128e-14 6.8989660987e-15 1.7803721971e+01" charge=-1 multiplicity=1 method=wB97M-V basis=def2-svpd config_type=oh- sample_index=304 temperature=300.0 units=atomic
O         0.0000000000       0.0000000000       0.1042262242   3.301363078368e-16  -7.077885412081e-16   1.890522565968e-02
H        -0.0000000000      -0.0000000000      -0.8428143507   8.198662724983e-17  -7.407968164454e-18  -1.890342838780e-02
2
Properties=species:S:1:pos:R:3:forces:R:3 energy=-7.572089746406e+01 dipole="-5.1543766684e-16 -2.8368431430e-16 -5.7048502666e-01" quadrupole="-8.0356772819e+00 -3.2129226647e-15 -1.9102905731e-15 -3.2129226647e-15 -8.0356772819e+00 6.3014903698e-16 -1.9102905731e-15 6.3014903698e-16 -6.1841210653e+00" polarizability="2.0646042796e+01 2.0250467969e-13 6.3056720726e-16 2.0250467969e-13 2.0646042796e+01 1.4845313981e-14 6.3056720726e-16 1.4845313981e-14 1.8243354350e+01" charge=-1 multiplicity=1 method=wB97M-V basis=def2-svpd config_type=oh- sample_index=305 temperature=300.0 units=atomic
O        -0.0000000000      -0.0000000000       0.1053741376   1.436642801932e-16   9.126689400580e-16  -1.717918818523e-03
H         0.0000000000       0.0000000000      -0.8611806095   6.435409110674e-17  -1.246986622128e-17   1.718639981723e-03
2
Properties=species:S:1:pos:R:3:forces:R:3 energy=-7.572080772251e+01 dipole="1.7490646874e-15 -6.6656694370e-16 -5.6690822793e-01" quadrupole="-8.0425476757e+00 -2.2482725808e-15 -9.8597836097e-16 -2.2482725808e-15 -8.0425476757e+00 4.4145762103e-16 -9.8597836097e-16 4.4145762103e-16 -6.1888263125e+00" polarizability="2.0648774780e+01 -1.5765166950e-13 2.5561269283e-14 -1.5765166950e-13 2.0648774780e+01 1.5683894775e-14 2.5561269283e-14 1.5683894775e-14 1.8433632071e+01" charge=-1 multiplicity=1 method=wB97M-V basis=def2-svpd config_type=oh- sample_index=306 temperature=300.0 units=atomic
O        -0.0000000000      -0.0000000000       0.1058620742   6.227690457923e-16  -2.595338049374e-16  -9.654206206603e-03
H         0.0000000000       0.0000000000      -0.8689874436  -3.340793987993e-18   3.546883847600e-18   9.653630662725e-03
2
Properties=species:S:1:pos:R:3:forces:R:3 energy=-7.571932310977e+01 dipole="8.4506769702e-16 -1.7381799117e-15 -5.5159601425e-01" quadrupole="-8.0686679558e+00 -1.0126766606e-15 -3.3230983603e-16 -1.0126766606e-15 -8.0686679558e+00 2.2959372810e-15 -3.3230983603e-16 2.2959372810e-15 -6.2091556172e+00" polarizability="2.0655297979e+01 6.3282712404e-14 -7.1690890275e-17 6.3282712404e-14 2.0655297979e+01 -2.2099118229e-14 -7.1690890275e-17 -2.2099118229e-14 1.9210637163e+01" charge=-1 multiplicity=1 method=wB97M-V basis=def2-svpd config_type=oh- sample_index=307 temperature=300.0 units=atomic
O        -0.0000000000      -0.0000000000       0.1078023112  -7.436892225111e-16  -2.553360906538e-17  -3.689090141255e-02
H         0.0000000000       0.0000000000      -0.9000306341   8.306225962563e-17   1.043952428050e-16   3.689020666925e-02
2
Properties=species:S:1:pos:R:3:forces:R:3 energy=-7.572088669438e+01 dipole="-1.6818429270e-15 1.0323924289e-15 -5.7280157733e-01" quadrupole="-8.0310444742e+00 3.5139118896e-17 4.2754703977e-15 3.5139118896e-17 -8.0310444742e+00 -8.9538294210e-16 4.2754703977e-15 -8.9538294210e-16 -6.1810737229e+00" polarizability="2.0643964795e+01 3.6415315208e-14 -3.4560055165e-14 3.6415315208e-14 2.0643964795e+01 -7.2889462235e-15 -3.4560055165e-14 -7.2889462235e-15 1.8118032033e+01" charge=-1 multiplicity=1 method=wB97M-V basis=def2-svpd config_type=oh- sample_index=308 temperature=300.0 units=atomic
O         0.0000000000       0.0000000000       0.1050498758   5.681569426390e-16   5.915904651708e-16   3.822057677251e-03
H        -0.0000000000      -0.0000000000      -0.8559925211  -1.922691663098e-17  -1.081215650524e-16  -3.820579342209e-03
2
Properties=species:S:1:pos:R:3:forces:R:3 energy=-7.572010322674e+01 dipole="-1.4823857201e-15 -1.1161468865e-15 -5.8245695525e-01" quadrupole="-8.0099544843e+00 2.9724165990e-15 9.1588117021e-16 2.9724165990e-15 -8.0099544843e+00 2.0527179443e-15 9.1588117021e-16 2.0527179443e-15 -6.1682917235e+00" polarizability="2.0632149183e+01 -2.3003821070e-13 -8.4546512423e-15 -2.3003821070e-13 2.0632149183e+01 1.7796240580e-14 -8.4546512423e-15 1.7796240580e-14 1.7575422619e+01" charge=-1 multiplicity=1 method=wB97M-V basis=def2-svpd config_type=oh- sample_index=309 temperature=300.0 units=atomic
O         0.0000000000       0.0000000000       0.1036183603   6.057209368484e-16   1.910675295521e-15   3.102780233330e-02
H        -0.0000000000      -0.0000000000      -0.8330887163   2.396144153173e-17  -1.775016472346e-17  -3.102769854682e-02
2
Properties=species:S:1:pos:R:3:forces:R:3 energy=-7.572060784919e+01 dipole="-1.4223906164e-15 1.3126290794e-15 -5.6337108721e-01" quadrupole="-8.0490295548e+00 -5.4445690125e-15 4.4584520113e-15 -5.4445690125e-15 -8.0490295548e+00 -2.4094162409e-16 4.4584520113e-15 -2.4094162409e-16 -6.1934877695e+00" polarizability="2.0650967975e+01 2.0516921495e-13 -2.9324511877e-14 2.0516921495e-13 2.0650967975e+01 3.6373713258e-15 -2.9324511877e-14 3.6373713258e-15 1.8618238312e+01" charge=-1 multiplicity=1 method=wB97M-V basis=def2-svpd config_type=oh- sample_index=310 temperature=300.0 units=atomic
O        -0.0000000000      -0.0000000000       0.1063305193  -3.121455061764e-17   3.782614271657e-16  -1.684106779913e-02
H         0.0000000000       0.0000000000      -0.8764824198  -1.971832201063e-17  -1.663310718793e-17   1.683952011027e-02
2
Properties=species:S:1:pos:R:3:forces:R:3 energy=-7.572002614025e+01 dipole="1.3405922390e-15 1.5377392937e-16 -5.5709025690e-01" quadrupole="-8.0598496187e+00 -2.3991058338e-15 -2.7923069849e-15 -2.3991058338e-15 -8.0598496187e+00 -1.1512893023e-15 -2.7923069849e-15 -1.1512893023e-15 -6.2018086908e+00" polarizability="2.0653785474e+01 4.8849813084e-14 1.0171141232e-15 4.8849813084e-14 2.0653785474e+01 -3.4381321000e-15 1.0171141232e-15 -3.4381321000e-15 1.8938167515e+01" charge=-1 multiplicity=1 method=wB97M-V basis=def2-svpd config_type=oh- sample_index=311 temperature=300.0 units=atomic
O        -0.0000000000      -0.0000000000       0.1071311834   1.416880779430e-16  -1.874745200413e-15  -2.820303871108e-02
H         0.0000000000       0.0000000000      -0.8892927968   1.343264044922e-16   4.049583219085e-17   2.820125884164e-02
2
Properties=species:S:1:pos:R:3:forces:R:3 energy=-7.571274979609e+01 dipole="5.2950016158e-16 -2.1076252795e-15 -6.0117238432e-01" quadrupole="-7.9577610308e+00 -2.2110581387e-15 -2.3597716641e-16 -2.2110581387e-15 -7.9577610308e+00 1.9765838454e-15 -2.3597716641e-16 1.9765838454e-15 -6.1418762441e+00" polarizability="2.0587260312e+01 -1.1324274851e-13 4.2171886672e-15 -1.1324274851e-13 2.0587260312e+01 -1.1202668190e-14 4.2171886672e-15 -1.1202668190e-14 1.6395492025e+01" charge=-1 multiplicity=1 method=wB97M-V basis=def2-svpd config_type=oh- sample_index=312 temperature=300.0 units=atomic
O         0.0000000000       0.0000000000       0.1003374879   2.299259036310e-16   2.157579364832e-18   1.137931548804e-01
H        -0.0000000000      -0.0000000000      -0.7805957741   5.836330779965e-17  -4.707155588259e-17  -1.137899256125e-01
2
Properties=species:S:1:pos:R:3:forces:R:3 energy=-7.571639693456e+01 dipole="2.7286317309e-15 -3.5376383685e-16 -5.3485206638e-01" quadrupole="-8.0924557851e+00 -7.0805524679e-17 3.7899227758e-16 -7.0805524679e-17 -8.0924557851e+00 5.5617833993e-16 3.7899227758e-16 5.5617833993e-16 -6.2321018149e+00" polarizability="2.0655826852e+01 8.7041485131e-14 -1.4142692507e-14 8.7041485131e-14 2.0655826852e+01 4.6302416267e-15 -1.4142692507e-14 4.6302416267e-15 2.0005577531e+01" charge=-1 multiplicity=1 method=wB97M-V basis=def2-svpd config_type=oh- sample_index=313 temperature=300.0 units=atomic
O        -0.0000000000      -0.0000000000       0.1097074643  -3.365844467694e-16  -2.853629899089e-16  -5.787538054350e-02
H         0.0000000000       0.0000000000      -0.9305124931   7.572110379598e-18   9.060323982259e-18   5.787661628721e-02
2
Properties=species:S:1:pos:R:3:forces:R:3 energy=-7.571537432149e+01 dipole="1.3534091570e-15 -1.0901945827e-15 -5.9703106820e-01" quadrupole="-7.9709905486e+00 -2.5768399287e-15 -4.2665746168e-15 -2.5768399287e-15 -7.9709905486e+00 3.3154353341e-15 -4.2665746168e-15 3.3154353341e-15 -6.1480788203e+00" polarizability="2.0600650606e+01 2.4102941865e-13 2.0881229695e-14 2.4102941865e-13 2.0600650606e+01 -4.9470307900e-17 2.0881229695e-14 -4.9470307900e-17 1.6675546657e+01" charge=-1 multiplicity=1 method=wB97M-V basis=def2-svpd config_type=oh- sample_index=314 temperature=300.0 units=atomic
O         0.0000000000       0.0000000000       0.1011384033  -1.083689132272e-15   5.123722163593e-16   9.057420581835e-02
H        -0.0000000000      -0.0000000000      -0.7934101723   9.935071831061e-17  -4.478349924815e-17  -9.057473902287e-02
2
Properties=species:S:1:pos:R:3:forces:R:3 energy=-7.572075909149e+01 dipole="6.8624701618e-15 1.9870689240e-15 -5.7619273378e-01" quadrupole="-8.0239814282e+00 -1.1383392878e-15 1.5626356336e-15 -1.1383392878e-15 -8.0239814282e+00 -6.3242205462e-17 1.5626356336e-15 -6.3242205462e-17 -6.1766054693e+00" polarizability="2.0640434685e+01 8.8817841970e-14 -1.4626282333e-14 8.8817841970e-14 2.0640434685e+01 -3.7804264693e-15 -1.4626282333e-14 -3.7804264693e-15 1.7931372695e+01" charge=-1 multiplicity=1 method=wB97M-V basis=def2-svpd config_type=oh- sample_index=315 temperature=300.0 units=atomic
O         0.0000000000       0.0000000000       0.1045625520   1.795133234256e-15   1.390033094236e-15   1.256583358346e-02
H        -0.0000000000      -0.0000000000      -0.8481954906   7.519742021837e-17  -6.222207410368e-17  -1.256380755344e-02
2
Properties=species:S:1:pos:R:3:forces:R:3 energy=-7.571840288384e+01 dipole="-1.9725446881e-15 8.9482770804e-17 -5.4566653852e-01" quadrupole="-8.0775853832e+00 -2.7288423761e-15 1.9557766120e-15 -2.7288423761e-15 -8.0775853832e+00 -2.1508928350e-17 1.9557766120e-15 -2.1508928350e-17 -6.2171766028e+00" polarizability="2.0656105771e+01 8.7263529736e-14 6.0859647371e-15 8.7263529736e-14 2.0656105771e+01 1.2274398314e-14 6.0859647371e-15 1.2274398314e-14 1.9497821659e+01" charge=-1 multiplicity=1 method=wB97M-V basis=def2-svpd config_type=oh- sample_index=316 temperature=300.0 units=atomic
O        -0.0000000000      -0.0000000000       0.1084994160  -7.104326364700e-16   6.840553508628e-16  -4.516915641588e-02
H         0.0000000000       0.0000000000      -0.9111840951  -7.746048591261e-17   7.060352980973e-17   4.516985217477e-02
2
Properties=species:S:1:pos:R:3:forces:R:3 energy=-7.572054835255e+01 dipole="3.3423471777e-15 -1.9134753060e-15 -5.6256352560e-01" quadrupole="-8.0504685423e+00 7.0273131675e-16 -1.7528473493e-15 7.0273131675e-16 -8.0504685423e+00 -4.3164020882e-16 -1.7528473493e-15 -4.3164020882e-16 -6.1945540072e+00" polarizability="2.0651403435e+01 1.8918200340e-13 -1.1804169851e-14 1.8918200340e-13 2.0651403435e+01 -1.2714941247e-14 -1.1804169851e-14 -1.2714941247e-14 1.8659919187e+01" charge=-1 multiplicity=1 method=wB97M-V basis=def2-svpd config_type=oh- sample_index=317 temperature=300.0 units=atomic
O        -0.0000000000      -0.0000000000       0.1064356251  -1.251323060899e-16   3.232856806565e-16  -1.839755616959e-02
H         0.0000000000       0.0000000000      -0.8781640795  -9.305301950638e-17  -7.011039630125e-17   1.839586560295e-02
2
Properties=species:S:1:pos:R:3:forces:R:3 energy=-7.571769073076e+01 dipole="-2.1228088962e-15 -1.5698310254e-15 -5.4159188299e-01" quadrupole="-8.0833870794e+00 -4.3239121049e-16 7.6061611616e-16 -4.3239121049e-16 -8.0833870794e+00 1.8952180216e-15 7.6061611616e-16 1.8952180216e-15 -6.2227523913e+00" polarizability="2.0656240053e+01 -1.4344081478e-13 -2.8944295506e-14 -1.4344081478e-13 2.0656240053e+01 -1.4310864126e-14 -2.8944295506e-14 -1.4310864126e-14 1.9691422855e+01" charge=-1 multiplicity=1 method=wB97M-V basis=def2-svpd config_type=oh- sample_index=318 temperature=300.0 units=atomic
O        -0.0000000000      -0.0000000000       0.1089636290   5.924683309730e-16  -3.105626288831e-16  -5.028750705063e-02
H         0.0000000000       0.0000000000      -0.9186113589  -1.819142183212e-17   3.886163788427e-17   5.028876312807e-02
2
Properties=species:S:1:pos:R:3:forces:R:3 energy=-7.571866601741e+01 dipole="-1.1344375071e-15 4.1254735246e-16 -5.8898599470e-01" quadrupole="-7.9937498872e+00 2.1269340360e-15 2.5254305370e-15 2.1269340360e-15 -7.9937498872e+00 7.1408230402e-16 2.5254305370e-15 7.1408230402e-16 -6.1594529608e+00" polarizability="2.0620527884e+01 -2.0126261768e-14 -1.9460823508e-14 -2.0126261768e-14 2.0620527884e+01 7.0996961749e-15 -1.9460823508e-14 7.0996961749e-15 1.7186435758e+01" charge=-1 multiplicity=1 method=wB97M-V basis=def2-svpd config_type=oh- sample_index=319 temperature=300.0 units=atomic
O         0.0000000000       0.0000000000       0.1025632508   8.636814908982e-16   5.668756032682e-16   5.425892854679e-02
H        -0.0000000000      -0.0000000000      -0.8162072913  -5.330793856390e-17   3.059760611700e-17  -5.426263235005e-02
2
Properties=species:S:1:pos:R:3:forces:R:3 energy=-7.572033823481e+01 dipole="-9.7293484751e-17 -6.7348852884e-16 -5.8078724452e-01" quadrupole="-8.0138271373e+00 -1.8176951559e-15 -7.2685204221e-16 -1.8176951559e-15 -8.0138271373e+00 -4.3787184050e-16 -7.2685204221e-16 -4.3787184050e-16 -6.1705189467e+00" polarizability="2.0634603984e+01 -1.8962609261e-13 1.4336947141e-14 -1.8962609261e-13 2.0634603984e+01 1.6188035664e-14 1.4336947141e-14 1.6188035664e-14 1.7671821157e+01" charge=-1 multiplicity=1 method=wB97M-V basis=def2-svpd config_type=oh- sample_index=320 temperature=300.0 units=atomic
O         0.0000000000       0.0000000000       0.1038760339   4.744654983251e-16   2.119049773575e-16   2.578185075766e-02
H        -0.0000000000      -0.0000000000      -0.8372114144  -1.183649311838e-16   1.175227728122e-16  -2.578085585919e-02
2
Properties=species:S:1:pos:R:3:forces:R:3 energy=-7.571965629162e+01 dipole="1.3481879047e-15 -2.0448325888e-15 -5.5404559301e-01" quadrupole="-8.0648060822e+00 2.7047956018e-15 -2.8110486864e-15 2.7047956018e-15 -8.0648060822e+00 9.9162344240e-16 -2.8110486864e-15 9.9162344240e-16 -6.2058708558e+00" polarizability="2.0654722615e+01 9.3480778673e-14 2.3226545304e-14 9.3480778673e-14 2.0654722615e+01 2.1262015377e-14 2.3226545304e-14 2.1262015377e-14 1.9089956171e+01" charge=-1 multiplicity=1 method=wB97M-V basis=def2-svpd config_type=oh- sample_index=321 temperature=300.0 units=atomic
O        -0.0000000000      -0.0000000000       0.1075062521   6.280771286326e-16  -1.024812036758e-16  -3.314837904944e-02
H         0.0000000000       0.0000000000      -0.8952937798   5.215534460716e-17   8.599969601041e-17   3.314711053119e-02
2
Properties=species:S:1:pos:R:3:forces:R:3 energy=-7.571642040161e+01 dipole="2.8606523924e-16 -5.2383006364e-16 -5.3496871846e-01" quadrupole="-8.0923040738e+00 7.6604222386e-17 1.5936354856e-15 7.6604222386e-17 -8.0923040738e+00 6.1754402672e-16 1.5936354856e-15 6.1754402672e-16 -6.2319385837e+00" polarizability="2.0655839996e+01 1.6786572132e-13 -1.9557688594e-15 1.6786572132e-13 2.0655839996e+01 -8.7553719077e-15 -1.9557688594e-15 -8.7553719077e-15 2.0000200747e+01" charge=-1 multiplicity=1 method=wB97M-V basis=def2-svpd config_type=oh- sample_index=322 temperature=300.0 units=atomic
O        -0.0000000000      -0.0000000000       0.1096948292  -1.884649847462e-15  -1.942753893396e-17  -5.775253453280e-02
H         0.0000000000       0.0000000000      -0.9303103370   9.537879520323e-18  -2.332876842647e-17   5.775377885823e-02
2
Properties=species:S:1:pos:R:3:forces:R:3 energy=-7.572048074311e+01 dipole="2.8899674263e-16 -1.3745740642e-15 -5.7956791452e-01" quadrupole="-8.0165917706e+00 2.9598382034e-15 -1.9302685664e-15 2.9598382034e-15 -8.0165917706e+00 2.3189305110e-15 -1.9302685664e-15 2.3189305110e-15 -6.1721394847e+00" polarizability="2.0636278837e+01 1.3855583347e-13 2.0504572959e-14 1.3855583347e-13 2.0636278837e+01 -3.2135219484e-14 2.0504572959e-14 -3.2135219484e-14 1.7741496888e+01" charge=-1 multiplicity=1 method=wB97M-V basis=def2-svpd config_type=oh- sample_index=323 temperature=300.0 units=atomic
O         0.0000000000       0.0000000000       0.1040613599   8.078900146610e-17   4.530411072004e-17   2.210692807646e-02
H        -0.0000000000      -0.0000000000      -0.8401765730  -6.661682451906e-17  -5.455643480384e-18  -2.210544089675e-02
2
Properties=species:S:1:pos:R:3:forces:R:3 energy=-7.571618649325e+01 dipole="-2.2193406598e-16 9.1350813740e-16 -5.9545359367e-01" quadrupole="-7.9757360312e+00 -2.0996520224e-15 -1.0564008904e-15 -2.0996520224e-15 -7.9757360312e+00 5.3948171821e-16 -1.0564008904e-15 5.3948171821e-16 -6.1503686369e+00" polarizability="2.0605129232e+01 1.7419399256e-13 -2.0056534961e-14 1.7419399256e-13 2.0605129232e+01 -3.1792234433e-15 -2.0056534961e-14 -3.1792234433e-15 1.6778913795e+01" charge=-1 multiplicity=1 method=wB97M-V basis=def2-svpd config_type=oh- sample_index=324 temperature=300.0 units=atomic
O         0.0000000000       0.0000000000       0.1014304008  -8.612471122857e-16  -7.478438107867e-16   8.263154049599e-02
H        -0.0000000000      -0.0000000000      -0.7980820410  -6.958377639501e-18  -9.539273059550e-17  -8.263356144668e-02
2
Properties=species:S:1:pos:R:3:forces:R:3 energy=-7.572084452245e+01 dipole="-1.8250180705e-15 -7.0801151239e-16 -5.6789592632e-01" quadrupole="-8.0406833983e+00 -6.5911587861e-15 2.5105322843e-15 -6.5911587861e-15 -8.0406833983e+00 7.6820841053e-16 2.5105322843e-15 7.6820841053e-16 -6.1875265331e+00" polarizability="2.0648074925e+01 5.7398530373e-14 1.5989927834e-14 5.7398530373e-14 2.0648074925e+01 2.0752630183e-14 1.5989927834e-14 2.0752630183e-14 1.8381463959e+01" charge=-1 multiplicity=1 method=wB97M-V basis=def2-svpd config_type=oh- sample_index=325 temperature=300.0 units=atomic
O        -0.0000000000      -0.0000000000       0.1057288182   4.385615864094e-16   5.439264036808e-16  -7.533380662846e-03
H         0.0000000000       0.0000000000      -0.8668553879  -5.885684805668e-17   1.284570446981e-16   7.533150584224e-03
2
Properties=species:S:1:pos:R:3:forces:R:3 energy=-7.572007808134e+01 dipole="2.4199406942e-15 6.1504515092e-16 -5.8261749485e-01" quadrupole="-8.0095766854e+00 -6.1271408180e-16 -3.3768312481e-15 -6.1271408180e-16 -8.0095766854e+00 -3.1206930084e-16 -3.3768312481e-15 -3.1206930084e-16 -6.1680770223e+00" polarizability="2.0631902953e+01 -9.8143715377e-14 2.1027310720e-14 -9.8143715377e-14 2.0631902953e+01 2.2025310235e-15 2.1027310720e-14 2.2025310235e-15 1.7566092177e+01" charge=-1 multiplicity=1 method=wB97M-V basis=def2-svpd config_type=oh- sample_index=326 temperature=300.0 units=atomic
O         0.0000000000       0.0000000000       0.1035933412  -5.897960775720e-16  -1.214675791047e-15   3.154576299973e-02
H        -0.0000000000      -0.0000000000      -0.8326884179  -3.361715434035e-17  -1.129068979632e-16  -3.154575553322e-02
2
Properties=species:S:1:pos:R:3:forces:R:3 energy=-7.572031651819e+01 dipole="3.6051124503e-16 -6.5787408017e-16 -5.5987470924e-01" quadrupole="-8.0551559833e+00 -2.2602188953e-15 5.6985854463e-16 -2.2602188953e-15 -8.0551559833e+00 -2.0709456959e-16 5.6985854463e-16 -2.0709456959e-16 -6.1981112136e+00" polarizability="2.0652692906e+01 9.2592600254e-14 3.3214564366e-15 9.2592600254e-14 2.0652692906e+01 1.6974479624e-14 3.3214564366e-15 1.6974479624e-14 1.8797513227e+01" charge=-1 multiplicity=1 method=wB97M-V basis=def2-svpd config_type=oh- sample_index=327 temperature=300.0 units=atomic
O        -0.0000000000      -0.0000000000       0.1067808928  -7.012365055275e-16  -2.543839364979e-16  -2.337064444118e-02
H         0.0000000000       0.0000000000      -0.8836882570  -1.605899008276e-17  -6.524053587107e-17   2.336872197923e-02
2
Properties=species:S:1:pos:R:3:forces:R:3 energy=-7.572088000956e+01 dipole="-1.0416121255e-16 -2.1725318207e-15 -5.7314724884e-01" quadrupole="-8.0303401639e+00 -5.8096932393e-16 -2.3158067994e-15 -5.8096932393e-16 -8.0303401639e+00 2.1064005356e-15 -2.3158067994e-15 2.1064005356e-15 -6.1806187821e+00" polarizability="2.0643632349e+01 1.5010215293e-13 2.0300203754e-14 1.5010215293e-13 2.0643632349e+01 -1.0620407383e-14 2.0300203754e-14 -1.0620407383e-14 1.8099183444e+01" charge=-1 multiplicity=1 method=wB97M-V basis=def2-svpd config_type=oh- sample_index=328 temperature=300.0 units=atomic
O         0.0000000000       0.0000000000       0.1050009048   4.638646581446e-16  -9.529610685586e-16   4.677737155730e-03
H        -0.0000000000      -0.0000000000      -0.8552089993   1.085330618355e-16   1.086261800987e-16  -4.676165486640e-03
2
Properties=species:S:1:pos:R:3:forces:R:3 energy=-7.572054526074e+01 dipole="1.7807711501e-15 2.2608286256e-16 -5.6252328154e-01" quadrupole="-8.0505398689e+00 4.4620929687e-15 -1.0656782724e-15 4.4620929687e-15 -8.0505398689e+00 -4.7641060487e-16 -1.0656782724e-15 -4.7641060487e-16 -6.1946071659e+00" polarizability="2.0651424538e+01 -6.6058269965e-14 1.3785593622e-14 -6.6058269965e-14 2.0651424538e+01 -1.9233491097e-15 1.3785593622e-14 -1.9233491097e-15 1.8661991928e+01" charge=-1 multiplicity=1 method=wB97M-V basis=def2-svpd config_type=oh- sample_index=329 temperature=300.0 units=atomic
O        -0.0000000000      -0.0000000000       0.1064408456  -7.229904131797e-16  -7.783193873715e-16  -1.847434085507e-02
H         0.0000000000       0.0000000000      -0.8782476058  -1.120484940884e-16  -5.644798787078e-17   1.847264403535e-02
2
Properties=species:S:1:pos:R:3:forces:R:3 energy=-7.572050231223e+01 dipole="9.8066353891e-17 2.1253192016e-16 -5.7936381974e-01" quadrupole="-8.0170494471e+00 -3.8334373535e-16 1.0544501883e-15 -3.8334373535e-16 -8.0170494471e+00 -8.9140681324e-18 1.0544501883e-15 -8.9140681324e-18 -6.1724103077e+00" polarizability="2.0636549830e+01 -1.7541523789e-13 -2.1837139078e-14 -1.7541523789e-13 2.0636549830e+01 -4.3165028660e-15 -2.1837139078e-14 -4.3165028660e-15 1.7753101712e+01" charge=-1 multiplicity=1 method=wB97M-V basis=def2-svpd config_type=oh- sample_index=330 temperature=300.0 units=atomic
O         0.0000000000       0.0000000000       0.1040921527  -1.497899980507e-15   1.974014098596e-16   2.150413924629e-02
H        -0.0000000000      -0.0000000000      -0.8406692470  -6.196407298569e-17  -1.822735181557e-17  -2.150258458984e-02
2
Properties=species:S:1:pos:R:3:forces:R:3 energy=-7.571299686594e+01 dipole="1.1016185580e-15 -2.0100211314e-16 -5.1924826072e-01" quadrupole="-8.1112765423e+00 -1.7097837476e-15 -1.8630585829e-15 -1.7097837476e-15 -8.1112765423e+00 7.0975884187e-17 -1.8630585829e-15 7.0975884187e-17 -6.2544172625e+00" polarizability="2.0652577640e+01 7.8159700934e-14 8.4991339131e-15 7.8159700934e-14 2.0652577640e+01 -5.3440130575e-15 8.4991339131e-15 -5.3440130575e-15 2.0707704722e+01" charge=-1 multiplicity=1 method=wB97M-V basis=def2-svpd config_type=oh- sample_index=331 temperature=300.0 units=atomic
O        -0.0000000000      -0.0000000000       0.1113301935   5.247224070683e-16   5.482100410197e-16  -7.205472848619e-02
H         0.0000000000       0.0000000000      -0.9564756589  -3.203790410903e-17   3.222424820808e-19   7.205447770067e-02
2
Properties=species:S:1:pos:R:3:forces:R:3 energy=-7.571887621365e+01 dipole="5.8800898212e-16 2.3119368274e-15 -5.8824484404e-01" quadrupole="-7.9956813269e+00 1.5000249584e-14 1.9852986550e-15 1.5000249584e-14 -7.9956813269e+00 -2.2712681776e-15 1.9852986550e-15 -2.2712681776e-15 -6.1604695657e+00" polarizability="2.0622025659e+01 2.0750068330e-13 1.1675711696e-15 2.0750068330e-13 2.0622025659e+01 1.4899035354e-14 1.1675711696e-15 1.4899035354e-14 1.7231633875e+01" charge=-1 multiplicity=1 method=wB97M-V basis=def2-svpd config_type=oh- sample_index=332 temperature=300.0 units=atomic
O         0.0000000000       0.0000000000       0.1026871368   5.215433710233e-16   4.900139941763e-17   5.137892546548e-02
H        -0.0000000000      -0.0000000000      -0.8181894277   4.173935086967e-17   9.327695875869e-17  -5.138234308096e-02
2
Properties=species:S:1:pos:R:3:forces:R:3 energy=-7.572067690161e+01 dipole="-9.4825804698e-16 -1.4590504366e-16 -5.6440730337e-01" quadrupole="-8.0471612795e+00 -2.8313124788e-15 -2.5040112481e-16 -2.8313124788e-15 -8.0471612795e+00 5.5175068845e-16 -2.5040112481e-16 5.5175068845e-16 -6.1921207970e+00" polarizability="2.0650373371e+01 1.9939605522e-13 -3.5286650122e-15 1.9939605522e-13 2.0650373371e+01 1.1594433580e-14 -3.5286650122e-15 1.1594433580e-14 1.8564506601e+01" charge=-1 multiplicity=1 method=wB97M-V basis=def2-svpd config_type=oh- sample_index=333 temperature=300.0 units=atomic
O        -0.0000000000      -0.0000000000       0.1061946690   1.957197462787e-17   2.268011286924e-16  -1.479921803506e-02
H         0.0000000000       0.0000000000      -0.8743088568  -3.983368842944e-17  -5.643058069270e-17   1.479790225611e-02
2
Properties=species:S:1:pos:R:3:forces:R:3 energy=-7.572030205942e+01 dipole="1.1824644503e-15 -5.2333382188e-16 -5.8106769349e-01" quadrupole="-8.0131837944e+00 2.4291872948e-15 2.0539166048e-16 2.4291872948e-15 -8.0131837944e+00 1.2681821042e-15 2.0539166048e-16 1.2681821042e-15 -6.1701455525e+00" polarizability="2.0634204941e+01 1.8474111130e-13 1.5464892998e-14 1.8474111130e-13 2.0634204941e+01 -3.1381672475e-14 1.5464892998e-14 -3.1381672475e-14 1.7655710669e+01" charge=-1 multiplicity=1 method=wB97M-V basis=def2-svpd config_type=oh- sample_index=334 temperature=300.0 units=atomic
O         0.0000000000       0.0000000000       0.1038330735  -1.681245607345e-16   1.280282263507e-15   2.664536254787e-02
H        -0.0000000000      -0.0000000000      -0.8365240606  -2.038614197692e-17   2.215622393955e-17  -2.664450125200e-02
2
Properties=species:S:1:pos:R:3:forces:R:3 energy=-7.572041943972e+01 dipole="-7.7557001842e-16 -1.5204266446e-15 -5.6099753260e-01" quadrupole="-8.0532176129e+00 -5.2860287334e-16 1.8785356494e-15 -5.2860287334e-16 -8.0532176129e+00 -7.8810893429e-16 1.8785356494e-15 -7.8810893429e-16 -6.1966243283e+00" polarizability="2.0652183670e+01 -1.6830981053e-13 -1.9956891410e-14 -1.6830981053e-13 2.0652183670e+01 1.7365062503e-14 -1.9956891410e-14 1.7365062503e-14 1.8740272931e+01" charge=-1 multiplicity=1 method=wB97M-V basis=def2-svpd config_type=oh- sample_index=335 temperature=300.0 units=atomic
O        -0.0000000000      -0.0000000000       0.1066375736   2.489872419764e-16  -3.451001859019e-16  -2.133209314412e-02
H         0.0000000000       0.0000000000      -0.8813951942  -1.910083893722e-17   1.014397477194e-16   2.133022150467e-02
2
Properties=species:S:1:pos:R:3:forces:R:3 energy=-7.572042584418e+01 dipole="1.8948401782e-15 1.3856522362e-16 -5.8006201645e-01" quadrupole="-8.0154777776e+00 -4.8485247325e-16 -4.3237428101e-15 -4.8485247325e-16 -8.0154777776e+00 2.0545043191e-17 -4.3237428101e-15 2.0545043191e-17 -6.1714833476e+00" polarizability="2.0635611776e+01 1.6792123247e-15 4.4143084478e-14 1.6792123247e-15 2.0635611776e+01 -1.2431955256e-14 4.4143084478e-14 -1.2431955256e-14 1.7713334247e+01" charge=-1 multiplicity=1 method=wB97M-V basis=def2-svpd config_type=oh- sample_index=336 temperature=300.0 units=atomic
O         0.0000000000       0.0000000000       0.1039865441  -5.225786059662e-17   1.837152103845e-15   2.358074216841e-02
H        -0.0000000000      -0.0000000000      -0.8389795422   8.187864440619e-17  -4.407663320096e-17  -2.357943643228e-02
2
Properties=species:S:1:pos:R:3:forces:R:3 energy=-7.571663895469e+01 dipole="4.8484268216e-16 9.2576931467e-16 -5.3606367397e-01" quadrupole="-8.0908713084e+00 3.8114630826e-15 -1.5800138451e-15 3.8114630826e-15 -8.0908713084e+00 4.8468054495e-17 -1.5800138451e-15 4.8468054495e-17 -6.2304088959e+00" polarizability="2.0655953688e+01 -2.3181456754e-13 2.4014661056e-14 -2.3181456754e-13 2.0655953688e+01 1.0927568618e-16 2.4014661056e-14 1.0927568618e-16 1.9949630755e+01" charge=-1 multiplicity=1 method=wB97M-V basis=def2-svpd config_type=oh- sample_index=337 temperature=300.0 units=atomic
O        -0.0000000000      -0.0000000000       0.1095758327   1.504893874553e-16   3.525993075370e-17  -5.658554505210e-02
H         0.0000000000       0.0000000000      -0.9284064294   5.228061922344e-17  -1.732971016019e-17   5.658685863877e-02
2
Properties=species:S:1:pos:R:3:forces:R:3 energy=-7.571333247291e+01 dipole="-1.0548815114e-15 -1.9589011900e-16 -6.0035188855e-01" quadrupole="-7.9604771739e+00 1.4632502378e-15 1.7646344393e-15 1.4632502378e-15 -7.9604771739e+00 -9.1380843735e-16 1.7646344393e-15 -9.1380843735e-16 -6.1431301276e+00" polarizability="2.0590116762e+01 1.2845280395e-13 7.2097520066e-15 1.2845280395e-13 2.0590116762e+01 -1.4587483977e-15 7.2097520066e-15 -1.4587483977e-15 1.6452047241e+01" charge=-1 multiplicity=1 method=wB97M-V basis=def2-svpd config_type=oh- sample_index=338 temperature=300.0 units=atomic
O         0.0000000000       0.0000000000       0.1005003983  -3.021020314062e-16  -4.829110794766e-16   1.088944481634e-01
H        -0.0000000000      -0.0000000000      -0.7832022895  -2.861492760866e-17  -4.323983795049e-17  -1.088917750147e-01
2
Properties=species:S:1:pos:R:3:forces:R:3 energy=-7.571112378968e+01 dipole="2.5700959258e-16 -3.0136856241e-15 -5.1133708362e-01" quadrupole="-8.1198308528e+00 -8.6246139827e-16 -6.0837283699e-17 -8.6246139827e-16 -8.1198308528e+00 3.9146494133e-15 -6.0837283699e-17 3.9146494133e-15 -6.2661126602e+00" polarizability="2.0650046733e+01 7.1942451996e-14 9.0881771593e-15 7.1942451996e-14 2.0650046733e+01 -1.5574178278e-14 9.0881771593e-15 -1.5574178278e-14 2.1052201967e+01" charge=-1 multiplicity=1 method=wB97M-V basis=def2-svpd config_type=oh- sample_index=339 temperature=300.0 units=atomic
O        -0.0000000000      -0.0000000000       0.1121077292   7.352690608069e-16   5.040711080825e-16  -7.781630093365e-02
H         0.0000000000       0.0000000000      -0.9689159884   1.196882193749e-17  -3.410929749017e-17   7.781617502659e-02
2
Properties=species:S:1:pos:R:3:forces:R:3 energy=-7.571687917545e+01 dipole="-1.1432553050e-15 5.7498291501e-16 -5.3728614979e-01" quadrupole="-8.0892527800e+00 3.2642715742e-15 -1.5569347221e-15 3.2642715742e-15 -8.0892527800e+00 -1.0429323545e-15 -1.5569347221e-15 -1.0429323545e-15 -6.2287063029e+00" polarizability="2.0656059384e+01 -1.8784973577e-13 2.4388784197e-14 -1.8784973577e-13 2.0656059384e+01 -8.4011265364e-15 2.4388784197e-14 -8.4011265364e-15 1.9892953027e+01" charge=-1 multiplicity=1 method=wB97M-V basis=def2-svpd config_type=oh- sample_index=340 temperature=300.0 units=atomic
O        -0.0000000000      -0.0000000000       0.1094421159   7.558016036422e-16  -7.389487965487e-16  -5.525236225773e-02
H         0.0000000000       0.0000000000      -0.9262670014   4.612073171565e-17   7.282311066527e-18   5.525372606667e-02
2
Properties=species:S:1:pos:R:3:forces:R:3 energy=-7.572064706153e+01 dipole="-2.5182129771e-15 8.1840101302e-16 -5.7779725180e-01" quadrupole="-8.0205153205e+00 -1.3137917917e-15 3.2066179629e-15 -1.3137917917e-15 -8.0205153205e+00 -1.4164547327e-15 3.2066179629e-15 -1.4164547327e-15 -6.1744855029e+00" polarizability="2.0638543851e+01 7.7937656329e-14 -2.4222309602e-14 7.7937656329e-14 2.0638543851e+01 1.3537256412e-14 -2.4222309602e-14 1.3537256412e-14 1.7841641003e+01" charge=-1 multiplicity=1 method=wB97M-V basis=def2-svpd config_type=oh- sample_index=341 temperature=300.0 units=atomic
O         0.0000000000       0.0000000000       0.1043263943  -5.511863558621e-16   1.117407094976e-16   1.699042486702e-02
H        -0.0000000000      -0.0000000000      -0.8444170398   4.782105436939e-19   4.213116806760e-17  -1.698850234890e-02
2
Properties=species:S:1:pos:R:3:forces:R:3 energy=-7.570888852208e+01 dipole="-1.8413325540e-15 1.6957892327e-15 -6.0567017554e-01" quadrupole="-7.9419212002e+00 3.2795326289e-15 2.4747313041e-15 3.2795326289e-15 -7.9419212002e+00 1.9909319541e-16 2.4747313041e-15 1.9909319541e-16 -6.1347257721e+00" polarizability="2.0569527618e+01 2.7887414600e-14 -2.4431699668e-14 2.7887414600e-14 2.0569527618e+01 -4.0069456364e-15 -2.4431699668e-14 -4.0069456364e-15 1.6074795330e+01" charge=-1 multiplicity=1 method=wB97M-V basis=def2-svpd config_type=oh- sample_index=342 temperature=300.0 units=atomic
O         0.0000000000       0.0000000000       0.0994021901  -6.799492601212e-16  -1.188191377116e-15   1.437676776461e-01
H        -0.0000000000      -0.0000000000      -0.7656312988  -4.659771021120e-17  -2.234387327013e-17  -1.437653610722e-01
2
Properties=species:S:1:pos:R:3:forces:R:3 energy=-7.572054515198e+01 dipole="-1.5045268639e-15 -6.2003188322e-16 -5.7893916214e-01" quadrupole="-8.0179971448e+00 -2.4538984444e-16 8.4452780532e-16 -2.4538984444e-16 -8.0179971448e+00 1.6998106561e-15 8.4452780532e-16 1.6998106561e-15 -6.1729734438e+00" polarizability="2.0637105285e+01 -1.3100631691e-13 -2.2078123406e-14 -1.3100631691e-13 2.0637105285e+01 -4.1800447780e-14 -2.2078123406e-14 -4.1800447780e-14 1.7777195597e+01" charge=-1 multiplicity=1 method=wB97M-V basis=def2-svpd config_type=oh- sample_index=343 temperature=300.0 units=atomic
O         0.0000000000       0.0000000000       0.1041560170   2.621192856630e-16   1.121771719590e-15   2.026097756123e-02
H        -0.0000000000      -0.0000000000      -0.8416910573   1.098900898436e-17  -8.267058561929e-17  -2.025929680733e-02
2
Properties=species:S:1:pos:R:3:forces:R:3 energy=-7.572064134665e+01 dipole="3.0666519687e-15 1.1906874537e-15 -5.6385817922e-01" quadrupole="-8.0481544125e+00 3.8253929930e-15 9.7635287526e-16 3.8253929930e-15 -8.0481544125e+00 1.1552540049e-15 9.7635287526e-16 1.1552540049e-15 -6.1928450076e+00" polarizability="2.0650692574e+01 -1.3233858454e-13 -1.9022355006e-14 -1.3233858454e-13 2.0650692574e+01 -1.1925171324e-14 -1.9022355006e-14 -1.1925171324e-14 1.8593015858e+01" charge=-1 multiplicity=1 method=wB97M-V basis=def2-svpd config_type=oh- sample_index=344 temperature=300.0 units=atomic
O        -0.0000000000      -0.0000000000       0.1062667999   5.533390958442e-16  -5.141809243397e-16  -1.588760334184e-02
H         0.0000000000       0.0000000000      -0.8754629294  -5.793971740005e-17  -3.034289792441e-17   1.588615929765e-02
2
Properties=species:S:1:pos:R:3:forces:R:3 energy=-7.571376870529e+01 dipole="-2.5292815239e-15 3.0924193463e-16 -5.2261764659e-01" quadrupole="-8.1074437337e+00 -4.0491689490e-15 2.9004345538e-15 -4.0491689490e-15 -8.1074437337e+00 1.5945991319e-15 2.9004345538e-15 1.5945991319e-15 -6.2495154384e+00" polarizability="2.0653495567e+01 -9.0372154204e-14 -3.7364568298e-14 -9.0372154204e-14 2.0653495567e+01 -1.2953640584e-15 -3.7364568298e-14 -1.2953640584e-15 2.0558783702e+01" charge=-1 multiplicity=1 method=wB97M-V basis=def2-svpd config_type=oh- sample_index=345 temperature=300.0 units=atomic
O        -0.0000000000      -0.0000000000       0.1109903945  -1.412054488963e-16   1.259632398217e-15  -6.933630915869e-02
H         0.0000000000       0.0000000000      -0.9510389799  -8.578548309558e-17  -5.760005720433e-19   6.933625462005e-02
2
Properties=species:S:1:pos:R:3:forces:R:3 energy=-7.572074474934e+01 dipole="-4.4600573845e-16 -1.2610878216e-15 -5.6558000648e-01" quadrupole="-8.0450166544e+00 3.4760958479e-15 -4.7074949082e-16 3.4760958479e-15 -8.0450166544e+00 8.7481783371e-16 -4.7074949082e-16 8.7481783371e-16 -6.1905752791e+00" polarizability="2.0649653934e+01 3.2085445412e-14 2.5801253651e-14 3.2085445412e-14 2.0649653934e+01 -1.9999623540e-14 2.5801253651e-14 -1.9999623540e-14 1.8503352150e+01" charge=-1 multiplicity=1 method=wB97M-V basis=def2-svpd config_type=oh- sample_index=346 temperature=300.0 units=atomic
O        -0.0000000000      -0.0000000000       0.1060395575  -2.991299602006e-16  -3.829329976305e-16  -1.242582538560e-02
H         0.0000000000       0.0000000000      -0.8718271210   9.622352618007e-17   5.416019354803e-17   1.242482772923e-02
2
Properties=species:S:1:pos:R:3:forces:R:3 energy=-7.572089856270e+01 dipole="-1.4757672512e-15 -1.1594226919e-15 -5.7064619603e-01" quadrupole="-8.0353597707e+00 5.5937507965e-15 -1.0723497663e-15 5.5937507965e-15 -8.0353597707e+00 2.1381546156e-15 -1.0723497663e-15 2.1381546156e-15 -6.1839091007e+00" polarizability="2.0645906422e+01 1.4388490399e-13 -3.5503667734e-15 1.4388490399e-13 2.0645906422e+01 -1.5498207585e-14 -3.5503667734e-15 -1.5498207585e-14 1.8234690075e+01" charge=-1 multiplicity=1 method=wB97M-V basis=def2-svpd config_type=oh- sample_index=347 temperature=300.0 units=atomic
O        -0.0000000000      -0.0000000000       0.1053517941  -2.000457062501e-16   4.496508405325e-16  -1.343113806027e-03
H         0.0000000000       0.0000000000      -0.8608231197   2.307806656677e-17   1.035915758083e-16   1.343892832701e-03
2
Properties=species:S:1:pos:R:3:forces:R:3 energy=-7.570419863888e+01 dipole="-1.2145566039e-15 1.5595679834e-15 -6.0972156175e-01" quadrupole="-7.9260483047e+00 -7.1377339355e-15 2.5635371653e-15 -7.1377339355e-15 -7.9260483047e+00 -2.6573864762e-15 2.5635371653e-15 -2.6573864762e-15 -6.1277650703e+00" polarizability="2.0549984660e+01 2.4391599851e-13 -8.2833758489e-15 2.4391599851e-13 2.0549984660e+01 1.2507012047e-14 -8.2833758489e-15 1.2507012047e-14 1.5767963220e+01" charge=-1 multiplicity=1 method=wB97M-V basis=def2-svpd config_type=oh- sample_index=348 temperature=300.0 units=atomic
O         0.0000000000       0.0000000000       0.0984884085   1.379870492801e-15  -4.502972343054e-16   1.763339699427e-01
H        -0.0000000000      -0.0000000000      -0.7510110757  -6.830443945293e-17  -1.032722893121e-16  -1.763368395283e-01
2
Properties=species:S:1:pos:R:3:forces:R:3 energy=-7.571901945631e+01 dipole="-1.6647708936e-15 4.5311202616e-15 -5.8771102421e-01" quadrupole="-7.9970570294e+00 3.9070168125e-15 7.4383820952e-16 3.9070168125e-15 -7.9970570294e+00 -1.6627871648e-15 7.4383820952e-16 -1.6627871648e-15 -6.1611993230e+00" polarizability="2.0623074085e+01 -2.0072832285e-13 1.4694024315e-14 -2.0072832285e-13 2.0623074085e+01 2.2330160793e-14 1.4694024315e-14 2.2330160793e-14 1.7264013497e+01" charge=-1 multiplicity=1 method=wB97M-V basis=def2-svpd config_type=oh- sample_index=349 temperature=300.0 units=atomic
O         0.0000000000       0.0000000000       0.1027756767  -4.135405521139e-16  -3.232954072870e-16   4.934622894791e-02
H        -0.0000000000      -0.0000000000      -0.8196060385   4.837888846204e-17  -2.822599649743e-17  -4.934939690609e-02
2
Properties=species:S:1:pos:R:3:forces:R:3 energy=-7.571281665938e+01 dipole="6.1877951297e-16 1.2648105153e-15 -5.1846314077e-01" quadrupole="-8.1121577965e+00 -3.1517479680e-16 -1.5596373091e-15 -3.1517479680e-16 -8.1121577965e+00 -5.9849438831e-16 -1.5596373091e-15 -5.9849438831e-16 -6.2555777475e+00" polarizability="2.0652485661e+01 -5.8841820305e-15 1.7857392560e-14 -5.8841820305e-15 2.0652485661e+01 -4.5873181281e-15 1.7857392560e-14 -4.5873181281e-15 2.0741946024e+01" charge=-1 multiplicity=1 method=wB97M-V basis=def2-svpd config_type=oh- sample_index=350 temperature=300.0 units=atomic
O        -0.0000000000      -0.0000000000       0.1114077190   5.874622474519e-16   8.113865661092e-16  -7.265746704399e-02
H         0.0000000000       0.0000000000      -0.9577160423   3.919212082324e-17  -9.912532953374e-18   7.265719226928e-02
2
Properties=species:S:1:pos:R:3:forces:R:3 energy=-7.569540012549e+01 dipole="-1.5011892587e-15 6.7147261006e-16 -6.1510452126e-01" quadrupole="-7.9019175000e+00 -6.0203087345e-16 -1.1464042986e-17 -6.0203087345e-16 -7.9019175000e+00 1.2941304765e-16 -1.1464042986e-17 1.2941304765e-16 -6.1173826177e+00" polarizability="2.0517067598e+01 1.0946799023e-13 -3.1008153281e-15 1.0946799023e-13 2.0517067598e+01 1.4094028547e-14 -3.1008153281e-15 1.4094028547e-14 1.5326460218e+01" charge=-1 multiplicity=1 method=wB97M-V basis=def2-svpd config_type=oh- sample_index=351 temperature=300.0 units=atomic
O         0.0000000000       0.0000000000       0.0971393203   3.304310070475e-16  -8.075684601802e-16   2.311085106392e-01
H        -0.0000000000      -0.0000000000      -0.7294260832   7.551032053938e-17   1.356693970340e-16  -2.311087181457e-01
2
Properties=species:S:1:pos:R:3:forces:R:3 energy=-7.572025802133e+01 dipole="1.4423042159e-15 -7.8998705960e-16 -5.5927407833e-01" quadrupole="-8.0561819256e+00 2.3501411923e-15 -1.8735460413e-15 2.3501411923e-15 -8.0561819256e+00 2.1106948572e-15 -1.8735460413e-15 2.1106948572e-15 -6.1989075134e+00" polarizability="2.0652948720e+01 -1.3278267375e-13 -4.7711705773e-15 -1.3278267375e-13 2.0652948720e+01 -2.0334108358e-14 -4.7711705773e-15 -2.0334108358e-14 1.8828007675e+01" charge=-1 multiplicity=1 method=wB97M-V basis=def2-svpd config_type=oh- sample_index=352 temperature=300.0 units=atomic
O        -0.0000000000      -0.0000000000       0.1068570635   7.661746827044e-16   4.602386123553e-16  -2.443942948738e-02
H         0.0000000000       0.0000000000      -0.8849069638  -6.470561716118e-18   6.604565500050e-17   2.443750641011e-02
2
Properties=species:S:1:pos:R:3:forces:R:3 energy=-7.571794890858e+01 dipole="2.3349569923e-15 1.4217226817e-15 -5.4303100108e-01" quadrupole="-8.0813666368e+00 -6.8836397471e-16 -2.3243996721e-15 -6.8836397471e-16 -8.0813666368e+00 -4.7588222795e-16 -2.3243996721e-15 -4.7588222795e-16 -6.2207767625e+00" polarizability="2.0656227859e+01 1.0391687510e-13 1.7337329821e-14 1.0391687510e-13 2.0656227859e+01 -5.7351093470e-16 1.7337329821e-14 -5.7351093470e-16 1.9623375333e+01" charge=-1 multiplicity=1 method=wB97M-V basis=def2-svpd config_type=oh- sample_index=353 temperature=300.0 units=atomic
O        -0.0000000000      -0.0000000000       0.1088009815   4.901657980845e-16   7.253033088936e-16  -4.852876133315e-02
H         0.0000000000       0.0000000000      -0.9160090493   2.795225507082e-17  -1.801533047010e-17   4.852987258016e-02
2
Properties=species:S:1:pos:R:3:forces:R:3 energy=-7.570866524329e+01 dipole="1.4462468055e-15 -1.8975433041e-16 -6.0589167045e-01" quadrupole="-7.9410958470e+00 6.4251519070e-16 -1.7759196535e-15 6.4251519070e-16 -7.9410958470e+00 3.9671426813e-16 -1.7759196535e-15 3.9671426813e-16 -6.1343596072e+00" polarizability="2.0568554364e+01 2.6201263381e-14 1.8469936034e-14 2.6201263381e-14 2.0568554364e+01 1.5837826968e-15 1.8469936034e-14 1.5837826968e-15 1.6058494561e+01" charge=-1 multiplicity=1 method=wB97M-V basis=def2-svpd config_type=oh- sample_index=354 temperature=300.0 units=atomic
O         0.0000000000       0.0000000000       0.0993541173  -9.369560996422e-16  -9.802977838310e-16   1.453971305984e-01
H        -0.0000000000      -0.0000000000      -0.7648621492  -4.460388860180e-18  -4.118029837205e-17  -1.453950462764e-01
2
Properties=species:S:1:pos:R:3:forces:R:3 energy=-7.572088953029e+01 dipole="-5.3853805948e-16 -3.6838673980e-16 -5.6977870072e-01" quadrupole="-8.0370605149e+00 -1.8262718200e-16 2.0303158828e-15 -1.8262718200e-16 -8.0370605149e+00 -9.0086584539e-16 2.0303158828e-15 -9.0086584539e-16 -6.1850499919e+00" polarizability="2.0646626506e+01 7.0610184366e-14 -1.0349587601e-14 7.0610184366e-14 2.0646626506e+01 3.5324882971e-14 -1.0349587601e-14 3.5324882971e-14 1.8281231460e+01" charge=-1 multiplicity=1 method=wB97M-V basis=def2-svpd config_type=oh- sample_index=355 temperature=300.0 units=atomic
O        -0.0000000000      -0.0000000000       0.1054716865   1.348033021938e-16   8.247671826468e-16  -3.342424819059e-03
H         0.0000000000       0.0000000000      -0.8627413604   6.554262725920e-17   3.343478912231e-17   3.342887877398e-03
2
Properties=species:S:1:pos:R:3:forces:R:3 energy=-7.572034222881e+01 dipole="4.2684194940e-15 -2.9408794725e-16 -5.6014670871e-01" quadrupole="-8.0546888845e+00 -1.6071218957e-15 -5.7357481864e-15 -1.6071218957e-15 -8.0546888845e+00 -1.2049802429e-15 -5.7357481864e-15 -1.2049802429e-15 -6.1977508203e+00" polarizability="2.0652573290e+01 8.0824236193e-14 7.4612661642e-14 8.0824236193e-14 2.0652573290e+01 1.8404664651e-14 7.4612661642e-14 1.8404664651e-14 1.8783675134e+01" charge=-1 multiplicity=1 method=wB97M-V basis=def2-svpd config_type=oh- sample_index=356 temperature=300.0 units=atomic
O        -0.0000000000      -0.0000000000       0.1067462857   9.747632871361e-16   8.007550453483e-16  -2.288170856342e-02
H         0.0000000000       0.0000000000      -0.8831345535   1.455449290025e-16  -3.168901715271e-17   2.287979241375e-02
2
Properties=species:S:1:pos:R:3:forces:R:3 energy=-7.572068263321e+01 dipole="1.8940153162e-15 -9.5230276160e-16 -5.7733963765e-01" quadrupole="-8.0215123411e+00 2.4777922002e-15 -4.4518061705e-15 2.4777922002e-15 -8.0215123411e+00 2.1940403127e-15 -4.4518061705e-15 2.1940403127e-15 -6.1750906309e+00" polarizability="2.0639098368e+01 9.4146912488e-14 3.3040982607e-14 9.4146912488e-14 2.0639098368e+01 -4.2321402809e-15 3.3040982607e-14 -4.2321402809e-15 1.7867329221e+01" charge=-1 multiplicity=1 method=wB97M-V basis=def2-svpd config_type=oh- sample_index=357 temperature=300.0 units=atomic
O         0.0000000000       0.0000000000       0.1043941278  -9.916438197832e-16  -1.316171553451e-15   1.570858339337e-02
H        -0.0000000000      -0.0000000000      -0.8455007551   9.552426907639e-17  -2.587029433862e-17  -1.570660377726e-02
2
Properties=species:S:1:pos:R:3:forces:R:3 energy=-7.571729878141e+01 dipole="5.7597232500e-17 -2.2856305581e-16 -5.9294300385e-01" quadrupole="-7.9829899054e+00 1.7453346505e-15 -9.1899600567e-18 1.7453346505e-15 -7.9829899054e+00 -3.3100757678e-16 -9.1899600567e-18 -3.3100757678e-16 -6.1539466407e+00" polarizability="2.0611637663e+01 2.0927704014e-13 -1.4098069834e-14 2.0927704014e-13 2.0611637663e+01 1.2134589552e-14 -1.4098069834e-14 1.2134589552e-14 1.6940056296e+01" charge=-1 multiplicity=1 method=wB97M-V basis=def2-svpd config_type=oh- sample_index=358 temperature=300.0 units=atomic
O         0.0000000000       0.0000000000       0.1018818089  -3.240227008041e-16   1.070967273091e-16   7.087278849235e-02
H        -0.0000000000      -0.0000000000      -0.8053044315   1.490226905194e-16   2.854582773700e-17  -7.087642160452e-02
2
Properties=species:S:1:pos:R:3:forces:R:3 energy=-7.571579456430e+01 dipole="6.1234463119e-15 -5.3789671524e-16 -5.9623746737e-01" quadrupole="-7.9733968201e+00 2.6411017045e-15 -4.5781153887e-15 2.6411017045e-15 -7.9733968201e+00 1.0567232687e-15 -4.5781153887e-15 1.0567232687e-15 -6.1492351709e+00" polarizability="2.0602943239e+01 3.5194069881e-14 3.7944197422e-14 3.5194069881e-14 2.0602943239e+01 -2.2318907097e-14 3.7944197422e-14 -2.2318907097e-14 1.6727761971e+01" charge=-1 multiplicity=1 method=wB97M-V basis=def2-svpd config_type=oh- sample_index=359 temperature=300.0 units=atomic
O         0.0000000000       0.0000000000       0.1012861443  -6.640094106783e-16  -1.100737872250e-15   8.652174937570e-02
H        -0.0000000000      -0.0000000000      -0.7957739825   1.228885997191e-16   5.365711659951e-18  -8.652306244541e-02
2
Properties=species:S:1:pos:R:3:forces:R:3 energy=-7.571420928261e+01 dipole="1.8072512579e-15 -1.8225728751e-15 -5.2457740098e-01" quadrupole="-8.1051590744e+00 -1.6432483901e-15 -2.0309449747e-15 -1.6432483901e-15 -8.1051590744e+00 1.1504740955e-15 -2.0309449747e-15 1.1504740955e-15 -6.2466858197e+00" polarizability="2.0653981117e+01 1.4699352846e-13 1.2205326240e-14 1.4699352846e-13 2.0653981117e+01 -2.2202406257e-14 1.2205326240e-14 -2.2202406257e-14 2.0471520049e+01" charge=-1 multiplicity=1 method=wB97M-V basis=def2-svpd config_type=oh- sample_index=360 temperature=300.0 units=atomic
O        -0.0000000000      -0.0000000000       0.1107902135   2.117012569619e-16   1.698087584249e-16  -6.767504585190e-02
H         0.0000000000       0.0000000000      -0.9478361450  -3.916946655509e-17  -4.212894901914e-17   6.767516655708e-02
2
Properties=species:S:1:pos:R:3:forces:R:3 energy=-7.569623410822e+01 dipole="-1.0798297229e-15 5.4989840335e-16 -6.1467833957e-01" quadrupole="-7.9039798814e+00 -4.8518710389e-15 -8.4428359931e-16 -4.8518710389e-15 -7.9039798814e+00 2.4331364012e-16 -8.4428359931e-16 2.4331364012e-16 -6.1182658097e+00" polarizability="2.0520027060e+01 2.5646151869e-13 -1.4085040630e-14 2.5646151869e-13 2.0520027060e+01 1.4221583542e-15 -1.4085040630e-14 1.4221583542e-15 1.5363097662e+01" charge=-1 multiplicity=1 method=wB97M-V basis=def2-svpd config_type=oh- sample_index=361 temperature=300.0 units=atomic
O         0.0000000000       0.0000000000       0.0972528682   1.016851672626e-15   8.194490144771e-16   2.261651486104e-01
H        -0.0000000000      -0.0000000000      -0.7312428144   4.912425522612e-18   1.340294783101e-18  -2.261662651078e-01
2
Properties=species:S:1:pos:R:3:forces:R:3 energy=-7.571629782872e+01 dipole="2.7986825427e-15 1.2132612261e-15 -5.9522244117e-01" quadrupole="-7.9764188717e+00 6.7317308160e-15 -1.5292785999e-15 6.7317308160e-15 -7.9764188717e+00 -3.0659942314e-16 -1.5292785999e-15 -3.0659942314e-16 -6.1507013044e+00" polarizability="2.0605759368e+01 -2.6623148131e-13 1.3980529899e-14 -2.6623148131e-13 2.0605759368e+01 9.9176051409e-15 1.3980529899e-14 9.9176051409e-15 1.6793919238e+01" charge=-1 multiplicity=1 method=wB97M-V basis=def2-svpd config_type=oh- sample_index=362 temperature=300.0 units=atomic
O         0.0000000000       0.0000000000       0.1014726298  -8.805236533529e-16  -9.538452775573e-16   8.150505516821e-02
H        -0.0000000000      -0.0000000000      -0.7987576918  -6.991929019261e-17   1.704610227492e-16  -8.150726944583e-02
2
Properties=species:S:1:pos:R:3:forces:R:3 energy=-7.572030691980e+01 dipole="6.2115476553e-16 8.6060727323e-16 -5.5977447132e-01" quadrupole="-8.0553277264e+00 -3.1702314913e-15 -9.8879481911e-16 -3.1702314913e-15 -8.0553277264e+00 -2.2885345512e-15 -9.8879481911e-16 -2.2885345512e-15 -6.1982440605e+00" polarizability="2.0652736391e+01 -7.3274719625e-14 -5.5036340523e-15 -7.3274719625e-14 2.0652736391e+01 2.1132728979e-15 -5.5036340523e-15 2.1132728979e-15 1.8802608387e+01" charge=-1 multiplicity=1 method=wB97M-V basis=def2-svpd config_type=oh- sample_index=363 temperature=300.0 units=atomic
O        -0.0000000000      -0.0000000000       0.1067936286  -1.154774552721e-15   6.901390609837e-16  -2.355004950081e-02
H         0.0000000000       0.0000000000      -0.8838920247   1.069238015370e-17   6.815592406137e-17   2.354812566779e-02
2
Properties=species:S:1:pos:R:3:forces:R:3 energy=-7.571831870048e+01 dipole="1.1157063339e-15 -1.5436629879e-15 -5.4516644977e-01" quadrupole="-8.0783111539e+00 -6.6286066217e-16 7.8511046633e-16 -6.6286066217e-16 -8.0783111539e+00 4.0914304926e-16 7.8511046633e-16 4.0914304926e-16 -6.2178579912e+00" polarizability="2.0656139409e+01 -4.0856207306e-14 1.5689514217e-14 -4.0856207306e-14 2.0656139409e+01 -2.5027313587e-14 1.5689514217e-14 -2.5027313587e-14 1.9521740488e+01" charge=-1 multiplicity=1 method=wB97M-V basis=def2-svpd config_type=oh- sample_index=364 temperature=300.0 units=atomic
O        -0.0000000000      -0.0000000000       0.1085570141   8.130803163970e-16   3.095167769074e-16  -4.582088588633e-02
H         0.0000000000       0.0000000000      -0.9121056471  -4.297886951441e-17   1.832136876170e-17   4.582167396026e-02
2
Properties=species:S:1:pos:R:3:forces:R:3 energy=-7.571736637431e+01 dipole="1.2592010598e-15 -1.4244521007e-15 -5.3983490110e-01" quadrupole="-8.0858123459e+00 -5.5893152013e-16 -2.2375567129e-15 -5.5893152013e-16 -8.0858123459e+00 1.0790358953e-15 -2.2375567129e-15 1.0790358953e-15 -6.2251739961e+00" polarizability="2.0656203834e+01 3.3217872897e-13 2.1850434698e-14 3.3217872897e-13 2.0656203834e+01 -8.0358141504e-15 2.1850434698e-14 -8.0358141504e-15 1.9774024221e+01" charge=-1 multiplicity=1 method=wB97M-V basis=def2-svpd config_type=oh- sample_index=365 temperature=300.0 units=atomic
O        -0.0000000000      -0.0000000000       0.1091603234  -7.352611336693e-16   1.502579407911e-16  -5.236573951440e-02
H         0.0000000000       0.0000000000      -0.9217584087  -2.729072445635e-18  -2.835424380844e-17   5.236709800643e-02
2
Properties=species:S:1:pos:R:3:forces:R:3 energy=-7.572083211572e+01 dipole="-1.4391305515e-16 -1.7855114935e-15 -5.7471403511e-01" quadrupole="-8.0271038614e+00 -5.0167532669e-16 -1.2820599023e-15 -5.0167532669e-16 -8.0271038614e+00 1.4083440149e-15 -1.2820599023e-15 1.4083440149e-15 -6.1785554449e+00" polarizability="2.0642048936e+01 -1.1723955140e-13 1.4253102937e-14 -1.1723955140e-13 2.0642048936e+01 -1.5572582233e-14 1.4253102937e-14 -1.5572582233e-14 1.8013249977e+01" charge=-1 multiplicity=1 method=wB97M-V basis=def2-svpd config_type=oh- sample_index=366 temperature=300.0 units=atomic
O         0.0000000000       0.0000000000       0.1047769630   5.111323980930e-17  -2.152008143870e-16   8.655639240760e-03
H        -0.0000000000      -0.0000000000      -0.8516259999   1.064269869604e-16   1.353467091724e-17  -8.653740896769e-03
2
Properties=species:S:1:pos:R:3:forces:R:3 energy=-7.571923920894e+01 dipole="2.2309428256e-16 7.5804199795e-16 -5.5101108282e-01" quadrupole="-8.0695742023e+00 1.6038976530e-15 7.6001783484e-16 1.6038976530e-15 -8.0695742023e+00 -2.4806384130e-15 7.6001783484e-16 -2.4806384130e-15 -6.2099423404e+00" polarizability="2.0655413297e+01 -3.1863400807e-14 2.4138817046e-14 -3.1863400807e-14 2.0655413297e+01 2.0927237855e-14 2.4138817046e-14 2.0927237855e-14 1.9239271981e+01" charge=-1 multiplicity=1 method=wB97M-V basis=def2-svpd config_type=oh- sample_index=367 temperature=300.0 units=atomic
O        -0.0000000000      -0.0000000000       0.1078722846   1.251679041589e-15  -9.495020865922e-16  -3.775523878494e-02
H         0.0000000000       0.0000000000      -0.9011501878  -3.420042937293e-17  -2.155232484365e-17   3.775469067419e-02
2
Properties=species:S:1:pos:R:3:forces:R:3 energy=-7.571862788318e+01 dipole="1.7082207719e-17 7.1573971577e-16 -5.4703231244e-01" quadrupole="-8.0755829957e+00 1.6719896256e-15 1.0896550150e-15 1.6719896256e-15 -8.0755829957e+00 8.5899186645e-16 1.0896550150e-15 8.5899186645e-16 -6.2153197165e+00" polarizability="2.0655987858e+01 6.0618177145e-14 4.4093095470e-15 6.0618177145e-14 2.0655987858e+01 9.0728078497e-15 4.4093095470e-15 9.0728078497e-15 1.9432265045e+01" charge=-1 multiplicity=1 method=wB97M-V basis=def2-svpd config_type=oh- sample_index=368 temperature=300.0 units=atomic
O        -0.0000000000      -0.0000000000       0.1083411912   6.464683030186e-16   4.943351230953e-16  -4.335397943258e-02
H         0.0000000000       0.0000000000      -0.9086525482   9.439683007075e-18   6.728155771489e-18   4.335439519365e-02
2
Properties=species:S:1:pos:R:3:forces:R:3 energy=-7.571759868289e+01 dipole="1.2492024291e-15 -1.2284960397e-16 -5.9217532369e-01" quadrupole="-7.9851391936e+00 -9.8782029704e-16 4.3361982403e-15 -9.8782029704e-16 -7.9851391936e+00 -7.6630049785e-16 4.3361982403e-15 -7.6630049785e-16 -6.1550264745e+00" polarizability="2.0613486911e+01 6.8473005044e-14 -3.9975861814e-14 6.8473005044e-14 2.0613486911e+01 1.6478119332e-14 -3.9975861814e-14 1.6478119332e-14 1.6988553535e+01" charge=-1 multiplicity=1 method=wB97M-V basis=def2-svpd config_type=oh- sample_index=369 temperature=300.0 units=atomic
O         0.0000000000       0.0000000000       0.1020167712   2.246726345664e-15   3.111394392980e-17   6.747600500184e-02
H        -0.0000000000      -0.0000000000      -0.8074637865  -3.541000361159e-16  -2.515099578461e-17  -6.747988988858e-02
2
Properties=species:S:1:pos:R:3:forces:R:3 energy=-7.572028140649e+01 dipole="-6.8262223783e-15 2.6208100367e-15 -5.8122343632e-01" quadrupole="-8.0128252979e+00 -1.2379068332e-15 -8.1647057666e-16 -1.2379068332e-15 -8.0128252979e+00 -4.9129541455e-16 -8.1647057666e-16 -4.9129541455e-16 -6.1699380785e+00" polarizability="2.0633981061e+01 -1.5965007094e-13 -7.6569725095e-15 -1.5965007094e-13 2.0633981061e+01 2.7995864032e-15 -7.6569725095e-15 2.7995864032e-15 1.7646750032e+01" charge=-1 multiplicity=1 method=wB97M-V basis=def2-svpd config_type=oh- sample_index=370 temperature=300.0 units=atomic
O         0.0000000000       0.0000000000       0.1038091611   7.717661735639e-16  -1.013270512960e-15   2.712791863527e-02
H        -0.0000000000      -0.0000000000      -0.8361414700   3.878693584866e-17   2.896682413621e-17  -2.712713457915e-02
2
Properties=species:S:1:pos:R:3:forces:R:3 energy=-7.572025940243e+01 dipole="1.1656836676e-16 1.7951749497e-15 -5.5928798699e-01" quadrupole="-8.0561582533e+00 -1.9361878667e-15 -8.6419484412e-16 -1.9361878667e-15 -8.0561582533e+00 -8.7374148378e-16 -8.6419484412e-16 -8.7374148378e-16 -6.1988890662e+00" polarizability="2.0652942924e+01 -1.6237011735e-15 3.7851076884e-14 -1.6237011735e-15 2.0652942924e+01 1.6902970282e-14 3.7851076884e-14 1.6902970282e-14 1.8827302497e+01" charge=-1 multiplicity=1 method=wB97M-V basis=def2-svpd config_type=oh- sample_index=371 temperature=300.0 units=atomic
O        -0.0000000000      -0.0000000000       0.1068553035  -1.090893495990e-15  -1.220200772426e-16  -2.441484791206e-02
H         0.0000000000       0.0000000000      -0.8848788042   2.797073423226e-17   3.989802136087e-17   2.441292464428e-02
2
Properties=species:S:1:pos:R:3:forces:R:3 energy=-7.571823066061e+01 dipole="-1.9181611858e-15 3.8448074317e-16 -5.9038794559e-01" quadrupole="-7.9900261669e+00 -4.7611562906e-16 1.7199216070e-15 -4.7611562906e-16 -7.9900261669e+00 -4.5470652501e-16 1.7199216070e-15 -4.5470652501e-16 -6.1575181962e+00" polarizability="2.0617555581e+01 7.1609385088e-14 -1.5350783831e-14 7.1609385088e-14 2.0617555581e+01 2.1167621470e-15 -1.5350783831e-14 2.1167621470e-15 1.7100144972e+01" charge=-1 multiplicity=1 method=wB97M-V basis=def2-svpd config_type=oh- sample_index=372 temperature=300.0 units=atomic
O         0.0000000000       0.0000000000       0.1023257710   6.327177620626e-16  -1.397675225934e-15   5.989847284122e-02
H        -0.0000000000      -0.0000000000      -0.8124076882   9.445226777637e-17   6.023287284638e-17  -5.990248635132e-02
2
Properties=species:S:1:pos:R:3:forces:R:3 energy=-7.571057915953e+01 dipole="-2.2535454003e-16 8.1578399805e-16 -6.0387158932e-01" quadrupole="-7.9484589213e+00 1.2085820118e-15 1.1517734501e-15 1.2085820118e-15 -7.9484589213e+00 1.5244574397e-16 1.1517734501e-15 1.5244574397e-16 -6.1376467848e+00" polarizability="2.0577066199e+01 1.5176748747e-13 -5.0220273651e-15 1.5176748747e-13 2.0577066199e+01 -1.3059238327e-14 -5.0220273651e-15 -1.3059238327e-14 1.6205320674e+01" charge=-1 multiplicity=1 method=wB97M-V basis=def2-svpd config_type=oh- sample_index=373 temperature=300.0 units=atomic
O         0.0000000000       0.0000000000       0.0997852505  -1.090434450429e-16  -9.107231657748e-16   1.311002448871e-01
H        -0.0000000000      -0.0000000000      -0.7717601457   4.329377687782e-17   7.072640811564e-17  -1.310966642915e-01
2
Properties=species:S:1:pos:R:3:forces:R:3 energy=-7.571647773963e+01 dipole="-2.0805609920e-16 1.6607263565e-16 -5.3525447368e-01" quadrupole="-8.0919316840e+00 -1.1083257497e-15 1.8046285627e-16 -1.1083257497e-15 -8.0919316840e+00 -1.6658224129e-15 1.8046285627e-16 -1.6658224129e-15 -6.2315389434e+00" polarizability="2.0655871362e+01 -2.0783375021e-13 3.1319694269e-15 -2.0783375021e-13 2.0655871362e+01 1.1441526645e-14 3.1319694269e-15 1.1441526645e-14 1.9987020904e+01" charge=-1 multiplicity=1 method=wB97M-V basis=def2-svpd config_type=oh- sample_index=374 temperature=300.0 units=atomic
O        -0.0000000000      -0.0000000000       0.1096638438   3.267635456850e-16  -1.146125534663e-15  -5.745041061188e-02
H         0.0000000000       0.0000000000      -0.9298145790  -8.620099820185e-18   1.239342560516e-16   5.745167502236e-02
2
Properties=species:S:1:pos:R:3:forces:R:3 energy=-7.571945046875e+01 dipole="-5.2697528343e-15 -1.6467484633e-15 -5.5250668458e-01" quadrupole="-8.0672449409e+00 -2.3044668422e-15 1.9023125234e-15 -2.3044668422e-15 -8.0672449409e+00 5.5792885847e-16 1.9023125234e-15 5.5792885847e-16 -6.2079326232e+00" polarizability="2.0655101782e+01 8.4598994476e-14 -7.2506141887e-15 8.4598994476e-14 2.0655101782e+01 5.9102556447e-15 -7.2506141887e-15 5.9102556447e-15 1.9165917493e+01" charge=-1 multiplicity=1 method=wB97M-V basis=def2-svpd config_type=oh- sample_index=375 temperature=300.0 units=atomic
O        -0.0000000000      -0.0000000000       0.1076928221   1.221317795597e-15  -3.607396753590e-16  -3.552305731120e-02
H         0.0000000000       0.0000000000      -0.8982788432  -4.215366174816e-17  -3.747148096385e-17   3.552213934552e-02
2
Properties=species:S:1:pos:R:3:forces:R:3 energy=-7.571634225054e+01 dipole="3.1515546003e-15 -2.4775309448e-17 -5.9512910220e-01" quadrupole="-7.9766937163e+00 -3.3843628684e-15 -7.5230236719e-16 -3.3843628684e-15 -7.9766937163e+00 2.1037734009e-15 -7.5230236719e-16 2.1037734009e-15 -6.1508354376e+00" polarizability="2.0606011979e+01 2.1671553441e-13 1.0605788818e-14 2.1671553441e-13 2.0606011979e+01 -7.0396812160e-15 1.0605788818e-14 -7.0396812160e-15 1.6799968423e+01" charge=-1 multiplicity=1 method=wB97M-V basis=def2-svpd config_type=oh- sample_index=376 temperature=300.0 units=atomic
O         0.0000000000       0.0000000000       0.1014896423  -1.128596153539e-15  -9.106245212023e-16   8.105279996026e-02
H        -0.0000000000      -0.0000000000      -0.7990298871  -1.148878572356e-16   6.341534483241e-17  -8.105509006916e-02
2
Properties=species:S:1:pos:R:3:forces:R:3 energy=-7.571834739504e+01 dipole="5.6230028797e-16 -2.7639119208e-16 -5.9002770861e-01" quadrupole="-7.9909919457e+00 2.0966182565e-15 1.6032545532e-16 2.0966182565e-15 -7.9909919457e+00 2.9613757792e-15 1.6032545532e-16 2.9613757792e-15 -6.1580168903e+00" polarizability="2.0618337144e+01 1.2123635429e-13 -8.9158360083e-15 1.2123635429e-13 2.0618337144e+01 -1.4126139810e-14 -8.9158360083e-15 -1.4126139810e-14 1.7122419014e+01" charge=-1 multiplicity=1 method=wB97M-V basis=def2-svpd config_type=oh- sample_index=377 temperature=300.0 units=atomic
O         0.0000000000       0.0000000000       0.1023871925   1.718295949469e-17  -2.524612884815e-17   5.842473378132e-02
H        -0.0000000000      -0.0000000000      -0.8133904123  -2.429946700957e-17  -5.321771567867e-17  -5.842869958068e-02
2
Properties=species:S:1:pos:R:3:forces:R:3 energy=-7.572066630554e+01 dipole="1.3662629157e-15 -5.1356151364e-16 -5.7755441186e-01" quadrupole="-8.0210452575e+00 -6.2708320853e-16 -1.6218858642e-15 -6.2708320853e-16 -8.0210452575e+00 1.3799452070e-15 -1.6218858642e-15 1.3799452070e-15 -6.1748066776e+00" polarizability="2.0638839654e+01 1.3677947663e-13 -9.7293746148e-15 1.3677947663e-13 2.0638839654e+01 -1.2133845645e-14 -9.7293746148e-15 -1.2133845645e-14 1.7855282550e+01" charge=-1 multiplicity=1 method=wB97M-V basis=def2-svpd config_type=oh- sample_index=378 temperature=300.0 units=atomic
O         0.0000000000       0.0000000000       0.1043623764   5.729864403196e-16  -1.170801114285e-15   1.630818012326e-02
H        -0.0000000000      -0.0000000000      -0.8449927424  -2.646322696268e-17  -1.223726164183e-17  -1.630622449922e-02
2
Properties=species:S:1:pos:R:3:forces:R:3 energy=-7.571370224821e+01 dipole="-2.6332447447e-15 1.8231302701e-16 -5.9980555013e-01" quadrupole="-7.9622586531e+00 -1.4100158202e-15 4.8010749055e-16 -1.4100158202e-15 -7.9622586531e+00 -7.1660113234e-16 4.8010749055e-16 -7.1660113234e-16 -6.1439576827e+00" polarizability="2.0591960386e+01 2.5812685323e-13 -1.7670021673e-14 2.5812685323e-13 2.0591960386e+01 -8.0571717620e-15 -1.7670021673e-14 -8.0571717620e-15 1.6489400516e+01" charge=-1 multiplicity=1 method=wB97M-V basis=def2-svpd config_type=oh- sample_index=379 temperature=300.0 units=atomic
O         0.0000000000       0.0000000000       0.1006076688   8.568252931124e-16  -7.494011721346e-18   1.057187901257e-01
H        -0.0000000000      -0.0000000000      -0.7849185849  -1.845488939226e-16  -1.875672587744e-16  -1.057165679348e-01
2
Properties=species:S:1:pos:R:3:forces:R:3 energy=-7.571652418213e+01 dipole="2.6803716454e-15 5.6944912824e-16 -5.3548670454e-01" quadrupole="-8.0916282551e+00 -3.2863948792e-15 -1.9667497117e-15 -3.2863948792e-15 -8.0916282551e+00 -3.2623857550e-16 -1.9667497117e-15 -3.2623857550e-16 -6.2312143838e+00" polarizability="2.0655895977e+01 1.7141843500e-13 3.0699957532e-15 1.7141843500e-13 2.0655895977e+01 -5.4689425387e-15 3.0699957532e-15 -5.4689425387e-15 1.9976300615e+01" charge=-1 multiplicity=1 method=wB97M-V basis=def2-svpd config_type=oh- sample_index=380 temperature=300.0 units=atomic
O        -0.0000000000      -0.0000000000       0.1096386261   8.884451014043e-16   1.663966958498e-16  -5.720361876750e-02
H         0.0000000000       0.0000000000      -0.9294111035  -3.455889408456e-17  -2.285581911259e-18   5.720489848627e-02
2
Properties=species:S:1:pos:R:3:forces:R:3 energy=-7.571327950463e+01 dipole="-2.9539047574e-17 2.9374449581e-16 -5.2047337259e-01" quadrupole="-8.1098965659e+00 1.8694484806e-15 -1.4510767031e-15 1.8694484806e-15 -8.1098965659e+00 2.8347738952e-16 -1.4510767031e-15 2.8347738952e-16 -6.2526295309e+00" polarizability="2.0652923075e+01 -8.0824236193e-14 -1.0927412137e-15 -8.0824236193e-14 2.0652923075e+01 -1.1528129676e-14 -1.0927412137e-15 -1.1528129676e-14 2.0653715908e+01" charge=-1 multiplicity=1 method=wB97M-V basis=def2-svpd config_type=oh- sample_index=381 temperature=300.0 units=atomic
O        -0.0000000000      -0.0000000000       0.1112072679   1.621675956131e-16   1.981562578473e-16  -7.108584477146e-02
H         0.0000000000       0.0000000000      -0.9545088869   6.285476332189e-17  -9.403167230863e-18   7.108564843549e-02
2
Properties=species:S:1:pos:R:3:forces:R:3 energy=-7.571802946005e+01 dipole="-1.8955294210e-15 -2.9735679868e-17 -5.4348825908e-01" quadrupole="-8.0807182482e+00 -2.5436345277e-15 2.6413274015e-15 -2.5436345277e-15 -8.0807182482e+00 -3.2187324698e-17 2.6413274015e-15 -3.2187324698e-17 -6.2201505084e+00" polarizability="2.0656216276e+01 -7.6987027864e-15 -8.8998524475e-15 -7.6987027864e-15 2.0656216276e+01 -2.2054975317e-14 -8.8998524475e-15 -2.2054975317e-14 1.9601680076e+01" charge=-1 multiplicity=1 method=wB97M-V basis=def2-svpd config_type=oh- sample_index=382 temperature=300.0 units=atomic
O        -0.0000000000      -0.0000000000       0.1087490084  -1.757059901376e-15  -1.024584022950e-15  -4.795897118538e-02
H         0.0000000000       0.0000000000      -0.9151774971   6.370749709540e-18  -1.008627136599e-18   4.796002341909e-02
2
Properties=species:S:1:pos:R:3:forces:R:3 energy=-7.572083304335e+01 dipole="-2.6261367851e-16 -1.0785289205e-16 -5.7469078021e-01" quadrupole="-8.0271524313e+00 1.2920047075e-15 -7.7589791535e-16 1.2920047075e-15 -8.0271524313e+00 -6.3190169604e-16 -7.7589791535e-16 -6.3190169604e-16 -6.1785860882e+00" polarizability="2.0642073375e+01 6.3976601794e-15 7.7398111761e-15 6.3976601794e-15 2.0642073375e+01 -6.2588561884e-15 7.7398111761e-15 -6.2588561884e-15 1.8014531534e+01" charge=-1 multiplicity=1 method=wB97M-V basis=def2-svpd config_type=oh- sample_index=383 temperature=300.0 units=atomic
O         0.0000000000       0.0000000000       0.1047803109   1.204741809642e-15   1.551966136011e-16   8.595377996611e-03
H        -0.0000000000      -0.0000000000      -0.8516795653   1.596154433981e-16   8.786254639941e-17  -8.593483181233e-03
2
Properties=species:S:1:pos:R:3:forces:R:3 energy=-7.571845054083e+01 dipole="-1.0541236920e-15 -5.8976820573e-15 -5.4595217788e-01" quadrupole="-8.0771690669e+00 4.2401171756e-15 -3.0986107382e-16 4.2401171756e-15 -8.0771690669e+00 1.1779300948e-15 -3.0986107382e-16 1.1779300948e-15 -6.2167877668e+00" polarizability="2.0656084290e+01 -2.5833502004e-14 -1.7015792123e-14 -2.5833502004e-14 2.0656084290e+01 -9.6911314019e-15 -1.7015792123e-14 -9.6911314019e-15 1.9484139398e+01" charge=-1 multiplicity=1 method=wB97M-V basis=def2-svpd config_type=oh- sample_index=384 temperature=300.0 units=atomic
O        -0.0000000000      -0.0000000000       0.1084664367  -1.043357502781e-16   9.379813330096e-16  -4.479382838464e-02
H         0.0000000000       0.0000000000      -0.9106564367  -1.169442076407e-16  -4.612804703216e-17   4.479446883426e-02
2
Properties=species:S:1:pos:R:3:forces:R:3 energy=-7.571993728771e+01 dipole="2.7704036368e-15 6.1302038804e-16 -5.5631818594e-01" quadrupole="-8.0611234316e+00 1.0012262944e-15 -2.6627082675e-15 1.0012262944e-15 -8.0611234316e+00 2.1161391284e-15 -2.6627082675e-15 2.1161391284e-15 -6.2028367675e+00" polarizability="2.0654047599e+01 1.4477308241e-13 1.4974380030e-14 1.4477308241e-13 2.0654047599e+01 -1.3489164508e-14 1.4974380030e-14 -1.3489164508e-14 1.8976852153e+01" charge=-1 multiplicity=1 method=wB97M-V basis=def2-svpd config_type=oh- sample_index=385 temperature=300.0 units=atomic
O        -0.0000000000      -0.0000000000       0.1072270612   1.298385240757e-16   4.376170027351e-16  -2.948935981137e-02
H         0.0000000000       0.0000000000      -0.8908268127   3.815509547705e-17   2.196564172754e-17   2.948767977881e-02
2
Properties=species:S:1:pos:R:3:forces:R:3 energy=-7.571732585863e+01 dipole="-2.1655357039e-16 7.2312136393e-16 -5.3961904068e-01" quadrupole="-8.0861072522e+00 -1.4885468982e-15 -6.9118210575e-16 -1.4885468982e-15 -8.0861072522e+00 -7.2363219240e-16 -6.9118210575e-16 -7.2363219240e-16 -6.2254722568e+00" polarizability="2.0656195730e+01 -1.6120438318e-13 2.8316920337e-15 -1.6120438318e-13 2.0656195730e+01 1.4544014798e-14 2.8316920337e-15 1.4544014798e-14 1.9784137278e+01" charge=-1 multiplicity=1 method=wB97M-V basis=def2-svpd config_type=oh- sample_index=386 temperature=300.0 units=atomic
O        -0.0000000000      -0.0000000000       0.1091843498  -2.031678661481e-16   5.066024717615e-16  -5.261599563908e-02
H         0.0000000000       0.0000000000      -0.9221428233  -2.378008240224e-17  -1.880404112624e-17   5.261736092906e-02
2
Properties=species:S:1:pos:R:3:forces:R:3 energy=-7.571937104155e+01 dipole="-3.8229870594e-16 -3.2910306740e-16 -5.5193538396e-01" quadrupole="-8.0681393883e+00 6.7315701262e-16 3.3837813680e-16 6.7315701262e-16 -8.0681393883e+00 -6.1014927229e-16 3.3837813680e-16 -6.1014927229e-16 -6.2086995975e+00" polarizability="2.0655227259e+01 1.3322676296e-13 -1.7988074274e-14 1.3322676296e-13 2.0655227259e+01 5.2618331795e-16 -1.7988074274e-14 5.2618331795e-16 1.9193991807e+01" charge=-1 multiplicity=1 method=wB97M-V basis=def2-svpd config_type=oh- sample_index=387 temperature=300.0 units=atomic
O        -0.0000000000      -0.0000000000       0.1077615876   8.635300367233e-16   4.133706081788e-16  -3.638434597799e-02
H         0.0000000000       0.0000000000      -0.8993790697   6.699735217551e-18   3.029440564912e-17   3.638356713162e-02
2
Properties=species:S:1:pos:R:3:forces:R:3 energy=-7.571712144988e+01 dipole="-9.7033486797e-16 -4.8602225849e-17 -5.3854116975e-01" quadrupole="-8.0875699906e+00 1.6449724965e-15 1.4077437190e-16 1.6449724965e-15 -8.0875699906e+00 -2.2704903457e-15 1.4077437190e-16 -2.2704903457e-15 -6.2269640590e+00" polarizability="2.0656143675e+01 -2.0117241206e-13 1.7595203716e-14 -2.0117241206e-13 2.0656143675e+01 -1.4959845047e-14 1.7595203716e-14 -1.4959845047e-14 1.9834522108e+01" charge=-1 multiplicity=1 method=wB97M-V basis=def2-svpd config_type=oh- sample_index=388 temperature=300.0 units=atomic
O        -0.0000000000      -0.0000000000       0.1093038744   4.380737293618e-16  -9.767129127822e-17  -5.384943878817e-02
H         0.0000000000       0.0000000000      -0.9240551800   2.815896914421e-17   3.250856731167e-17   5.385081994275e-02
2
Properties=species:S:1:pos:R:3:forces:R:3 energy=-7.572027122583e+01 dipole="1.4347678996e-15 1.8034649877e-15 -5.8129910401e-01" quadrupole="-8.0126508050e+00 -2.9436681279e-18 1.4524317494e-15 -2.9436681279e-18 -8.0126508050e+00 -2.5825035475e-15 1.4524317494e-15 -2.5825035475e-15 -6.1698372471e+00" polarizability="2.0633871698e+01 -5.9285909515e-14 -1.2968758070e-14 -5.9285909515e-14 2.0633871698e+01 1.8176086061e-14 -1.2968758070e-14 1.8176086061e-14 1.7642392904e+01" charge=-1 multiplicity=1 method=wB97M-V basis=def2-svpd config_type=oh- sample_index=389 temperature=300.0 units=atomic
O         0.0000000000       0.0000000000       0.1037975291   7.277534898679e-16  -1.341603525163e-15   2.736315173681e-02
H        -0.0000000000      -0.0000000000      -0.8359553607  -2.432891859987e-17   2.173341226967e-17  -2.736240596914e-02
2
Properties=species:S:1:pos:R:3:forces:R:3 energy=-7.571773928886e+01 dipole="-1.6066571009e-15 -1.0907349283e-15 -5.9179898990e-01" quadrupole="-7.9861815856e+00 -1.6963205667e-15 2.3182740703e-15 -1.6963205667e-15 -7.9861815856e+00 -2.4343948455e-15 2.3182740703e-15 -2.4343948455e-15 -6.1555536339e+00" polarizability="2.0614370655e+01 1.8041124150e-13 -2.9398725888e-14 1.8041124150e-13 2.0614370655e+01 1.4903203454e-14 -2.9398725888e-14 1.4903203454e-14 1.7012201030e+01" charge=-1 multiplicity=1 method=wB97M-V basis=def2-svpd config_type=oh- sample_index=390 temperature=300.0 units=atomic
O         0.0000000000       0.0000000000       0.1020824312  -3.831871751460e-16   1.021197634147e-16   6.584277288043e-02
H        -0.0000000000      -0.0000000000      -0.8085143265  -2.959788582487e-17  -7.403562296139e-17  -6.584673746447e-02
2
Properties=species:S:1:pos:R:3:forces:R:3 energy=-7.571996287295e+01 dipole="-2.9238760221e-16 2.2091562469e-15 -5.5653744609e-01" quadrupole="-8.0607628729e+00 -1.7306226781e-15 1.3724832675e-15 -1.7306226781e-15 -8.0607628729e+00 -3.4354653165e-15 1.3724832675e-15 -3.4354653165e-15 -6.2025446708e+00" polarizability="2.0653974895e+01 6.0174087935e-14 9.9448011424e-15 6.0174087935e-14 2.0653974895e+01 3.5043384896e-15 9.9448011424e-15 3.5043384896e-15 1.8965879735e+01" charge=-1 multiplicity=1 method=wB97M-V basis=def2-svpd config_type=oh- sample_index=391 temperature=300.0 units=atomic
O        -0.0000000000      -0.0000000000       0.1071998868  -9.818551632723e-16  -8.329321483993e-16  -2.912634383070e-02
H         0.0000000000       0.0000000000      -0.8903920307  -2.012051698975e-17  -3.228244178498e-17   2.912463309586e-02
2
Properties=species:S:1:pos:R:3:forces:R:3 energy=-7.572071812059e+01 dipole="1.6815220278e-16 2.4565880987e-15 -5.6509629096e-01" quadrupole="-8.0459052177e+00 3.0823152906e-15 -1.1345475940e-15 3.0823152906e-15 -8.0459052177e+00 -5.0234449708e-15 -1.1345475940e-15 -5.0234449708e-15 -6.1912126036e+00" polarizability="2.0649957006e+01 -1.0036416143e-13 -1.0224684868e-16 -1.0036416143e-13 2.0649957006e+01 3.4995089903e-14 -1.0224684868e-16 3.4995089903e-14 1.8528622148e+01" charge=-1 multiplicity=1 method=wB97M-V basis=def2-svpd config_type=oh- sample_index=392 temperature=300.0 units=atomic
O        -0.0000000000      -0.0000000000       0.1061037160   4.716070882522e-16   5.780807342256e-16  -1.341300734078e-02
H         0.0000000000       0.0000000000      -0.8728536366   8.126235055668e-17  -2.918388917893e-17   1.341187155890e-02
2
Properties=species:S:1:pos:R:3:forces:R:3 energy=-7.571955077985e+01 dipole="1.5279858927e-15 1.1439761927e-15 -5.5324544499e-01" quadrupole="-8.0660795710e+00 4.4331332894e-16 -5.0679543127e-16 4.4331332894e-16 -8.0660795710e+00 -1.7631539178e-15 -5.0679543127e-16 -1.7631539178e-15 -6.2069421053e+00" polarizability="2.0654927359e+01 -5.4622972812e-14 1.3190632886e-14 -5.4622972812e-14 2.0654927359e+01 1.6517542597e-14 1.3190632886e-14 1.6517542597e-14 1.9129513910e+01" charge=-1 multiplicity=1 method=wB97M-V basis=def2-svpd config_type=oh- sample_index=393 temperature=300.0 units=atomic
O        -0.0000000000      -0.0000000000       0.1076035038   1.080180858957e-15   2.286874431257e-15  -3.439315420616e-02
H         0.0000000000       0.0000000000      -0.8968497768   5.161316634397e-17  -1.586473000671e-17   3.439206269006e-02
2
Properties=species:S:1:pos:R:3:forces:R:3 energy=-7.571954941494e+01 dipole="-6.1357237890e-15 -8.2725594062e-16 -5.8547613088e-01" quadrupole="-8.0026815673e+00 9.4121399427e-16 7.4499405786e-16 9.4121399427e-16 -8.0026815673e+00 -4.3048308421e-16 7.4499405786e-16 -4.3048308421e-16 -6.1642344218e+00" polarizability="2.0627200247e+01 1.3367085216e-13 -5.7703481216e-15 1.3367085216e-13 2.0627200247e+01 2.6223269744e-14 -5.7703481216e-15 2.6223269744e-14 1.7398045270e+01" charge=-1 multiplicity=1 method=wB97M-V basis=def2-svpd config_type=oh- sample_index=394 temperature=300.0 units=atomic
O         0.0000000000       0.0000000000       0.1031403204  -8.934958090357e-16  -2.214980340813e-16   4.119502323757e-02
H        -0.0000000000      -0.0000000000      -0.8254402258  -9.025899370499e-17   1.078190127518e-16  -4.119687258392e-02
2
Properties=species:S:1:pos:R:3:forces:R:3 energy=-7.572086495444e+01 dipole="-6.1401758005e-16 -2.0873943984e-15 -5.7375317802e-01" quadrupole="-8.0290971884e+00 2.6412627469e-15 1.4423989208e-15 2.6412627469e-15 -8.0290971884e+00 1.1674042287e-15 1.4423989208e-15 1.1674042287e-15 -6.1798210935e+00" polarizability="2.0643035038e+01 -2.5179858198e-13 -2.4725121774e-15 -2.5179858198e-13 2.0643035038e+01 -8.1928121229e-15 -2.4725121774e-15 -8.1928121229e-15 1.8066048142e+01" charge=-1 multiplicity=1 method=wB97M-V basis=def2-svpd config_type=oh- sample_index=395 temperature=300.0 units=atomic
O         0.0000000000       0.0000000000       0.1049146861   3.337326796145e-16   1.753979846535e-16   6.196574034213e-03
H        -0.0000000000      -0.0000000000      -0.8538295266  -1.375532943612e-17   7.632361401416e-17  -6.194855926061e-03
2
Properties=species:S:1:pos:R:3:forces:R:3 energy=-7.570630115642e+01 dipole="1.7061873837e-15 1.9173856499e-16 -6.0804705647e-01" quadrupole="-7.9328156344e+00 -2.8756183415e-15 -5.2978825504e-16 -2.8756183415e-15 -7.9328156344e+00 1.8814694819e-15 -5.2978825504e-16 1.8814694819e-15 -6.1307136722e+00" polarizability="2.0558527758e+01 1.7852386236e-13 -3.1077831048e-16 1.7852386236e-13 2.0558527758e+01 -1.1738621830e-14 -3.1077831048e-16 -1.1738621830e-14 1.5897090377e+01" charge=-1 multiplicity=1 method=wB97M-V basis=def2-svpd config_type=oh- sample_index=396 temperature=300.0 units=atomic
O         0.0000000000       0.0000000000       0.0988752731   5.551956551755e-16  -9.139896910541e-16   1.621284292531e-01
H        -0.0000000000      -0.0000000000      -0.7572007905   4.942840319577e-17  -4.104841688063e-17  -1.621291385014e-01
2
Properties=species:S:1:pos:R:3:forces:R:3 energy=-7.571647051120e+01 dipole="3.6374231402e-15 1.0437939924e-15 -5.3521839148e-01" quadrupole="-8.0919787646e+00 2.4682778495e-15 -1.8037941983e-15 2.4682778495e-15 -8.0919787646e+00 8.6923048460e-16 -1.8037941983e-15 8.6923048460e-16 -6.2315893889e+00" polarizability="2.0655867467e+01 -1.3516965325e-14 1.0878649377e-14 -1.3516965325e-14 2.0655867467e+01 1.9898818268e-14 1.0878649377e-14 1.9898818268e-14 1.9988685800e+01" charge=-1 multiplicity=1 method=wB97M-V basis=def2-svpd config_type=oh- sample_index=397 temperature=300.0 units=atomic
O        -0.0000000000      -0.0000000000       0.1096677590  -8.557811767516e-16   5.037068134020e-16  -5.748865367982e-02
H         0.0000000000       0.0000000000      -0.9298772213   9.798835473261e-18  -4.448051343741e-17   5.748991562906e-02
2
Properties=species:S:1:pos:R:3:forces:R:3 energy=-7.572028860455e+01 dipole="3.1536886904e-15 1.0809822833e-15 -5.8116950168e-01" quadrupole="-8.0129495469e+00 -2.1604779691e-15 -4.4596795471e-15 -2.1604779691e-15 -8.0129495469e+00 -5.3566749031e-16 -4.4596795471e-15 -5.3566749031e-16 -6.1700099376e+00" polarizability="2.0634058777e+01 7.7993167480e-15 3.4180913786e-14 7.7993167480e-15 2.0634058777e+01 -3.4879374507e-16 3.4180913786e-14 -3.4879374507e-16 1.7649854286e+01" charge=-1 multiplicity=1 method=wB97M-V basis=def2-svpd config_type=oh- sample_index=398 temperature=300.0 units=atomic
O         0.0000000000       0.0000000000       0.1038174466  -2.288005521741e-16  -1.706499020028e-16   2.696056123534e-02
H        -0.0000000000      -0.0000000000      -0.8362740348   5.961101637639e-17   6.060487893232e-17  -2.695975018987e-02
2
Properties=species:S:1:pos:R:3:forces:R:3 energy=-7.571997028707e+01 dipole="4.4008924967e-16 1.5102023060e-15 -5.8327470014e-01" quadrupole="-8.0080198597e+00 1.1250966180e-15 -1.5724157468e-15 1.1250966180e-15 -8.0080198597e+00 -2.2176877346e-15 -1.5724157468e-15 -2.2176877346e-15 -6.1671969726e+00" polarizability="2.0630875694e+01 -1.5276668819e-13 2.4036063044e-14 -1.5276668819e-13 2.0630875694e+01 2.2334493570e-14 2.4036063044e-14 2.2334493570e-14 1.7527779864e+01" charge=-1 multiplicity=1 method=wB97M-V basis=def2-svpd config_type=oh- sample_index=399 temperature=300.0 units=atomic
O         0.0000000000       0.0000000000       0.1034904618  -7.302345010019e-16  -2.263062034382e-16   3.369185865239e-02
H        -0.0000000000      -0.0000000000      -0.8310423791  -1.081919750987e-16  -1.969509698312e-17  -3.369225992118e-02
2
Properties=species:S:1:pos:R:3:forces:R:3 energy=-7.572036258718e+01 dipole="6.7226818091e-16 -6.9604153171e-16 -5.6036588316e-01" quadrupole="-8.0543113603e+00 -1.9974084651e-15 -2.0728815976e-15 -1.9974084651e-15 -8.0543113603e+00 4.2569234492e-16 -2.0728815976e-15 4.2569234492e-16 -6.1974605143e+00" polarizability="2.0652475176e+01 2.3803181648e-13 1.9799740803e-14 2.3803181648e-13 2.0652475176e+01 -2.0013673008e-14 1.9799740803e-14 -2.0013673008e-14 1.8772511510e+01" charge=-1 multiplicity=1 method=wB97M-V basis=def2-svpd config_type=oh- sample_index=400 temperature=300.0 units=atomic
O        -0.0000000000      -0.0000000000       0.1067183481   3.255237922994e-16   7.170995909735e-16  -2.248546715547e-02
H         0.0000000000       0.0000000000      -0.8826875598   1.187093450509e-16  -5.444125651830e-17   2.248355886716e-02
2
Properties=species:S:1:pos:R:3:forces:R:3 energy=-7.571925618922e+01 dipole="-1.7053961097e-15 4.3096069125e-15 -5.8676910893e-01" quadrupole="-7.9994536806e+00 -2.9915593571e-14 2.1405315732e-15 -2.9915593571e-14 -7.9994536806e+00 -2.4657719836e-15 2.1405315732e-15 -2.4657719836e-15 -6.1624822681e+00" polarizability="2.0624863863e+01 2.1993518118e-13 -1.9766634544e-14 2.1993518118e-13 2.0624863863e+01 -4.5541055849e-15 -1.9766634544e-14 -4.5541055849e-15 1.7320798518e+01" charge=-1 multiplicity=1 method=wB97M-V basis=def2-svpd config_type=oh- sample_index=401 temperature=300.0 units=atomic
O         0.0000000000       0.0000000000       0.1029305284   4.902769486054e-16  -8.424056999067e-16   4.584177451115e-02
H        -0.0000000000      -0.0000000000      -0.8220836191  -6.049735376079e-17  -3.144017797374e-19  -4.584443006680e-02
2
Properties=species:S:1:pos:R:3:forces:R:3 energy=-7.571364826497e+01 dipole="5.9935922532e-16 5.0630009022e-16 -5.2208677607e-01" quadrupole="-8.1080555052e+00 2.4328593761e-16 -3.8595805228e-15 2.4328593761e-16 -8.1080555052e+00 -5.4513813756e-16 -3.8595805228e-15 -5.4513813756e-16 -6.2502846500e+00" polarizability="2.0653357738e+01 -7.2608585810e-14 4.6227684913e-14 -7.2608585810e-14 2.0653357738e+01 4.6863255820e-15 4.6227684913e-14 4.6863255820e-15 2.0582339246e+01" charge=-1 multiplicity=1 method=wB97M-V basis=def2-svpd config_type=oh- sample_index=402 temperature=300.0 units=atomic
O        -0.0000000000      -0.0000000000       0.1110442942   5.345179030144e-16   4.701638714320e-18  -6.977595905667e-02
H         0.0000000000       0.0000000000      -0.9519013580   7.758449163714e-17   5.897563492488e-18   6.977586418628e-02
2
Properties=species:S:1:pos:R:3:forces:R:3 energy=-7.569256129398e+01 dipole="3.0389914009e-15 -6.8379173491e-16 -6.1645689524e-01" quadrupole="-7.8951713586e+00 -2.7359206331e-15 -1.1656041802e-15 -2.7359206331e-15 -7.8951713586e+00 -3.0187174220e-16 -1.1656041802e-15 -3.0187174220e-16 -6.1144942372e+00" polarizability="2.0507200658e+01 1.7008616737e-13 2.1030671915e-14 1.7008616737e-13 2.0507200658e+01 -1.2992897002e-14 2.1030671915e-14 -1.2992897002e-14 1.5207973165e+01" charge=-1 multiplicity=1 method=wB97M-V basis=def2-svpd config_type=oh- sample_index=403 temperature=300.0 units=atomic
O         0.0000000000       0.0000000000       0.0967700623   3.182151690541e-16   3.686593612599e-16   2.476350850269e-01
H        -0.0000000000      -0.0000000000      -0.7235180695   1.572311734544e-16   1.112708936785e-16  -2.476319858535e-01
2
Properties=species:S:1:pos:R:3:forces:R:3 energy=-7.571449614037e+01 dipole="-1.2390988727e-15 -4.0671905392e-16 -5.2586958743e-01" quadrupole="-8.1036295959e+00 -1.6849488992e-15 2.8585123928e-15 -1.6849488992e-15 -8.1036295959e+00 -1.4428734095e-17 2.8585123928e-15 -1.4428734095e-17 -6.2448286302e+00" polarizability="2.0654280341e+01 5.3956838997e-14 6.9927498281e-15 5.3956838997e-14 2.0654280341e+01 1.0262418689e-14 6.9927498281e-15 1.0262418689e-14 2.0413712799e+01" charge=-1 multiplicity=1 method=wB97M-V basis=def2-svpd config_type=oh- sample_index=404 temperature=300.0 units=atomic
O        -0.0000000000      -0.0000000000       0.1106571629  -2.478034664095e-16  -9.492260075561e-16  -6.654576692171e-02
H         0.0000000000       0.0000000000      -0.9457073770   6.471191607876e-17  -2.477725138540e-17   6.654602229995e-02
2
Properties=species:S:1:pos:R:3:forces:R:3 energy=-7.571657706251e+01 dipole="6.9241176579e-16 6.2803040160e-16 -5.9462470308e-01" quadrupole="-7.9781702487e+00 -1.3299053572e-15 -2.3327900178e-15 -1.3299053572e-15 -7.9781702487e+00 -5.6922996113e-16 -2.3327900178e-15 -5.6922996113e-16 -6.1515583676e+00" polarizability="2.0607359027e+01 -1.0316747456e-13 1.2787936042e-14 -1.0316747456e-13 2.0607359027e+01 1.4006874485e-14 1.2787936042e-14 1.4006874485e-14 1.6832559634e+01" charge=-1 multiplicity=1 method=wB97M-V basis=def2-svpd config_type=oh- sample_index=405 temperature=300.0 units=atomic
O         0.0000000000       0.0000000000       0.1015811888  -6.335641477698e-16  -6.572623120229e-16   7.863451012941e-02
H        -0.0000000000      -0.0000000000      -0.8004946023  -5.909742054210e-17  -1.102318139987e-17  -7.863718622574e-02
2
Properties=species:S:1:pos:R:3:forces:R:3 energy=-7.571627876675e+01 dipole="-5.8250614214e-16 -6.6343579062e-16 -5.3426725262e-01" quadrupole="-8.0932136885e+00 6.0368304350e-15 2.8905808502e-16 6.0368304350e-15 -8.0932136885e+00 -3.1654272503e-16 2.8905808502e-16 -3.1654272503e-16 -6.2329209135e+00" polarizability="2.0655758019e+01 -9.1482377229e-14 -8.0446484136e-15 -9.1482377229e-14 2.0655758019e+01 4.8627656679e-15 -8.0446484136e-15 4.8627656679e-15 2.0032502115e+01" charge=-1 multiplicity=1 method=wB97M-V basis=def2-svpd config_type=oh- sample_index=406 temperature=300.0 units=atomic
O        -0.0000000000      -0.0000000000       0.1097706855  -8.735031033951e-16   3.025006971596e-16  -5.848701178532e-02
H         0.0000000000       0.0000000000      -0.9315240140  -5.879878744510e-17   2.818819967197e-17   5.848820134806e-02
2
Properties=species:S:1:pos:R:3:forces:R:3 energy=-7.571385847689e+01 dipole="-3.7132337178e-15 8.2912105334e-16 -5.9956825508e-01" quadrupole="-7.9630258249e+00 4.3431262000e-15 2.5617234057e-15 4.3431262000e-15 -7.9630258249e+00 1.3294102170e-15 2.5617234057e-15 1.3294102170e-15 -6.1443153650e+00" polarizability="2.0592746994e+01 -1.4810375148e-13 -1.2525761629e-14 -1.4810375148e-13 2.0592746994e+01 -2.0108070539e-14 -1.2525761629e-14 -2.0108070539e-14 1.6505550287e+01" charge=-1 multiplicity=1 method=wB97M-V basis=def2-svpd config_type=oh- sample_index=407 temperature=300.0 units=atomic
O         0.0000000000       0.0000000000       0.1006539672   6.823375872024e-16   1.002018655375e-15   1.043602834610e-01
H        -0.0000000000      -0.0000000000      -0.7856593442   1.517179151260e-17   3.680237083562e-17  -1.043582730773e-01
2
Properties=species:S:1:pos:R:3:forces:R:3 energy=-7.572028988891e+01 dipole="-3.7136125887e-15 -3.7054129399e-15 -5.5959828454e-01" quadrupole="-8.0556290846e+00 2.7021032932e-15 -1.7054340078e-15 2.7021032932e-15 -8.0556290846e+00 8.4637560246e-16 -1.7054340078e-15 8.4637560246e-16 -6.1984776073e+00" polarizability="2.0652812052e+01 2.0383694732e-13 5.0844396577e-15 2.0383694732e-13 2.0652812052e+01 -8.3604110193e-15 5.0844396577e-15 -8.3604110193e-15 1.8811558218e+01" charge=-1 multiplicity=1 method=wB97M-V basis=def2-svpd config_type=oh- sample_index=408 temperature=300.0 units=atomic
O        -0.0000000000      -0.0000000000       0.1068159908   4.115029886341e-18   9.757863535204e-16  -2.386437564225e-02
H         0.0000000000       0.0000000000      -0.8842498137  -5.936194289080e-17   1.378877370743e-17   2.386245063703e-02
2
Properties=species:S:1:pos:R:3:forces:R:3 energy=-7.572078726654e+01 dipole="1.5105449924e-15 -9.1562587298e-16 -5.7568619249e-01" quadrupole="-8.0250586604e+00 -4.9556889191e-16 -7.7283369785e-16 -4.9556889191e-16 -8.0250586604e+00 5.2089816850e-17 -7.7283369785e-16 5.2089816850e-17 -6.1772738013e+00" polarizability="2.0641001170e+01 5.4733995114e-14 -2.3992300341e-15 5.4733995114e-14 2.0641001170e+01 -1.4872965747e-15 -2.3992300341e-15 -1.4872965747e-15 1.7959507166e+01" charge=-1 multiplicity=1 method=wB97M-V basis=def2-svpd config_type=oh- sample_index=409 temperature=300.0 units=atomic
O         0.0000000000       0.0000000000       0.1046363425   3.866961299550e-16   6.060571446208e-16   1.120876161988e-02
H        -0.0000000000      -0.0000000000      -0.8493761156   6.144465950423e-17  -8.052142038476e-17  -1.120675691272e-02
2
Properties=species:S:1:pos:R:3:forces:R:3 energy=-7.572088767174e+01 dipole="-1.3733641712e-15 -6.5936351791e-16 -5.7274422270e-01" quadrupole="-8.0311610018e+00 -2.8862412018e-15 -1.2505707849e-16 -2.8862412018e-15 -8.0311610018e+00 1.7290615973e-16 -1.2505707849e-16 1.7290615973e-16 -6.1811491999e+00" polarizability="2.0644019378e+01 -2.0117241206e-13 6.4500651620e-15 -2.0117241206e-13 2.0644019378e+01 -3.8853919743e-15 6.4500651620e-15 -3.8853919743e-15 1.8121155639e+01" charge=-1 multiplicity=1 method=wB97M-V basis=def2-svpd config_type=oh- sample_index=410 temperature=300.0 units=atomic
O         0.0000000000       0.0000000000       0.1050579862   8.885254085069e-16   1.952454044874e-15   3.680830165465e-03
H        -0.0000000000      -0.0000000000      -0.8561222851   1.324153872445e-16  -9.876132559957e-19  -3.679367945228e-03
2
Properties=species:S:1:pos:R:3:forces:R:3 energy=-7.571451422974e+01 dipole="-3.4420319799e-15 -9.0178709554e-16 -5.9852639282e-01" quadrupole="-7.9663481431e+00 -2.1962734620e-15 7.0701572321e-16 -2.1962734620e-15 -7.9663481431e+00 1.5375126647e-15 7.0701572321e-16 1.5375126647e-15 -6.1458738056e+00" polarizability="2.0596102318e+01 -2.3847590569e-13 -8.3333096540e-15 -2.3847590569e-13 2.0596102318e+01 -2.0303126070e-14 -8.3333096540e-15 -2.0303126070e-14 1.6575939305e+01" charge=-1 multiplicity=1 method=wB97M-V basis=def2-svpd config_type=oh- sample_index=411 temperature=300.0 units=atomic
O         0.0000000000       0.0000000000       0.1008551963  -5.597047851173e-16   6.193936157066e-16   9.853956796819e-02
H        -0.0000000000      -0.0000000000      -0.7888789479  -2.263245897191e-17  -6.178308467645e-17  -9.853856740712e-02
2
Properties=species:S:1:pos:R:3:forces:R:3 energy=-7.572046972265e+01 dipole="1.2256280079e-15 2.0941071087e-16 -5.6158355330e-01" quadrupole="-8.0521951698e+00 1.8142652969e-15 1.8772847902e-16 1.8142652969e-15 -8.0521951698e+00 -2.7854949939e-16 1.8772847902e-16 -2.7854949939e-16 -6.1958491360e+00" polarizability="2.0651901424e+01 -2.6978419498e-14 -2.8979133797e-15 -2.6978419498e-14 2.0651901424e+01 2.3345380741e-14 -2.8979133797e-15 2.3345380741e-14 1.8710275205e+01" charge=-1 multiplicity=1 method=wB97M-V basis=def2-svpd config_type=oh- sample_index=412 temperature=300.0 units=atomic
O        -0.0000000000      -0.0000000000       0.1065622860  -1.834247240811e-16  -9.723746283480e-16  -2.024663213096e-02
H         0.0000000000       0.0000000000      -0.8801906146  -3.007672211732e-17   2.464516281564e-17   2.024481320833e-02
2
Properties=species:S:1:pos:R:3:forces:R:3 energy=-7.569615488000e+01 dipole="1.9876791004e-15 -2.3666010864e-16 -4.5297657010e-01" quadrupole="-8.1683744924e+00 -3.2321132593e-15 3.5696574183e-16 -3.2321132593e-15 -8.1683744924e+00 1.2836624920e-15 3.5696574183e-16 1.2836624920e-15 -6.3607873641e+00" polarizability="2.0623466849e+01 -3.2751579226e-15 -2.4272339108e-14 -3.2751579226e-15 2.0623466849e+01 -7.7943002553e-15 -2.4272339108e-14 -7.7943002553e-15 2.3421424887e+01" charge=-1 multiplicity=1 method=wB97M-V basis=def2-svpd config_type=oh- sample_index=413 temperature=300.0 units=atomic
O        -0.0000000000      -0.0000000000       0.1171782455  -1.157480750398e-15   3.898753169432e-17  -1.027315243787e-01
H         0.0000000000       0.0000000000      -1.0500426786  -7.364251522003e-17  -2.454679764860e-17   1.027323072232e-01
2
Properties=species:S:1:pos:R:3:forces:R:3 energy=-7.571865472404e+01 dipole="-1.5176201725e-15 -6.4156668009e-16 -5.4719829038e-01" quadrupole="-8.0753376051e+00 -1.4331481215e-15 1.8665277562e-15 -1.4331481215e-15 -8.0753376051e+00 -2.7387482398e-16 1.8665277562e-15 -2.7387482398e-16 -6.2150944514e+00" polarizability="2.0655970875e+01 -1.1146639167e-13 -9.6947979950e-15 -1.1146639167e-13 2.0655970875e+01 3.2746101649e-15 -9.6947979950e-15 3.2746101649e-15 1.9424274660e+01" charge=-1 multiplicity=1 method=wB97M-V basis=def2-svpd config_type=oh- sample_index=414 temperature=300.0 units=atomic
O        -0.0000000000      -0.0000000000       0.1083218697   9.997727330016e-16   1.600522011446e-15  -4.312980291533e-02
H         0.0000000000       0.0000000000      -0.9083434099  -1.461157484609e-16   1.581480717768e-17   4.313018215695e-02
2
Properties=species:S:1:pos:R:3:forces:R:3 energy=-7.572074768800e+01 dipole="-2.6243704598e-15 6.0440648587e-16 -5.7638215260e-01" quadrupole="-8.0235765325e+00 -1.8208764349e-15 1.2940107939e-15 -1.8208764349e-15 -8.0235765325e+00 -8.0428819445e-16 1.2940107939e-15 -8.0428819445e-16 -6.1763554443e+00" polarizability="2.0640219162e+01 -3.8857805862e-15 -5.0508369946e-15 -3.8857805862e-15 2.0640219162e+01 4.4963698291e-15 -5.0508369946e-15 4.4963698291e-15 1.7920828381e+01" charge=-1 multiplicity=1 method=wB97M-V basis=def2-svpd config_type=oh- sample_index=415 temperature=300.0 units=atomic
O         0.0000000000       0.0000000000       0.1045348654   5.723564019628e-16   1.363570228293e-15   1.307811692034e-02
H        -0.0000000000      -0.0000000000      -0.8477525139  -6.664535165655e-17  -3.449395154178e-17  -1.307608931547e-02
2
Properties=species:S:1:pos:R:3:forces:R:3 energy=-7.572010740328e+01 dipole="1.3731881341e-16 -7.3941420602e-16 -5.5782478522e-01" quadrupole="-8.0586267719e+00 3.0585332377e-15 1.8505364297e-15 3.0585332377e-15 -8.0586267719e+00 1.3730266650e-15 1.8505364297e-15 1.3730266650e-15 -6.2008317962e+00" polarizability="2.0653520012e+01 -5.1958437552e-14 -3.9476378261e-14 -5.1958437552e-14 2.0653520012e+01 3.3342059930e-15 -3.9476378261e-14 3.3342059930e-15 1.8901238476e+01" charge=-1 multiplicity=1 method=wB97M-V basis=def2-svpd config_type=oh- sample_index=416 temperature=300.0 units=atomic
O        -0.0000000000      -0.0000000000       0.1070394709   2.761802008613e-17  -5.460984896174e-16  -2.695811890587e-02
H         0.0000000000       0.0000000000      -0.8878254266  -1.502576753809e-17   4.532776019024e-17   2.695626671531e-02
2
Properties=species:S:1:pos:R:3:forces:R:3 energy=-7.571794806282e+01 dipole="-1.6500367041e-15 3.9029971703e-16 -5.9121878132e-01" quadrupole="-7.9877744996e+00 -1.8529622053e-15 6.2667008902e-16 -1.8529622053e-15 -7.9877744996e+00 -2.9533099333e-15 6.2667008902e-16 -2.9533099333e-15 -6.1563636751e+00" polarizability="2.0615704511e+01 5.3290705182e-15 -6.1971701413e-15 5.3290705182e-15 2.0615704511e+01 1.5297936125e-14 -6.1971701413e-15 1.5297936125e-14 1.7048499054e+01" charge=-1 multiplicity=1 method=wB97M-V basis=def2-svpd config_type=oh- sample_index=417 temperature=300.0 units=atomic
O         0.0000000000       0.0000000000       0.1021830287  -6.291329630312e-16  -1.304960423544e-15   6.336477352855e-02
H        -0.0000000000      -0.0000000000      -0.8101238554  -8.034205199636e-17   7.554332696162e-17  -6.336880519489e-02
2
Properties=species:S:1:pos:R:3:forces:R:3 energy=-7.571554588133e+01 dipole="-9.6222351851e-16 -1.7261753311e-15 -5.9671257823e-01" quadrupole="-7.9719609155e+00 -3.3385322885e-15 1.0461677996e-15 -3.3385322885e-15 -7.9719609155e+00 1.1825706884e-15 1.0461677996e-15 1.1825706884e-15 -6.1485439924e+00" polarizability="2.0601580497e+01 -2.0294876890e-13 -8.0270026951e-15 -2.0294876890e-13 2.0601580497e+01 -2.6624321235e-14 -8.0270026951e-15 -2.6624321235e-14 1.6696554543e+01" charge=-1 multiplicity=1 method=wB97M-V basis=def2-svpd config_type=oh- sample_index=418 temperature=300.0 units=atomic
O         0.0000000000       0.0000000000       0.1011979034   5.648358628900e-16   1.891294764324e-16   8.893377194334e-02
H        -0.0000000000      -0.0000000000      -0.7943621552  -4.675416729258e-17  -1.389896436608e-16  -8.893462399135e-02
2
Properties=species:S:1:pos:R:3:forces:R:3 energy=-7.572080681651e+01 dipole="6.1777873371e-16 9.0091280790e-16 -5.6688653500e-01" quadrupole="-8.0425883475e+00 1.1081446891e-15 5.1616831558e-17 1.1081446891e-15 -8.0425883475e+00 -1.4106117713e-15 5.1616831558e-17 -1.4106117713e-15 -6.1888548665e+00" polarizability="2.0648789703e+01 -1.3855583347e-13 1.2967840196e-14 -1.3855583347e-13 2.0648789703e+01 6.2073963044e-15 1.2967840196e-14 6.2073963044e-15 1.8434774727e+01" charge=-1 multiplicity=1 method=wB97M-V basis=def2-svpd config_type=oh- sample_index=419 temperature=300.0 units=atomic
O        -0.0000000000      -0.0000000000       0.1058649886  -1.271039740172e-15   7.343700129809e-16  -9.700205461790e-03
H         0.0000000000       0.0000000000      -0.8690340729   3.529837915720e-17   3.806083739136e-18   9.699622588016e-03
2
Properties=species:S:1:pos:R:3:forces:R:3 energy=-7.571318299227e+01 dipole="2.9528796081e-16 1.5997160573e-15 -5.2005395573e-01" quadrupole="-8.1103707327e+00 9.5144207840e-17 -1.4005712826e-15 9.5144207840e-17 -8.1103707327e+00 7.6256669528e-16 -1.4005712826e-15 7.6256669528e-16 -6.2532408607e+00" polarizability="2.0652806285e+01 8.7929663550e-14 7.6341479535e-15 8.7929663550e-14 2.0652806285e+01 -1.1751716204e-14 7.6341479535e-15 -1.1751716204e-14 2.0672219147e+01" charge=-1 multiplicity=1 method=wB97M-V basis=def2-svpd config_type=oh- sample_index=420 temperature=300.0 units=atomic
O        -0.0000000000      -0.0000000000       0.1112494308   2.866838671180e-16   6.449003625465e-16  -7.142000667239e-02
H         0.0000000000       0.0000000000      -0.9551834811  -5.917789380544e-17  -1.680110015265e-17   7.141978943673e-02
2
Properties=species:S:1:pos:R:3:forces:R:3 energy=-7.571029311570e+01 dipole="1.3911948964e-15 -1.3396589411e-15 -6.0419220375e-01" quadrupole="-7.9473143535e+00 -1.6439339595e-15 -2.5224122285e-15 -1.6439339595e-15 -7.9473143535e+00 3.7240370153e-15 -2.5224122285e-15 3.7240370153e-15 -6.1371326025e+00" polarizability="2.0575768448e+01 1.6930901126e-13 -3.3785580631e-16 1.6930901126e-13 2.0575768448e+01 -2.1571564523e-14 -3.3785580631e-16 -2.1571564523e-14 1.6182286893e+01" charge=-1 multiplicity=1 method=wB97M-V basis=def2-svpd config_type=oh- sample_index=421 temperature=300.0 units=atomic
O         0.0000000000       0.0000000000       0.0997178925   4.236511734072e-16   1.504537720789e-15   1.332874915722e-01
H        -0.0000000000      -0.0000000000      -0.7706824394   6.080830484479e-17  -8.744098479196e-18  -1.332840484006e-01
2
Properties=species:S:1:pos:R:3:forces:R:3 energy=-7.571473651117e+01 dipole="-1.1408848833e-15 -2.6985568227e-17 -5.9815499398e-01" quadrupole="-7.9675147728e+00 -2.1346928212e-15 6.2350933459e-16 -2.1346928212e-15 -7.9675147728e+00 7.6735552415e-16 6.2350933459e-16 7.6735552415e-16 -6.1464248325e+00" polarizability="2.0597260731e+01 4.7281623061e-14 -6.3916254771e-15 4.7281623061e-14 2.0597260731e+01 -6.1447727806e-15 -6.3916254771e-15 -6.1447727806e-15 1.6600832071e+01" charge=-1 multiplicity=1 method=wB97M-V basis=def2-svpd config_type=oh- sample_index=422 temperature=300.0 units=atomic
O         0.0000000000       0.0000000000       0.1009261420  -1.083848344749e-15  -2.742750247074e-16   9.651954291578e-02
H        -0.0000000000      -0.0000000000      -0.7900140569   1.033047250183e-17   1.575393707629e-16  -9.651892175294e-02
2
Properties=species:S:1:pos:R:3:forces:R:3 energy=-7.572052619050e+01 dipole="-3.5566003843e-16 -5.0939766687e-16 -5.6227838652e-01" quadrupole="-8.0509731290e+00 -1.7285610869e-16 -1.0443102994e-15 -1.7285610869e-16 -8.0509731290e+00 8.0794910992e-17 -1.0443102994e-15 8.0794910992e-17 -6.1949306991e+00" polarizability="2.0651551739e+01 3.4194869158e-14 2.1486058528e-15 3.4194869158e-14 2.0651551739e+01 2.1315058487e-14 2.1486058528e-15 2.1315058487e-14 1.8674596165e+01" charge=-1 multiplicity=1 method=wB97M-V basis=def2-svpd config_type=oh- sample_index=423 temperature=300.0 units=atomic
O        -0.0000000000      -0.0000000000       0.1064725783  -2.764502166432e-16  -3.585614154874e-16  -1.894001390334e-02
H         0.0000000000       0.0000000000      -0.8787553203   7.485108930472e-17   2.017835003573e-17   1.893828083378e-02
2
Properties=species:S:1:pos:R:3:forces:R:3 energy=-7.569289563163e+01 dipole="-7.5858726074e-16 -1.1055281136e-15 -6.1630496027e-01" quadrupole="-7.8959451975e+00 -1.0942093745e-15 -2.3856806776e-15 -1.0942093745e-15 -7.8959451975e+00 6.2577501013e-17 -2.3856806776e-15 6.2577501013e-17 -6.1148256046e+00" polarizability="2.0508346892e+01 -2.7366997557e-14 3.6391985480e-14 -2.7366997557e-14 2.0508346892e+01 1.1262117475e-14 3.6391985480e-14 1.1262117475e-14 1.5221460628e+01" charge=-1 multiplicity=1 method=wB97M-V basis=def2-svpd config_type=oh- sample_index=424 temperature=300.0 units=atomic
O         0.0000000000       0.0000000000       0.0968122536   7.340762800207e-17  -6.185020518324e-16   2.457113129121e-01
H        -0.0000000000      -0.0000000000      -0.7241931168   1.394134636242e-16  -1.625421794326e-17  -2.457085999936e-01
2
Properties=species:S:1:pos:R:3:forces:R:3 energy=-7.572039561487e+01 dipole="-3.7931801346e-16 -1.7972702419e-15 -5.6072913547e-01" quadrupole="-8.0536834083e+00 -4.9948716608e-15 -1.9491990229e-15 -4.9948716608e-15 -8.0536834083e+00 2.1250546811e-15 -1.9491990229e-15 2.1250546811e-15 -6.1969795534e+00" polarizability="2.0652309132e+01 1.2123635429e-13 9.5221713281e-15 1.2123635429e-13 2.0652309132e+01 -2.2822499267e-14 9.5221713281e-15 -2.2822499267e-14 1.8753983520e+01" charge=-1 multiplicity=1 method=wB97M-V basis=def2-svpd config_type=oh- sample_index=425 temperature=300.0 units=atomic
O        -0.0000000000      -0.0000000000       0.1066719431   1.004880885303e-15   2.236105515413e-15  -2.182426419822e-02
H         0.0000000000       0.0000000000      -0.8819450957  -3.235708755967e-17  -6.583788122992e-18   2.182237443725e-02
2
Properties=species:S:1:pos:R:3:forces:R:3 energy=-7.571615752228e+01 dipole="-3.2963716681e-15 1.0102449660e-15 -5.3367155682e-01" quadrupole="-8.0939811482e+00 -5.7080850375e-16 -4.0994195958e-16 -5.7080850375e-16 -8.0939811482e+00 -1.6509154238e-15 -4.0994195958e-16 -1.6509154238e-15 -6.2337565823e+00" polarizability="2.0655682942e+01 -3.8635761257e-14 -4.0113311158e-16 -3.8635761257e-14 2.0655682942e+01 1.5038813654e-14 -4.0113311158e-16 1.5038813654e-14 2.0059875138e+01" charge=-1 multiplicity=1 method=wB97M-V basis=def2-svpd config_type=oh- sample_index=426 temperature=300.0 units=atomic
O        -0.0000000000      -0.0000000000       0.1098348757   4.561059347151e-16  -1.294971044228e-16  -5.910284385355e-02
H         0.0000000000       0.0000000000      -0.9325510375   1.439871620859e-17   7.152483473172e-17   5.910398138298e-02
2
Properties=species:S:1:pos:R:3:forces:R:3 energy=-7.572079641892e+01 dipole="-6.9592052728e-15 2.0192148417e-15 -5.6664429354e-01" quadrupole="-8.0430417313e+00 1.5022480932e-16 2.4515637278e-15 1.5022480932e-16 -8.0430417313e+00 -3.8542261890e-15 2.4515637278e-15 -3.8542261890e-15 -6.1891737455e+00" polarizability="2.0648955058e+01 2.2293278334e-13 -2.2833361768e-15 2.2293278334e-13 2.0648955058e+01 1.5868435842e-14 -2.2833361768e-15 1.5868435842e-14 1.8447525544e+01" charge=-1 multiplicity=1 method=wB97M-V basis=def2-svpd config_type=oh- sample_index=427 temperature=300.0 units=atomic
O        -0.0000000000      -0.0000000000       0.1058974974   2.500750416692e-16  -4.043366891413e-16  -1.021219945512e-02
H         0.0000000000       0.0000000000      -0.8695542039  -2.108941797607e-17   8.142798810187e-17   1.021153561300e-02
2
Properties=species:S:1:pos:R:3:forces:R:3 energy=-7.571480125634e+01 dipole="1.4626789253e-17 -3.1458368674e-16 -5.9804493972e-01" quadrupole="-7.9678587247e+00 1.1060870283e-15 -9.1202169366e-16 1.1060870283e-15 -7.9678587247e+00 -8.6876441763e-16 -9.1202169366e-16 -8.6876441763e-16 -6.1465876769e+00" polarizability="2.0597600287e+01 1.6264767311e-13 -7.6429786309e-15 1.6264767311e-13 2.0597600287e+01 -5.4684429500e-15 -7.6429786309e-15 -5.4684429500e-15 1.6608188703e+01" charge=-1 multiplicity=1 method=wB97M-V basis=def2-svpd config_type=oh- sample_index=428 temperature=300.0 units=atomic
O         0.0000000000       0.0000000000       0.1009470871  -6.465935694411e-16   2.609186201458e-17   9.592634735814e-02
H        -0.0000000000      -0.0000000000      -0.7903491715  -3.604022355221e-17  -1.527136062478e-16  -9.592583949234e-02
2
Properties=species:S:1:pos:R:3:forces:R:3 energy=-7.571757670695e+01 dipole="-1.1221715101e-15 3.0761784099e-16 -5.4096815041e-01" quadrupole="-8.0842531718e+00 1.0491519641e-15 2.5174754624e-15 1.0491519641e-15 -8.0842531718e+00 3.0933673741e-16 2.5174754624e-15 3.0933673741e-16 -6.2236108375e+00" polarizability="2.0656233346e+01 -1.9007018182e-13 -6.2715162899e-15 -1.9007018182e-13 2.0656233346e+01 -2.8886467924e-14 -6.2715162899e-15 -2.8886467924e-14 1.9720805465e+01" charge=-1 multiplicity=1 method=wB97M-V basis=def2-svpd config_type=oh- sample_index=429 temperature=300.0 units=atomic
O        -0.0000000000      -0.0000000000       0.1090336888   2.740163167558e-16   1.217744268389e-15  -5.103380305516e-02
H         0.0000000000       0.0000000000      -0.9197322952   5.090759164202e-17  -6.072017736172e-18   5.103510523269e-02
2
Properties=species:S:1:pos:R:3:forces:R:3 energy=-7.569758701400e+01 dipole="-1.6495999727e-15 -4.1004171274e-16 -6.1395572714e-01" quadrupole="-7.9074112715e+00 4.4095415805e-16 6.1684423204e-16 4.4095415805e-16 -7.9074112715e+00 2.7602974483e-17 6.1684423204e-16 2.7602974483e-17 -6.1197360292e+00" polarizability="2.0524891353e+01 1.1468603844e-13 -6.5728213623e-16 1.1468603844e-13 2.0524891353e+01 1.6250460643e-14 -6.5728213623e-16 1.6250460643e-14 1.5424494240e+01" charge=-1 multiplicity=1 method=wB97M-V basis=def2-svpd config_type=oh- sample_index=430 temperature=300.0 units=atomic
O         0.0000000000       0.0000000000       0.0974424907  -7.726904624335e-16   2.139822963762e-16   2.180516692308e-01
H        -0.0000000000      -0.0000000000      -0.7342767144   3.541703265315e-17   9.825016371430e-17  -2.180540874563e-01
2
Properties=species:S:1:pos:R:3:forces:R:3 energy=-7.571784132425e+01 dipole="-3.4205701331e-17 -2.1859211697e-16 -5.4242656782e-01" quadrupole="-8.0822188873e+00 -2.1192401213e-16 3.0226729788e-15 -2.1192401213e-16 -8.0822188873e+00 -1.0738667059e-15 3.0226729788e-15 -1.0738667059e-15 -6.2216056610e+00" polarizability="2.0656237191e+01 1.9984014443e-13 -1.2378603927e-14 1.9984014443e-13 2.0656237191e+01 -1.3842214186e-14 -1.2378603927e-14 -1.3842214186e-14 1.9651997931e+01" charge=-1 multiplicity=1 method=wB97M-V basis=def2-svpd config_type=oh- sample_index=431 temperature=300.0 units=atomic
O        -0.0000000000      -0.0000000000       0.1088694630   1.291858091981e-15   5.129437101768e-16  -4.927375386455e-02
H         0.0000000000       0.0000000000      -0.9171047329   1.707041581899e-17   5.629487491374e-17   4.927493425746e-02
2
Properties=species:S:1:pos:R:3:forces:R:3 energy=-7.571621799747e+01 dipole="-2.7274709888e-16 5.0436306788e-16 -5.9538858343e-01" quadrupole="-7.9759283924e+00 2.8785089410e-15 -7.5103817836e-16 2.8785089410e-15 -7.9759283924e+00 2.0965768224e-15 -7.5103817836e-16 2.0965768224e-15 -6.1504622682e+00" polarizability="2.0605307111e+01 1.2645440250e-13 1.3021732457e-14 1.2645440250e-13 2.0605307111e+01 3.9188049888e-15 1.3021732457e-14 3.9188049888e-15 1.6783137551e+01" charge=-1 multiplicity=1 method=wB97M-V basis=def2-svpd config_type=oh- sample_index=432 temperature=300.0 units=atomic
O         0.0000000000       0.0000000000       0.1014422915  -5.869491925800e-16   1.758405174478e-16   8.231378615561e-02
H        -0.0000000000      -0.0000000000      -0.7982722893  -1.210122936981e-17   1.207727737743e-16  -8.231586225595e-02
2
Properties=species:S:1:pos:R:3:forces:R:3 energy=-7.571947827190e+01 dipole="2.8439464682e-15 -1.5569643899e-15 -5.8580468579e-01" quadrupole="-8.0018680007e+00 7.7491088680e-16 2.0494417823e-15 7.7491088680e-16 -8.0018680007e+00 6.6871704638e-16 2.0494417823e-15 6.6871704638e-16 -6.1637901112e+00" polarizability="2.0626619432e+01 -2.2204460493e-13 -1.8073403207e-14 -2.2204460493e-13 2.0626619432e+01 -1.6719591248e-14 -1.8073403207e-14 -1.6719591248e-14 1.7378491831e+01" charge=-1 multiplicity=1 method=wB97M-V basis=def2-svpd config_type=oh- sample_index=433 temperature=300.0 units=atomic
O         0.0000000000       0.0000000000       0.1030873089  -9.328809454247e-16  -1.104795489835e-15   4.235833919506e-02
H        -0.0000000000      -0.0000000000      -0.8245920584   1.400817343805e-17   5.957965457101e-17  -4.236040110872e-02
2
Properties=species:S:1:pos:R:3:forces:R:3 energy=-7.572079879653e+01 dipole="2.6568490519e-15 2.9521176063e-16 -5.6669864617e-01" quadrupole="-8.0429401301e+00 -1.3019333109e-15 -1.5085702731e-15 -1.3019333109e-15 -8.0429401301e+00 9.3441888542e-16 -1.5085702731e-15 9.3441888542e-16 -6.1891021939e+00" polarizability="2.0648918163e+01 1.0325074129e-13 1.2332172313e-14 1.0325074129e-13 2.0648918163e+01 -4.0309768897e-15 1.2332172313e-14 -4.0309768897e-15 1.8444666036e+01" charge=-1 multiplicity=1 method=wB97M-V basis=def2-svpd config_type=oh- sample_index=434 temperature=300.0 units=atomic
O        -0.0000000000      -0.0000000000       0.1058902090   1.450864936447e-15   1.222312842118e-15  -1.009758793259e-02
H         0.0000000000       0.0000000000      -0.8694375912  -5.897409080835e-17  -6.263202719490e-17   1.009694211323e-02
2
Properties=species:S:1:pos:R:3:forces:R:3 energy=-7.571476782504e+01 dipole="-1.1935598269e-15 3.7728561796e-16 -5.9810187430e-01" quadrupole="-7.9676808864e+00 1.3005720039e-15 1.8440474061e-15 1.3005720039e-15 -7.9676808864e+00 -1.0183632984e-15 1.8440474061e-15 -1.0183632984e-15 -6.1465034569e+00" polarizability="2.0597424834e+01 2.2171153802e-13 -1.1827377739e-14 2.2171153802e-13 2.0597424834e+01 8.0845415342e-15 -1.1827377739e-14 8.0845415342e-15 1.6604383995e+01" charge=-1 multiplicity=1 method=wB97M-V basis=def2-svpd config_type=oh- sample_index=435 temperature=300.0 units=atomic
O         0.0000000000       0.0000000000       0.1009362559  -7.037698799025e-17  -6.907217422466e-16   9.623292174712e-02
H        -0.0000000000      -0.0000000000      -0.7901758765  -2.350823682056e-17   3.921664728202e-17  -9.623235523601e-02
2
Properties=species:S:1:pos:R:3:forces:R:3 energy=-7.571308930416e+01 dipole="-1.1787090816e-15 6.5808875524e-16 -5.1964789085e-01" quadrupole="-8.1108280834e+00 -2.1424323329e-15 -8.7378425647e-16 -2.1424323329e-15 -8.1108280834e+00 8.8243956531e-16 -8.7378425647e-16 8.8243956531e-16 -6.2538334234e+00" polarizability="2.0652691751e+01 1.7719159473e-13 1.1790421851e-14 1.7719159473e-13 2.0652691751e+01 -2.6771902832e-14 1.1790421851e-14 -2.6771902832e-14 2.0690113294e+01" charge=-1 multiplicity=1 method=wB97M-V basis=def2-svpd config_type=oh- sample_index=436 temperature=300.0 units=atomic
O        -0.0000000000      -0.0000000000       0.1112901727  -3.612081390369e-17   4.732960612578e-16  -7.174107863548e-02
H         0.0000000000       0.0000000000      -0.9558353375   1.121790949267e-16  -6.505328738098e-18   7.174084339710e-02
2
Properties=species:S:1:pos:R:3:forces:R:3 energy=-7.571074408542e+01 dipole="7.2938609654e-16 8.4270834894e-16 -6.0368342053e-01" quadrupole="-7.9491265916e+00 -2.9885724409e-15 -1.0924239798e-15 -2.9885724409e-15 -7.9491265916e+00 -1.3649190122e-15 -1.0924239798e-15 -1.3649190122e-15 -6.1379473117e+00" polarizability="2.0577818872e+01 9.5201624362e-14 -1.1998330850e-14 9.5201624362e-14 2.0577818872e+01 7.0826949874e-15 -1.1998330850e-14 7.0826949874e-15 1.6218793486e+01" charge=-1 multiplicity=1 method=wB97M-V basis=def2-svpd config_type=oh- sample_index=437 temperature=300.0 units=atomic
O         0.0000000000       0.0000000000       0.0998246017  -1.143704991947e-16  -1.124992817343e-16   1.298302496426e-01
H        -0.0000000000      -0.0000000000      -0.7723897530  -8.756586609516e-17  -6.477160847475e-17  -1.298266069373e-01
2
Properties=species:S:1:pos:R:3:forces:R:3 energy=-7.572088270067e+01 dipole="-7.7498312950e-16 -1.9037018287e-15 -5.6937205414e-01" quadrupole="-8.0378508322e+00 -4.2959971425e-15 -4.1444229748e-17 -4.2959971425e-15 -8.0378508322e+00 2.8398495476e-15 -4.1444229748e-17 2.8398495476e-15 -6.1855848071e+00" polarizability="2.0646952406e+01 -7.5939254884e-14 2.1584725129e-14 -7.5939254884e-14 2.0646952406e+01 -7.7476786168e-15 2.1584725129e-14 -7.7476786168e-15 1.8302969272e+01" charge=-1 multiplicity=1 method=wB97M-V basis=def2-svpd config_type=oh- sample_index=438 temperature=300.0 units=atomic
O        -0.0000000000      -0.0000000000       0.1055275754  -8.926113692146e-16   4.394502559907e-16  -4.264529675579e-03
H         0.0000000000       0.0000000000      -0.8636355669  -8.555318778451e-17   8.957897122445e-18   4.264842169710e-03
2
Properties=species:S:1:pos:R:3:forces:R:3 energy=-7.571971696796e+01 dipole="8.5461707281e-16 7.0195751041e-16 -5.5451762968e-01" quadrupole="-8.0640492270e+00 1.7275813393e-15 1.3359411145e-15 1.7275813393e-15 -8.0640492270e+00 -1.0060250926e-15 1.3359411145e-15 -1.0060250926e-15 -6.2052396352e+00" polarizability="2.0654593943e+01 3.7747582837e-14 4.3557905536e-15 3.7747582837e-14 2.0654593943e+01 -5.9689847154e-16 4.3557905536e-15 -5.9689847154e-16 1.9066555764e+01" charge=-1 multiplicity=1 method=wB97M-V basis=def2-svpd config_type=oh- sample_index=439 temperature=300.0 units=atomic
O        -0.0000000000      -0.0000000000       0.1074486270   8.650971996093e-16   1.352559646834e-16  -3.240360285745e-02
H         0.0000000000       0.0000000000      -0.8943717963   4.253651833195e-17   2.231919657110e-17   3.240223660592e-02
2
Properties=species:S:1:pos:R:3:forces:R:3 energy=-7.571811401801e+01 dipole="-2.3893764007e-15 3.8991897800e-17 -5.9073764239e-01" quadrupole="-7.9890826007e+00 -4.5886784095e-16 1.3839803928e-15 -4.5886784095e-16 -7.9890826007e+00 -1.5546663186e-15 1.3839803928e-15 -1.5546663186e-15 -6.1570330166e+00" polarizability="2.0616784802e+01 9.8920871494e-14 -9.3656235686e-15 9.8920871494e-14 2.0616784802e+01 1.3740566712e-14 -9.3656235686e-15 1.3740566712e-14 1.7078454301e+01" charge=-1 multiplicity=1 method=wB97M-V basis=def2-svpd config_type=oh- sample_index=440 temperature=300.0 units=atomic
O         0.0000000000       0.0000000000       0.1022658767   6.490691019571e-16  -4.516461554184e-18   6.134585098029e-02
H        -0.0000000000      -0.0000000000      -0.8114493975   7.381091145570e-17  -1.177721841122e-17  -6.134988811013e-02
2
Properties=species:S:1:pos:R:3:forces:R:3 energy=-7.571502068286e+01 dipole="1.5560664643e-15 -1.2489560694e-15 -5.9766538613e-01" quadrupole="-7.9690388829e+00 -2.3749531178e-15 1.5124748095e-15 -2.3749531178e-15 -7.9690388829e+00 7.8037074711e-16 1.5124748095e-15 7.8037074711e-16 -6.1471477904e+00" polarizability="2.0598758520e+01 -1.2423395646e-13 -2.0982734777e-14 -1.2423395646e-13 2.0598758520e+01 3.3143336885e-15 -2.0982734777e-14 3.3143336885e-15 1.6633491910e+01" charge=-1 multiplicity=1 method=wB97M-V basis=def2-svpd config_type=oh- sample_index=441 temperature=300.0 units=atomic
O         0.0000000000       0.0000000000       0.1010190524   1.489456057882e-16  -2.158437275929e-16   9.389913140221e-02
H        -0.0000000000      -0.0000000000      -0.7915005944  -3.713193523848e-17  -3.562352137515e-17  -9.389901527680e-02
2
Properties=species:S:1:pos:R:3:forces:R:3 energy=-7.571794827045e+01 dipole="7.8070588602e-16 -4.7224524461e-16 -5.9121819078e-01" quadrupole="-7.9877761122e+00 -2.2569588595e-15 1.5178947445e-16 -2.2569588595e-15 -7.9877761122e+00 1.3786445143e-15 1.5178947445e-16 1.3786445143e-15 -6.1563644980e+00" polarizability="2.0615705851e+01 -7.9380946261e-14 1.2570764546e-14 -7.9380946261e-14 2.0615705851e+01 -1.8179160740e-14 1.2570764546e-14 -1.8179160740e-14 1.7048535900e+01" charge=-1 multiplicity=1 method=wB97M-V basis=def2-svpd config_type=oh- sample_index=442 temperature=300.0 units=atomic
O         0.0000000000       0.0000000000       0.1021831307   6.870874046437e-16   7.396545094038e-16   6.336227575176e-02
H        -0.0000000000      -0.0000000000      -0.8101254874  -1.730567593605e-17   7.727772282317e-17  -6.336630745235e-02
2
Properties=species:S:1:pos:R:3:forces:R:3 energy=-7.569620429105e+01 dipole="-2.1790346946e-15 -5.6163037889e-16 -6.1469382183e-01" quadrupole="-7.9039054701e+00 9.5393618339e-16 9.5298831849e-16 9.5393618339e-16 -7.9039054701e+00 2.8645784168e-15 9.5298831849e-16 2.8645784168e-15 -6.1182339392e+00" polarizability="2.0519920749e+01 6.4614980033e-14 -3.5048424844e-15 6.4614980033e-14 2.0519920749e+01 -1.4361850914e-14 -3.5048424844e-15 -1.4361850914e-14 1.5361772347e+01" charge=-1 multiplicity=1 method=wB97M-V basis=def2-svpd config_type=oh- sample_index=443 temperature=300.0 units=atomic
O         0.0000000000       0.0000000000       0.0972487659   2.034604112475e-16   5.827926923861e-16   2.263426291536e-01
H        -0.0000000000      -0.0000000000      -0.7311771787   8.314177269028e-17  -6.446001226297e-17  -2.263437142991e-01
2
Properties=species:S:1:pos:R:3:forces:R:3 energy=-7.571476542938e+01 dipole="-9.8866687967e-17 -1.2444624094e-15 -5.9810594537e-01" quadrupole="-7.9676681622e+00 -6.9643797012e-17 -3.8414511736e-16 -6.9643797012e-17 -7.9676681622e+00 2.0142726516e-15 -3.8414511736e-16 2.0142726516e-15 -6.1464974329e+00" polarizability="2.0597412271e+01 -1.2795320359e-14 -1.0836240870e-14 -1.2795320359e-14 2.0597412271e+01 -2.0590519180e-14 -1.0836240870e-14 -2.0590519180e-14 1.6604111854e+01" charge=-1 multiplicity=1 method=wB97M-V basis=def2-svpd config_type=oh- sample_index=444 temperature=300.0 units=atomic
O         0.0000000000       0.0000000000       0.1009354811  -5.497127169790e-16  -7.991094675221e-17   9.625486786335e-02
H        -0.0000000000      -0.0000000000      -0.7901634795   6.424648286512e-17  -9.310444790667e-17  -9.625429716145e-02
2
Properties=species:S:1:pos:R:3:forces:R:3 energy=-7.571193845044e+01 dipole="2.7222507150e-15 5.2753491445e-16 -6.0224166974e-01" quadrupole="-7.9541452454e+00 -4.7323659892e-15 -1.8036392577e-15 -4.7323659892e-15 -7.9541452454e+00 -7.0747311732e-16 -1.8036392577e-15 -7.0747311732e-16 -6.1402209033e+00" polarizability="2.0583373006e+01 -9.6811447747e-14 2.3859065612e-14 -9.6811447747e-14 2.0583373006e+01 -2.5545992292e-15 2.3859065612e-14 -2.5545992292e-15 1.6320933363e+01" charge=-1 multiplicity=1 method=wB97M-V basis=def2-svpd config_type=oh- sample_index=445 temperature=300.0 units=atomic
O         0.0000000000       0.0000000000       0.1001217977  -1.303981328305e-15   2.607575439294e-16   1.204221944854e-01
H        -0.0000000000      -0.0000000000      -0.7771447979   2.867685095101e-17  -8.786633405803e-18  -1.204185222953e-01
2
Properties=species:S:1:pos:R:3:forces:R:3 energy=-7.571972768624e+01 dipole="-1.0234748570e-15 4.7357552734e-16 -5.5460198409e-01" quadrupole="-8.0639135345e+00 -3.4882599410e-15 2.2291513274e-15 -3.4882599410e-15 -8.0639135345e+00 -4.4048122036e-16 2.2291513274e-15 -4.4048122036e-16 -6.2051268913e+00" polarizability="2.0654570324e+01 9.0594198809e-14 -2.1123765803e-14 9.0594198809e-14 2.0654570324e+01 -4.2301529386e-15 -2.1123765803e-14 -4.2301529386e-15 1.9062368998e+01" charge=-1 multiplicity=1 method=wB97M-V basis=def2-svpd config_type=oh- sample_index=446 temperature=300.0 units=atomic
O        -0.0000000000      -0.0000000000       0.1074383092  -2.729648923863e-16  -4.280968101104e-16  -3.226968206196e-02
H         0.0000000000       0.0000000000      -0.8942067159  -6.533218046613e-17  -1.038361231634e-17   3.226829893732e-02
2
Properties=species:S:1:pos:R:3:forces:R:3 energy=-7.572084960132e+01 dipole="-1.7886138450e-15 -1.8203145725e-16 -5.7424326869e-01" quadrupole="-8.0280839263e+00 -3.3241677033e-15 8.4156589451e-16 -3.3241677033e-15 -8.0280839263e+00 -1.5587457473e-15 8.4156589451e-16 -1.5587457473e-15 -6.1791756623e+00" polarizability="2.0642538112e+01 1.3189449533e-13 -9.2424043849e-15 1.3189449533e-13 2.0642538112e+01 1.2354109205e-14 -9.2424043849e-15 1.2354109205e-14 1.8039157370e+01" charge=-1 multiplicity=1 method=wB97M-V basis=def2-svpd config_type=oh- sample_index=447 temperature=300.0 units=atomic
O         0.0000000000       0.0000000000       0.1048445945   7.335556501025e-16   1.035613002349e-15   7.442980822102e-03
H        -0.0000000000      -0.0000000000      -0.8527080832   3.824723433650e-17   4.885419868678e-17  -7.441162204764e-03
2
Properties=species:S:1:pos:R:3:forces:R:3 energy=-7.571937519050e+01 dipole="-5.6418244358e-15 7.2039835043e-15 -5.8626318110e-01" quadrupole="-8.0007251302e+00 4.3800595420e-16 8.6208095597e-16 4.3800595420e-16 -8.0007251302e+00 -5.8789279059e-16 8.6208095597e-16 -5.8789279059e-16 -6.1631690450e+00" polarizability="2.0625794344e+01 -2.3359092438e-13 8.8686774651e-15 -2.3359092438e-13 2.0625794344e+01 1.1022796900e-14 8.8686774651e-15 1.1022796900e-14 1.7351119660e+01" charge=-1 multiplicity=1 method=wB97M-V basis=def2-svpd config_type=oh- sample_index=448 temperature=300.0 units=atomic
O         0.0000000000       0.0000000000       0.1030129942   1.199659846907e-15   2.226165822725e-15   4.400146465165e-02
H        -0.0000000000      -0.0000000000      -0.8234030455  -1.237270009364e-16  -1.950961012709e-17  -4.400381550819e-02
2
Properties=species:S:1:pos:R:3:forces:R:3 energy=-7.572089891250e+01 dipole="6.3743254048e-16 1.5942314397e-16 -5.7070792429e-01" quadrupole="-8.0352379759e+00 -1.3011525207e-15 -2.1006191966e-16 -1.3011525207e-15 -8.0352379759e+00 3.3857668078e-16 -2.1006191966e-16 3.3857668078e-16 -6.1838279167e+00" polarizability="2.0645853873e+01 -7.1720407391e-14 3.4432575994e-15 -7.1720407391e-14 2.0645853873e+01 -7.2602255617e-15 3.4432575994e-15 -7.2602255617e-15 1.8231369500e+01" charge=-1 multiplicity=1 method=wB97M-V basis=def2-svpd config_type=oh- sample_index=449 temperature=300.0 units=atomic
O        -0.0000000000      -0.0000000000       0.1053432280   8.048234180864e-16  -4.685594622029e-16  -1.199151870164e-03
H         0.0000000000       0.0000000000      -0.8606860654   3.005324309886e-17  -1.620093369435e-17   1.199952926173e-03
2
Properties=species:S:1:pos:R:3:forces:R:3 energy=-7.572048097349e+01 dipole="2.0506066265e-15 -9.9518163324e-16 -5.7956576626e-01" quadrupole="-8.0165965957e+00 1.2153057373e-16 -2.0520652321e-15 1.2153057373e-16 -8.0165965957e+00 6.0279118752e-16 -2.0520652321e-15 6.0279118752e-16 -6.1721423361e+00" polarizability="2.0636281703e+01 5.0182080713e-14 2.2001115752e-14 5.0182080713e-14 2.0636281703e+01 2.6886976783e-14 2.2001115752e-14 2.6886976783e-14 1.7741619127e+01" charge=-1 multiplicity=1 method=wB97M-V basis=def2-svpd config_type=oh- sample_index=450 temperature=300.0 units=atomic
O         0.0000000000       0.0000000000       0.1040616844   3.241035475016e-16   1.513206664205e-16   2.210056492394e-02
H        -0.0000000000      -0.0000000000      -0.8401817643   7.963790849128e-18   6.517737860573e-18  -2.209907701098e-02
2
Properties=species:S:1:pos:R:3:forces:R:3 energy=-7.572004623579e+01 dipole="6.5251934680e-15 -9.4065754318e-16 -5.8281670798e-01" quadrupole="-8.0091065189e+00 -2.3733960443e-15 -2.1783482499e-15 -2.3733960443e-15 -8.0091065189e+00 2.0366846521e-15 -2.1783482499e-15 2.0366846521e-15 -6.1678104529e+00" polarizability="2.0631594853e+01 1.3211653993e-13 2.0974500475e-14 1.3211653993e-13 2.0631594853e+01 -4.0526293243e-15 2.0974500475e-14 -4.0526293243e-15 1.7554498649e+01" charge=-1 multiplicity=1 method=wB97M-V basis=def2-svpd config_type=oh- sample_index=451 temperature=300.0 units=atomic
O         0.0000000000       0.0000000000       0.1035622342   2.723979352198e-16   6.930420364581e-17   3.219190494978e-02
H        -0.0000000000      -0.0000000000      -0.8321907160   8.229987044601e-17  -2.371790726016e-17  -3.219201906923e-02
2
Properties=species:S:1:pos:R:3:forces:R:3 energy=-7.571730467017e+01 dipole="7.6687026065e-16 4.1770265221e-16 -5.9292835942e-01" quadrupole="-7.9830311975e+00 1.8382258743e-15 -1.2010626626e-15 1.8382258743e-15 -7.9830311975e+00 -4.4798569158e-16 -1.2010626626e-15 -4.4798569158e-16 -6.1539672979e+00" polarizability="2.0611673533e+01 -1.6453505225e-13 8.4602078272e-16 -1.6453505225e-13 2.0611673533e+01 -5.7116443009e-15 8.4602078272e-16 -5.7116443009e-15 1.6940984736e+01" charge=-1 multiplicity=1 method=wB97M-V basis=def2-svpd config_type=oh- sample_index=452 temperature=300.0 units=atomic
O         0.0000000000       0.0000000000       0.1018843965   1.279074225121e-15   4.072775014705e-16   7.080715682453e-02
H        -0.0000000000      -0.0000000000      -0.8053458322   4.439652982976e-18  -6.251475160571e-18  -7.081079585700e-02
2
Properties=species:S:1:pos:R:3:forces:R:3 energy=-7.572085577447e+01 dipole="2.6791710391e-15 6.7149043031e-16 -5.6825753291e-01" quadrupole="-8.0399947017e+00 1.3171980617e-15 -1.1167244913e-15 1.3171980617e-15 -8.0399947017e+00 -3.8844946322e-16 -1.1167244913e-15 -3.8844946322e-16 -6.1870507975e+00" polarizability="2.0647808560e+01 -1.6342482922e-13 2.6206334776e-14 -1.6342482922e-13 2.0647808560e+01 8.8864746510e-15 2.6206334776e-14 8.8864746510e-15 1.8362294376e+01" charge=-1 multiplicity=1 method=wB97M-V basis=def2-svpd config_type=oh- sample_index=453 temperature=300.0 units=atomic
O        -0.0000000000      -0.0000000000       0.1056797539   4.400608402847e-16  -6.307307974681e-16  -6.743780048170e-03
H         0.0000000000       0.0000000000      -0.8660703748  -6.648365843093e-17  -5.826017387137e-17   6.743681016796e-03
2
Properties=species:S:1:pos:R:3:forces:R:3 energy=-7.572039301297e+01 dipole="-1.4887768960e-15 5.7846371604e-16 -5.6070015667e-01" quadrupole="-8.0537336075e+00 1.5989656614e-15 3.5189509472e-15 1.5989656614e-15 -8.0537336075e+00 -1.4333933257e-16 3.5189509472e-15 -1.4333933257e-16 -6.1970179143e+00" polarizability="2.0652322536e+01 -1.1235457009e-13 -4.9823004246e-14 -1.1235457009e-13 2.0652322536e+01 -5.5589466150e-15 -4.9823004246e-14 -5.5589466150e-15 1.8755462793e+01" charge=-1 multiplicity=1 method=wB97M-V basis=def2-svpd config_type=oh- sample_index=454 temperature=300.0 units=atomic
O        -0.0000000000      -0.0000000000       0.1066756498  -3.169776317541e-16  -2.590845448186e-16  -2.187721888806e-02
H         0.0000000000       0.0000000000      -0.8820044015   1.460303479909e-17   4.006365193501e-17   2.187532739626e-02
2
Properties=species:S:1:pos:R:3:forces:R:3 energy=-7.571826139543e+01 dipole="-2.3115017412e-15 -6.4732687557e-16 -5.4482917566e-01" quadrupole="-8.0787984195e+00 2.3392712387e-15 2.3277284913e-15 2.3392712387e-15 -8.0787984195e+00 1.1361212463e-15 2.3277284913e-15 1.1361212463e-15 -6.2183179928e+00" polarizability="2.0656159275e+01 -1.6964207816e-13 1.1342149656e-14 -1.6964207816e-13 2.0656159275e+01 -3.0611888578e-14 1.1342149656e-14 -3.0611888578e-14 1.9537846578e+01" charge=-1 multiplicity=1 method=wB97M-V basis=def2-svpd config_type=oh- sample_index=455 temperature=300.0 units=atomic
O        -0.0000000000      -0.0000000000       0.1085957593  -7.484328130270e-16  -1.402471300683e-15  -4.625660100607e-02
H         0.0000000000       0.0000000000      -0.9127255575  -9.675029472113e-17  -7.408621562960e-19   4.625744795129e-02
2
Properties=species:S:1:pos:R:3:forces:R:3 energy=-7.571787170954e+01 dipole="-1.8538070732e-15 -2.7876474896e-15 -5.4259657192e-01" quadrupole="-8.0819797346e+00 -2.4057515792e-15 3.1703527451e-16 -2.4057515792e-15 -8.0819797346e+00 2.9492799810e-15 3.1703527451e-16 2.9492799810e-15 -6.2213723989e+00" polarizability="2.0656235248e+01 -1.7141843500e-13 -1.9108146887e-14 -1.7141843500e-13 2.0656235248e+01 -9.9495495967e-15 -1.9108146887e-14 -9.9495495967e-15 1.9643953845e+01" charge=-1 multiplicity=1 method=wB97M-V basis=def2-svpd config_type=oh- sample_index=456 temperature=300.0 units=atomic
O        -0.0000000000      -0.0000000000       0.1088502269  -2.405918595617e-16  -1.343877130695e-17  -4.906515118783e-02
H         0.0000000000       0.0000000000      -0.9167969612   1.577442863535e-17   7.483220587985e-21   4.906631315996e-02
2
Properties=species:S:1:pos:R:3:forces:R:3 energy=-7.571356479416e+01 dipole="6.7823016926e-17 -2.6232807338e-15 -6.0001109710e-01" quadrupole="-7.9615909126e+00 2.6170052968e-15 1.0161953240e-15 2.6170052968e-15 -7.9615909126e+00 2.5390696201e-15 1.0161953240e-15 2.5390696201e-15 -6.1436470039e+00" polarizability="2.0591272135e+01 -1.0658141036e-13 -5.2954080349e-15 -1.0658141036e-13 2.0591272135e+01 -1.6332477805e-14 -5.2954080349e-15 -1.6332477805e-14 1.6475375338e+01" charge=-1 multiplicity=1 method=wB97M-V basis=def2-svpd config_type=oh- sample_index=457 temperature=300.0 units=atomic
O         0.0000000000       0.0000000000       0.1005674220   6.326164557942e-16   7.868803815574e-16   1.069056532496e-01
H        -0.0000000000      -0.0000000000      -0.7842746480  -2.643866477140e-16  -1.543854471714e-16  -1.069032549541e-01
2
Properties=species:S:1:pos:R:3:forces:R:3 energy=-7.572086940604e+01 dipole="-1.6494181220e-15 -1.5993053930e-15 -5.6876100898e-01" quadrupole="-8.0390302210e+00 2.0653686376e-15 1.5896871809e-15 2.0653686376e-15 -8.0390302210e+00 5.4584783315e-16 1.5896871809e-15 5.4584783315e-16 -6.1863885030e+00" polarizability="2.0647428445e+01 -1.0547118734e-13 7.9473860876e-15 -1.0547118734e-13 2.0647428445e+01 5.1446424284e-15 7.9473860876e-15 5.1446424284e-15 1.8335540279e+01" charge=-1 multiplicity=1 method=wB97M-V basis=def2-svpd config_type=oh- sample_index=458 temperature=300.0 units=atomic
O        -0.0000000000      -0.0000000000       0.1056111885   7.503853495890e-16   4.733034530089e-16  -5.632409906669e-03
H         0.0000000000       0.0000000000      -0.8649733492  -8.670723017241e-17   2.225768474135e-17   5.632495897239e-03
2
Properties=species:S:1:pos:R:3:forces:R:3 energy=-7.571780633300e+01 dipole="-4.8121928960e-16 9.9802168498e-16 -5.9161555270e-01" quadrupole="-7.9866870444e+00 2.6746103906e-15 3.3643337768e-16 2.6746103906e-15 -7.9866870444e+00 -3.2016517935e-16 3.3643337768e-16 -3.2016517935e-16 -6.1558100830e+00" polarizability="2.0614796090e+01 2.3447910280e-13 -7.3945429158e-15 2.3447910280e-13 2.0614796090e+01 -7.7926184092e-15 -7.3945429158e-15 -7.7926184092e-15 1.7023697791e+01" charge=-1 multiplicity=1 method=wB97M-V basis=def2-svpd config_type=oh- sample_index=459 temperature=300.0 units=atomic
O         0.0000000000       0.0000000000       0.1021143183   6.435168341324e-16  -3.379642349374e-16   6.505413552280e-02
H        -0.0000000000      -0.0000000000      -0.8090245104  -7.025181441374e-17  -7.889933782619e-17  -6.505812858220e-02
2
Properties=species:S:1:pos:R:3:forces:R:3 energy=-7.571487496450e+01 dipole="-5.4684109849e-16 -1.2016051114e-15 -5.2759770825e-01" quadrupole="-8.1015547014e+00 -1.1430265636e-15 -1.4313104485e-15 -1.1430265636e-15 -8.1015547014e+00 1.6042906908e-15 -1.4313104485e-15 1.6042906908e-15 -6.2423554253e+00" polarizability="2.0654652902e+01 -1.2567724639e-13 1.4911500825e-14 -1.2567724639e-13 2.0654652902e+01 3.0613717501e-15 1.4911500825e-14 3.0613717501e-15 2.0336060830e+01" charge=-1 multiplicity=1 method=wB97M-V basis=def2-svpd config_type=oh- sample_index=460 temperature=300.0 units=atomic
O        -0.0000000000      -0.0000000000       0.1104778761  -6.728188447276e-16   4.869428899973e-16  -6.499174955029e-02
H         0.0000000000       0.0000000000      -0.9428388446  -4.993297280864e-17  -6.358899685553e-17   6.499220159857e-02
2
Properties=species:S:1:pos:R:3:forces:R:3 energy=-7.570867469865e+01 dipole="9.4153500114e-16 4.9951576171e-16 -5.0138403193e-01" quadrupole="-8.1297832266e+00 7.5800456520e-16 -1.8786678604e-15 7.5800456520e-16 -8.1297832266e+00 -1.0483731217e-15 -1.8786678604e-15 -1.0483731217e-15 -6.2812071879e+00" polarizability="2.0646235187e+01 -1.7630341631e-13 1.1303886111e-15 -1.7630341631e-13 2.0646235187e+01 6.6333415696e-15 1.1303886111e-15 6.6333415696e-15 2.1476221600e+01" charge=-1 multiplicity=1 method=wB97M-V basis=def2-svpd config_type=oh- sample_index=461 temperature=300.0 units=atomic
O        -0.0000000000      -0.0000000000       0.1130491866   3.880240707545e-16   7.042356814300e-16  -8.399825205023e-02
H         0.0000000000       0.0000000000      -0.9839790150  -2.765840440376e-17   1.143473136084e-17   8.399897232537e-02
2
Properties=species:S:1:pos:R:3:forces:R:3 energy=-7.571680874990e+01 dipole="2.2714265819e-16 1.6971233817e-15 -5.3692559203e-01" quadrupole="-8.0897322464e+00 -3.9156790459e-16 -4.4866275512e-16 -3.9156790459e-16 -8.0897322464e+00 -6.9014072291e-16 -4.4866275512e-16 -6.9014072291e-16 -6.2292078958e+00" polarizability="2.0656030589e+01 1.1635137298e-13 2.6536303883e-14 1.1635137298e-13 2.0656030589e+01 -3.2556841270e-15 2.6536303883e-14 -3.2556841270e-15 1.9909693794e+01" charge=-1 multiplicity=1 method=wB97M-V basis=def2-svpd config_type=oh- sample_index=462 temperature=300.0 units=atomic
O        -0.0000000000      -0.0000000000       0.1094816500   1.431561724384e-16   6.442712375054e-16  -5.564894870183e-02
H         0.0000000000       0.0000000000      -0.9268995347  -2.891919068787e-18   4.260594358964e-17   5.565030092593e-02
2
Properties=species:S:1:pos:R:3:forces:R:3 energy=-7.571391559546e+01 dipole="1.6034919452e-15 1.6540162026e-15 -5.9948049666e-01" quadrupole="-7.9633085482e+00 4.6934049225e-16 1.0944039695e-15 4.6934049225e-16 -7.9633085482e+00 -1.4245795633e-15 1.0944039695e-15 -1.4245795633e-15 -6.1444473828e+00" polarizability="2.0593035765e+01 5.9119376061e-14 -1.4127119040e-14 5.9119376061e-14 2.0593035765e+01 1.5498254562e-14 -1.4127119040e-14 1.5498254562e-14 1.6511511692e+01" charge=-1 multiplicity=1 method=wB97M-V basis=def2-svpd config_type=oh- sample_index=463 temperature=300.0 units=atomic
O         0.0000000000       0.0000000000       0.1006710452  -5.621655024992e-16  -1.692713220490e-15   1.038610066357e-01
H        -0.0000000000      -0.0000000000      -0.7859325871   4.464633186448e-18   1.335125327370e-16  -1.038590766775e-01
2
Properties=species:S:1:pos:R:3:forces:R:3 energy=-7.571492120310e+01 dipole="-1.1289959791e-15 7.8658347481e-16 -5.9783873923e-01" quadrupole="-7.9685010305e+00 -9.9900132877e-16 1.9068512704e-15 -9.9900132877e-16 -7.9685010305e+00 1.4142459572e-16 1.9068512704e-15 1.4142459572e-16 -6.1468922567e+00" polarizability="2.0598231976e+01 -1.9539925233e-13 -1.5230640450e-14 -1.9539925233e-13 2.0598231976e+01 5.5268726293e-15 -1.5230640450e-14 5.5268726293e-15 1.6621948268e+01" charge=-1 multiplicity=1 method=wB97M-V basis=def2-svpd config_type=oh- sample_index=464 temperature=300.0 units=atomic
O         0.0000000000       0.0000000000       0.1009862354  -4.078830999795e-16   1.027659129148e-15   9.482146538637e-02
H        -0.0000000000      -0.0000000000      -0.7909755326  -9.881640873144e-17  -6.896614644976e-17  -9.482117029094e-02
2
Properties=species:S:1:pos:R:3:forces:R:3 energy=-7.572038965100e+01 dipole="-3.3594864619e-16 9.5040594612e-16 -5.8037018931e-01" quadrupole="-8.0147786452e+00 -1.7725256286e-15 -4.1537404578e-16 -1.7725256286e-15 -8.0147786452e+00 -6.5199094683e-16 -4.1537404578e-16 -6.5199094683e-16 -6.1710737443e+00" polarizability="2.0635187745e+01 3.6290415117e-14 -1.4558339592e-14 3.6290415117e-14 2.0635187745e+01 1.2937930920e-14 -1.4558339592e-14 1.2937930920e-14 1.7695719883e+01" charge=-1 multiplicity=1 method=wB97M-V basis=def2-svpd config_type=oh- sample_index=465 temperature=300.0 units=atomic
O         0.0000000000       0.0000000000       0.1039396869   4.181916147576e-16  -3.983031468686e-17   2.451049753247e-02
H        -0.0000000000      -0.0000000000      -0.8382298421   2.928005067344e-17  -1.104894876956e-16  -2.450931758737e-02
2
Properties=species:S:1:pos:R:3:forces:R:3 energy=-7.571841530471e+01 dipole="1.6938023023e-15 5.0996194639e-16 -5.4574080463e-01" quadrupole="-8.0774772655e+00 -2.1461835372e-15 -3.2053295012e-15 -2.1461835372e-15 -8.0774772655e+00 -1.9692761802e-15 -3.2053295012e-15 -1.9692761802e-15 -6.2170754805e+00" polarizability="2.0656100345e+01 1.6237011735e-14 1.2974265466e-14 1.6237011735e-14 2.0656100345e+01 -1.5948679430e-15 1.2974265466e-14 -1.5948679430e-15 1.9494265703e+01" charge=-1 multiplicity=1 method=wB97M-V basis=def2-svpd config_type=oh- sample_index=466 temperature=300.0 units=atomic
O        -0.0000000000      -0.0000000000       0.1084908470  -3.178112196879e-19  -5.102604204012e-16  -4.507178738882e-02
H         0.0000000000       0.0000000000      -0.9110469945   2.823360231637e-17  -4.992079203486e-17   4.507246894355e-02
2
Properties=species:S:1:pos:R:3:forces:R:3 energy=-7.572082685589e+01 dipole="-1.0334685704e-15 3.7454239807e-16 -5.6739234093e-01" quadrupole="-8.0416369727e+00 -1.2466436141e-15 -1.2833188374e-15 -1.2466436141e-15 -8.0416369727e+00 -3.3599275691e-16 -1.2833188374e-15 -3.3599275691e-16 -6.1881891646e+00" polarizability="2.0648436767e+01 -3.8191672047e-14 -8.4426380132e-15 -3.8191672047e-14 2.0648436767e+01 -7.1378113092e-15 -8.4426380132e-15 -7.1378113092e-15 1.8408097135e+01" charge=-1 multiplicity=1 method=wB97M-V basis=def2-svpd config_type=oh- sample_index=467 temperature=300.0 units=atomic
O        -0.0000000000      -0.0000000000       0.1057968976   2.821506824100e-16   1.690599198999e-17  -8.621202209186e-03
H         0.0000000000       0.0000000000      -0.8679446381   6.940047538629e-17  -4.730346151744e-17   8.620793332757e-03
2
Properties=species:S:1:pos:R:3:forces:R:3 energy=-7.572052967560e+01 dipole="-8.0095654348e-16 -1.5059809651e-15 -5.6232272429e-01" quadrupole="-8.0508947871e+00 4.1131194693e-15 6.6619806462e-16 4.1131194693e-15 -8.0508947871e+00 4.5246606698e-16 6.6619806462e-16 4.5246606698e-16 -6.1948721175e+00" polarizability="2.0651528863e+01 -1.5765166950e-13 -1.0019872293e-14 -1.5765166950e-13 2.0651528863e+01 -1.2466511670e-14 -1.0019872293e-14 -1.2466511670e-14 1.8672315321e+01" charge=-1 multiplicity=1 method=wB97M-V basis=def2-svpd config_type=oh- sample_index=468 temperature=300.0 units=atomic
O        -0.0000000000      -0.0000000000       0.1064668376   5.803350217579e-16   1.511611850690e-15  -1.885590532581e-02
H         0.0000000000       0.0000000000      -0.8786634711   1.809329956737e-18  -3.285926534557e-17   1.885417858919e-02
2
Properties=species:S:1:pos:R:3:forces:R:3 energy=-7.572040653616e+01 dipole="-2.8644471340e-15 -7.2941603355e-17 -5.6085147729e-01" quadrupole="-8.0534712802e+00 8.4525382006e-16 2.1888348924e-15 8.4525382006e-16 -8.0534712802e+00 1.2172328700e-15 2.1888348924e-15 1.2172328700e-15 -6.1968176185e+00" polarizability="2.0652252237e+01 -6.9277916737e-14 -1.1290554609e-14 -6.9277916737e-14 2.0652252237e+01 -1.3227688632e-14 -1.1290554609e-14 -1.3227688632e-14 1.8747736107e+01" charge=-1 multiplicity=1 method=wB97M-V basis=def2-svpd config_type=oh- sample_index=469 temperature=300.0 units=atomic
O        -0.0000000000      -0.0000000000       0.1066562854   1.269662695927e-15   4.440336469101e-16  -2.160030521166e-02
H         0.0000000000       0.0000000000      -0.8816945767  -7.069803206139e-17  -7.666277393784e-17   2.159842324253e-02
2
Properties=species:S:1:pos:R:3:forces:R:3 energy=-7.570206716037e+01 dipole="2.3697716833e-15 9.6718716937e-16 -4.7561165525e-01" quadrupole="-8.1520838756e+00 -2.4389489484e-15 8.0776653716e-16 -2.4389489484e-15 -8.1520838756e+00 -8.3436139590e-16 8.0776653716e-16 -8.3436139590e-16 -6.3223060077e+00" polarizability="2.0634548546e+01 1.7141843500e-13 -3.6957085541e-15 1.7141843500e-13 2.0634548546e+01 -2.9109070763e-15 -3.6957085541e-15 -2.9109070763e-15 2.2533049463e+01" charge=-1 multiplicity=1 method=wB97M-V basis=def2-svpd config_type=oh- sample_index=470 temperature=300.0 units=atomic
O        -0.0000000000      -0.0000000000       0.1153279661   3.608267569982e-16  -4.134384200449e-16  -9.583784110294e-02
H         0.0000000000       0.0000000000      -1.0204387817  -1.354635994899e-17  -2.105677013690e-17   9.583874964619e-02
2
Properties=species:S:1:pos:R:3:forces:R:3 energy=-7.571808230033e+01 dipole="1.0285613347e-15 -7.1735532982e-16 -5.4379049677e-01" quadrupole="-8.0802879351e+00 -6.2104004560e-15 -4.7202832877e-16 -6.2104004560e-15 -8.0802879351e+00 -3.5674021480e-16 -4.7202832877e-16 -3.5674021480e-16 -6.2197369501e+00" polarizability="2.0656206451e+01 5.6565863105e-14 -2.8012439703e-14 5.6565863105e-14 2.0656206451e+01 2.3003374415e-15 -2.8012439703e-14 2.3003374415e-15 1.9587319946e+01" charge=-1 multiplicity=1 method=wB97M-V basis=def2-svpd config_type=oh- sample_index=471 temperature=300.0 units=atomic
O        -0.0000000000      -0.0000000000       0.1087145762   3.997676486554e-16  -3.612262761863e-16  -4.757938605425e-02
H         0.0000000000       0.0000000000      -0.9146265915  -1.573602283879e-16   5.910273815206e-18   4.758039615876e-02
2
Properties=species:S:1:pos:R:3:forces:R:3 energy=-7.572074661436e+01 dipole="-1.0640925899e-15 3.8095208960e-16 -5.6561526087e-01" quadrupole="-8.0449516748e+00 1.5737342987e-15 5.6772344108e-16 1.5737342987e-15 -8.0449516748e+00 3.3491068730e-16 5.6772344108e-16 3.3491068730e-16 -6.1905288380e+00" polarizability="2.0649631494e+01 -3.3591185389e-14 8.3966011125e-15 -3.3591185389e-14 2.0649631494e+01 -5.3244635028e-15 8.3966011125e-15 -5.3244635028e-15 1.8501507913e+01" charge=-1 multiplicity=1 method=wB97M-V basis=def2-svpd config_type=oh- sample_index=472 temperature=300.0 units=atomic
O        -0.0000000000      -0.0000000000       0.1060348716  -2.376859582446e-16  -1.702773430657e-15  -1.235342051075e-02
H         0.0000000000       0.0000000000      -0.8717521480   6.847501096703e-17  -3.021378546065e-17   1.235243327677e-02
2
Properties=species:S:1:pos:R:3:forces:R:3 energy=-7.570787015947e+01 dipole="5.2408838723e-15 5.5122239316e-16 -6.0665360853e-01" quadrupole="-7.9382211571e+00 -4.2248487276e-16 -3.6565119755e-15 -4.2248487276e-16 -7.9382211571e+00 -1.1817000796e-15 -3.6565119755e-15 -1.1817000796e-15 -6.1330883704e+00" polarizability="2.0565127266e+01 -1.2895240431e-13 4.0398249872e-14 -1.2895240431e-13 2.0565127266e+01 1.3513986085e-14 4.0398249872e-14 1.3513986085e-14 1.6002023168e+01" charge=-1 multiplicity=1 method=wB97M-V basis=def2-svpd config_type=oh- sample_index=473 temperature=300.0 units=atomic
O         0.0000000000       0.0000000000       0.0991871713   9.855840244041e-16   8.932104976113e-16   1.511262361301e-01
H        -0.0000000000      -0.0000000000      -0.7621910645   4.409188363306e-17   5.855001310733e-17  -1.511250511560e-01
2
Properties=species:S:1:pos:R:3:forces:R:3 energy=-7.572078388892e+01 dipole="3.9090939852e-16 -8.4539116675e-16 -5.7575023761e-01" quadrupole="-8.0249229017e+00 3.0308830141e-15 7.5960055315e-16 3.0308830141e-15 -8.0249229017e+00 2.3237961960e-16 7.5960055315e-16 2.3237961960e-16 -6.1771893217e+00" polarizability="2.0640930333e+01 1.2745360323e-13 8.4797240935e-15 1.2745360323e-13 2.0640930333e+01 -5.7510191875e-15 8.4797240935e-15 -5.7510191875e-15 1.7955954989e+01" charge=-1 multiplicity=1 method=wB97M-V basis=def2-svpd config_type=oh- sample_index=474 temperature=300.0 units=atomic
O         0.0000000000       0.0000000000       0.1046270326  -1.462845991142e-15   2.014836621264e-17   1.137931826981e-02
H        -0.0000000000      -0.0000000000      -0.8492271599  -7.227029608548e-17  -7.574254648835e-18  -1.137730952126e-02
2
Properties=species:S:1:pos:R:3:forces:R:3 energy=-7.571000342660e+01 dipole="-3.9653930716e-16 2.8938497078e-16 -6.0450975938e-01" quadrupole="-7.9461719606e+00 9.4986882293e-16 6.3755955138e-16 9.4986882293e-16 -7.9461719606e+00 1.9248011833e-15 6.3755955138e-16 1.9248011833e-15 -6.1366206272e+00" polarizability="2.0574463792e+01 -9.8032693074e-14 -2.5151521597e-14 -9.8032693074e-14 2.0574463792e+01 -7.4629646832e-15 -2.5151521597e-14 -7.4629646832e-15 1.6159374828e+01" charge=-1 multiplicity=1 method=wB97M-V basis=def2-svpd config_type=oh- sample_index=475 temperature=300.0 units=atomic
O         0.0000000000       0.0000000000       0.0996507886   5.757169893026e-16   1.634298160042e-16   1.354833950090e-01
H        -0.0000000000      -0.0000000000      -0.7696087974  -5.962150426469e-17  -1.510173563308e-16  -1.354801268820e-01
2
Properties=species:S:1:pos:R:3:forces:R:3 energy=-7.572026212001e+01 dipole="8.6359397594e-16 5.5282249615e-16 -5.5931539153e-01" quadrupole="-8.0561115997e+00 -7.6989489155e-16 -2.8258420246e-16 -7.6989489155e-16 -8.0561115997e+00 -2.1941910344e-15 -2.8258420246e-16 -2.1941910344e-15 -6.1988527202e+00" polarizability="2.0652931488e+01 -2.0250467969e-13 2.2047295005e-14 -2.0250467969e-13 2.0652931488e+01 1.2104381355e-14 2.2047295005e-14 1.2104381355e-14 1.8825912935e+01" charge=-1 multiplicity=1 method=wB97M-V basis=def2-svpd config_type=oh- sample_index=476 temperature=300.0 units=atomic
O        -0.0000000000      -0.0000000000       0.1068518352  -1.580471477046e-15  -1.086873925168e-16  -2.436639112359e-02
H         0.0000000000       0.0000000000      -0.8848233122  -2.290749542130e-17  -4.400157711877e-17   2.436446750858e-02
2
Properties=species:S:1:pos:R:3:forces:R:3 energy=-7.572063146915e+01 dipole="-2.3629135510e-15 -2.2771956321e-15 -5.6371175320e-01" quadrupole="-8.0484180672e+00 -1.5858312384e-15 5.5344854251e-15 -1.5858312384e-15 -8.0484180672e+00 7.7911370122e-16 5.5344854251e-15 7.7911370122e-16 -6.1930382247e+00" polarizability="2.0650777140e+01 -3.2418512319e-14 -3.7108711258e-14 -3.2418512319e-14 2.0650777140e+01 -3.5105860830e-14 -3.7108711258e-14 -3.5105860830e-14 1.8600604805e+01" charge=-1 multiplicity=1 method=wB97M-V basis=def2-svpd config_type=oh- sample_index=477 temperature=300.0 units=atomic
O        -0.0000000000      -0.0000000000       0.1062859808  -1.461844498395e-15  -3.591341321193e-16  -1.617540325620e-02
H         0.0000000000       0.0000000000      -0.8757698175   6.146094634843e-17  -7.588257710302e-17   1.617392556855e-02
2
Properties=species:S:1:pos:R:3:forces:R:3 energy=-7.568324526224e+01 dipole="2.6653698490e-17 -3.3849498224e-16 -4.0278253155e-01" quadrupole="-8.1965571197e+00 2.7318593250e-15 6.9761702178e-16 2.7318593250e-15 -8.1965571197e+00 -9.2295836234e-16 6.9761702178e-16 -9.2295836234e-16 -6.4537644067e+00" polarizability="2.0600259579e+01 6.7945649107e-14 -1.3990704984e-14 6.7945649107e-14 2.0600259579e+01 1.2979530618e-14 -1.3990704984e-14 1.2979530618e-14 2.5292267720e+01" charge=-1 multiplicity=1 method=wB97M-V basis=def2-svpd config_type=oh- sample_index=478 temperature=300.0 units=atomic
O        -0.0000000000      -0.0000000000       0.1209189717   1.714307407988e-16   4.679553328491e-16  -1.110275881320e-01
H         0.0000000000       0.0000000000      -1.1098931404   4.095070257429e-17   9.544714266563e-18   1.110278980445e-01
2
Properties=species:S:1:pos:R:3:forces:R:3 energy=-7.571988426307e+01 dipole="-1.6931487193e-16 -1.3518241462e-15 -5.8376729453e-01" quadrupole="-8.0068420605e+00 -1.5050589240e-15 1.8112482752e-15 -1.5050589240e-15 -8.0068420605e+00 7.5336349108e-16 1.8112482752e-15 7.5336349108e-16 -6.1665361100e+00" polarizability="2.0630085096e+01 -2.2337687255e-13 9.2521118045e-15 -2.2337687255e-13 2.0630085096e+01 2.3158809531e-15 9.2521118045e-15 2.3158809531e-15 1.7498939805e+01" charge=-1 multiplicity=1 method=wB97M-V basis=def2-svpd config_type=oh- sample_index=479 temperature=300.0 units=atomic
O         0.0000000000       0.0000000000       0.1034128618   7.126684870852e-17  -5.045526719847e-16   3.532802074417e-02
H        -0.0000000000      -0.0000000000      -0.8298008030   3.386858203574e-17  -1.275285010023e-17  -3.532874029329e-02
2
Properties=species:S:1:pos:R:3:forces:R:3 energy=-7.571946385431e+01 dipole="-1.4867435067e-16 2.0400574524e-15 -5.8587002565e-01" quadrupole="-8.0017056705e+00 -6.7539114853e-16 -7.3691994056e-16 -6.7539114853e-16 -8.0017056705e+00 2.1365467403e-16 -7.3691994056e-16 2.1365467403e-16 -6.1637016781e+00" polarizability="2.0626502891e+01 -1.9939605522e-13 1.8916564368e-14 -1.9939605522e-13 2.0626502891e+01 -2.4092657224e-15 1.8916564368e-14 -2.4092657224e-15 1.7374597155e+01" charge=-1 multiplicity=1 method=wB97M-V basis=def2-svpd config_type=oh- sample_index=480 temperature=300.0 units=atomic
O         0.0000000000       0.0000000000       0.1030767425  -5.164739486787e-16  -5.544184692342e-16   4.259108719943e-02
H        -0.0000000000      -0.0000000000      -0.8244229992   2.840362627973e-17   9.545305562045e-17  -4.259319089744e-02
2
Properties=species:S:1:pos:R:3:forces:R:3 energy=-7.570248241371e+01 dipole="2.4523345289e-15 -7.9479102930e-16 -6.1095336177e-01" quadrupole="-7.9208651201e+00 7.1363891177e-16 -2.8989593074e-15 7.1363891177e-16 -7.9208651201e+00 -7.3762137787e-16 -2.8989593074e-15 -7.3762137787e-16 -6.1255212751e+00" polarizability="2.0543233950e+01 -2.0783375021e-13 1.5586006373e-14 -2.0783375021e-13 2.0543233950e+01 4.3212441591e-15 1.5586006373e-14 4.3212441591e-15 1.5670691876e+01" charge=-1 multiplicity=1 method=wB97M-V basis=def2-svpd config_type=oh- sample_index=481 temperature=300.0 units=atomic
O         0.0000000000       0.0000000000       0.0981947224  -3.451345306109e-16  -8.583005261164e-16   1.875471801518e-01
H        -0.0000000000      -0.0000000000      -0.7463121892  -1.787025483396e-16  -1.176415818846e-16  -1.875510711008e-01
2
Properties=species:S:1:pos:R:3:forces:R:3 energy=-7.571993902400e+01 dipole="-1.4423106714e-15 8.4664857246e-16 -5.5633299108e-01" quadrupole="-8.0610991152e+00 1.5605548400e-15 9.0495834244e-16 1.5605548400e-15 -8.0610991152e+00 -1.1006205210e-15 9.0495834244e-16 -1.1006205210e-15 -6.2028170410e+00" polarizability="2.0654042733e+01 5.7509552676e-14 9.6479992170e-15 5.7509552676e-14 2.0654042733e+01 5.8122726960e-15 9.6479992170e-15 5.8122726960e-15 1.8976111603e+01" charge=-1 multiplicity=1 method=wB97M-V basis=def2-svpd config_type=oh- sample_index=482 temperature=300.0 units=atomic
O        -0.0000000000      -0.0000000000       0.1072252277  -3.112118667246e-16   2.323398478182e-17  -2.946490461972e-02
H         0.0000000000       0.0000000000      -0.8907974764  -4.514731931454e-17   4.147607720905e-18   2.946322245743e-02
2
Properties=species:S:1:pos:R:3:forces:R:3 energy=-7.572086076333e+01 dipole="2.3003844628e-15 -8.7311645426e-16 -5.7389644694e-01" quadrupole="-8.0288017166e+00 2.0107670406e-15 -3.5682950506e-17 2.0107670406e-15 -8.0288017166e+00 1.7620133169e-15 -3.5682950506e-17 1.7620133169e-15 -6.1796324375e+00" polarizability="2.0642891059e+01 3.9857006584e-14 1.0605769126e-14 3.9857006584e-14 2.0642891059e+01 -5.1227522759e-15 1.0605769126e-14 -5.1227522759e-15 1.8058195510e+01" charge=-1 multiplicity=1 method=wB97M-V basis=def2-svpd config_type=oh- sample_index=483 temperature=300.0 units=atomic
O         0.0000000000       0.0000000000       0.1048942292   6.598479008475e-17   1.327864646930e-15   6.559263818014e-03
H        -0.0000000000      -0.0000000000      -0.8535022232  -7.981903545826e-17  -7.038000139426e-18  -6.557514577061e-03
2
Properties=species:S:1:pos:R:3:forces:R:3 energy=-7.571894888511e+01 dipole="-4.0386934492e-16 -2.4360608102e-17 -5.4906576894e-01" quadrupole="-8.0725453873e+00 1.6154915254e-15 5.0456456123e-16 1.6154915254e-15 -8.0725453873e+00 -8.9496184534e-16 5.0456456123e-16 -8.9496184534e-16 -6.2125656660e+00" polarizability="2.0655738728e+01 1.2168044350e-13 -1.9624737937e-14 1.2168044350e-13 2.0655738728e+01 1.6686099223e-14 -1.9624737937e-14 1.6686099223e-14 1.9334013332e+01" charge=-1 multiplicity=1 method=wB97M-V basis=def2-svpd config_type=oh- sample_index=484 temperature=300.0 units=atomic
O        -0.0000000000      -0.0000000000       0.1081030577  -2.299216333546e-16  -4.647255392407e-16  -4.055225878099e-02
H         0.0000000000       0.0000000000      -0.9048424846  -5.758126643821e-18   1.013070383118e-17   4.055219876172e-02
2
Properties=species:S:1:pos:R:3:forces:R:3 energy=-7.571585558341e+01 dipole="-1.3070054769e-15 -1.6838864044e-15 -5.3220601607e-01" quadrupole="-8.0958500070e+00 2.8159814524e-15 1.1696697154e-15 2.8159814524e-15 -8.0958500070e+00 5.6790980796e-16 1.1696697154e-15 5.6790980796e-16 -6.2358182499e+00" polarizability="2.0655477361e+01 -1.7452705947e-13 -2.1389709192e-15 -1.7452705947e-13 2.0655477361e+01 1.1115513060e-14 -2.1389709192e-15 1.1115513060e-14 2.0126996109e+01" charge=-1 multiplicity=1 method=wB97M-V basis=def2-svpd config_type=oh- sample_index=485 temperature=300.0 units=atomic
O        -0.0000000000      -0.0000000000       0.1099919194   7.902235529667e-17   1.091897046218e-15  -6.058774203198e-02
H         0.0000000000       0.0000000000      -0.9350636878   2.992171336980e-17   2.786527988147e-17   6.058873382570e-02
2
Properties=species:S:1:pos:R:3:forces:R:3 energy=-7.571890908339e+01 dipole="1.0090827951e-15 8.3501805794e-17 -5.4880752130e-01" quadrupole="-8.0729349714e+00 -9.4479543534e-16 -5.7440250989e-15 -9.4479543534e-16 -8.0729349714e+00 1.3825510637e-15 -5.7440250989e-15 1.3825510637e-15 -6.2129147427e+00" polarizability="2.0655775408e+01 1.0302869669e-13 5.2257379944e-14 1.0302869669e-13 2.0655775408e+01 -2.3403279255e-14 5.2257379944e-14 -2.3403279255e-14 1.9346534951e+01" charge=-1 multiplicity=1 method=wB97M-V basis=def2-svpd config_type=oh- sample_index=486 temperature=300.0 units=atomic
O        -0.0000000000      -0.0000000000       0.1081334734  -6.617986672563e-16   8.425385997264e-16  -4.091484656802e-02
H         0.0000000000       0.0000000000      -0.9053291277  -1.745385492143e-17  -7.553014970934e-18   4.091484981936e-02
2
Properties=species:S:1:pos:R:3:forces:R:3 energy=-7.572040646605e+01 dipole="2.0992048083e-15 5.3236308366e-16 -5.6085068825e-01" quadrupole="-8.0534726492e+00 -2.8250741489e-15 -3.3618589014e-15 -2.8250741489e-15 -8.0534726492e+00 1.3372184040e-16 -3.3618589014e-15 1.3372184040e-16 -6.1968186627e+00" polarizability="2.0652252606e+01 -7.3274719625e-14 3.3486885435e-14 -7.3274719625e-14 2.0652252606e+01 -1.5490783977e-14 3.3486885435e-14 -1.5490783977e-14 1.8747776409e+01" charge=-1 multiplicity=1 method=wB97M-V basis=def2-svpd config_type=oh- sample_index=487 temperature=300.0 units=atomic
O        -0.0000000000      -0.0000000000       0.1066563864  -5.087836188830e-16  -5.850492270918e-16  -2.160175161059e-02
H         0.0000000000       0.0000000000      -0.8816961931  -1.920393381507e-17   6.704126074383e-18   2.159986958871e-02
2
Properties=species:S:1:pos:R:3:forces:R:3 energy=-7.571077975734e+01 dipole="1.1699508683e-15 -7.0335742604e-16 -6.0364239474e-01" quadrupole="-7.9492717647e+00 1.8239750254e-15 -5.5830416790e-16 1.8239750254e-15 -7.9492717647e+00 1.7138784280e-15 -5.5830416790e-16 1.7138784280e-15 -6.1380127140e+00" polarizability="2.0577982102e+01 1.6991963392e-13 -1.4076979635e-15 1.6991963392e-13 2.0577982102e+01 -1.7044387640e-14 -1.4076979635e-15 -1.7044387640e-14 1.6221726468e+01" charge=-1 multiplicity=1 method=wB97M-V basis=def2-svpd config_type=oh- sample_index=488 temperature=300.0 units=atomic
O         0.0000000000       0.0000000000       0.0998331637   7.004777358161e-16  -4.280683236420e-16   1.295546863919e-01
H        -0.0000000000      -0.0000000000      -0.7725267420  -5.200936035267e-17  -3.752874957443e-17  -1.295510319684e-01
2
Properties=species:S:1:pos:R:3:forces:R:3 energy=-7.572090025990e+01 dipole="-2.3215212903e-15 -5.9852993800e-18 -5.7128327512e-01" quadrupole="-8.0340977489e+00 1.6775345894e-15 8.7313388366e-16 1.6775345894e-15 -8.0340977489e+00 -1.4885548080e-15 8.7313388366e-16 -1.4885548080e-15 -6.1830711956e+00" polarizability="2.0645355566e+01 1.5143442056e-13 3.6420121331e-14 1.5143442056e-13 2.0645355566e+01 1.7877304333e-14 3.6420121331e-14 1.7877304333e-14 1.8200362295e+01" charge=-1 multiplicity=1 method=wB97M-V basis=def2-svpd config_type=oh- sample_index=489 temperature=300.0 units=atomic
O         0.0000000000       0.0000000000       0.1052631607   5.952237346400e-16  -7.746057667028e-16   1.537124627817e-04
H        -0.0000000000      -0.0000000000      -0.8594050122  -1.247884599658e-16  -9.980289454054e-18  -1.527103372378e-04
2
Properties=species:S:1:pos:R:3:forces:R:3 energy=-7.571848245099e+01 dipole="2.0289601787e-15 9.4647342006e-16 -5.4614449634e-01" quadrupole="-8.0768880343e+00 3.4088051162e-17 -2.9182216337e-15 3.4088051162e-17 -8.0768880343e+00 9.8586345802e-16 -2.9182216337e-15 9.8586345802e-16 -6.2165261121e+00" polarizability="2.0656068888e+01 -2.6256774532e-14 2.1120839832e-14 -2.6256774532e-14 2.0656068888e+01 -1.7865654517e-14 2.1120839832e-14 -1.7865654517e-14 1.9474918858e+01" charge=-1 multiplicity=1 method=wB97M-V basis=def2-svpd config_type=oh- sample_index=490 temperature=300.0 units=atomic
O        -0.0000000000      -0.0000000000       0.1084441988  -8.066848111044e-16  -5.226987313525e-16  -4.453985259509e-02
H         0.0000000000       0.0000000000      -0.9103006379  -3.720097817839e-18  -1.526329884906e-17   4.454045479230e-02
2
Properties=species:S:1:pos:R:3:forces:R:3 energy=-7.572080987794e+01 dipole="-6.5767052516e-16 -1.4248238596e-15 -5.7522834210e-01" quadrupole="-8.0260254848e+00 1.0612040337e-15 -1.4329879004e-17 1.0612040337e-15 -8.0260254848e+00 5.8927550314e-16 -1.4329879004e-17 5.8927550314e-16 -6.1778775645e+00" polarizability="2.0641501014e+01 1.5365486661e-13 1.6834849698e-14 1.5365486661e-13 2.0641501014e+01 -5.7849294072e-15 1.6834849698e-14 -5.7849294072e-15 1.7984859151e+01" charge=-1 multiplicity=1 method=wB97M-V basis=def2-svpd config_type=oh- sample_index=491 temperature=300.0 units=atomic
O         0.0000000000       0.0000000000       0.1047027318   9.766172362528e-16  -3.265981687200e-16   9.998020943002e-03
H        -0.0000000000      -0.0000000000      -0.8504383235   1.080973048883e-16   2.630386051175e-17  -9.996056050610e-03
2
Properties=species:S:1:pos:R:3:forces:R:3 energy=-7.572068508542e+01 dipole="-5.2523100144e-16 -1.1078787954e-15 -5.7730662905e-01" quadrupole="-8.0215839937e+00 1.5356769065e-15 2.1933908620e-16 1.5356769065e-15 -8.0215839937e+00 6.9352535653e-16 2.1933908620e-16 6.9352535653e-16 -6.1751342630e+00" polarizability="2.0639137889e+01 -2.2115642651e-13 1.7861630571e-14 -2.2115642651e-13 2.0639137889e+01 -6.0179838408e-15 1.7861630571e-14 -6.0179838408e-15 1.7869179149e+01" charge=-1 multiplicity=1 method=wB97M-V basis=def2-svpd config_type=oh- sample_index=492 temperature=300.0 units=atomic
O         0.0000000000       0.0000000000       0.1043990016   5.029769478882e-16  -2.440195828604e-16   1.561674598885e-02
H        -0.0000000000      -0.0000000000      -0.8455787356   4.461709296015e-17   7.273957009645e-17  -1.561476312255e-02
2
Properties=species:S:1:pos:R:3:forces:R:3 energy=-7.571909936472e+01 dipole="-3.4807893392e-16 8.2180547427e-16 -5.5005980225e-01" quadrupole="-8.0710352728e+00 9.4450409176e-17 -2.3887994105e-16 9.4450409176e-17 -8.0710352728e+00 -4.9152190891e-16 -2.3887994105e-16 -4.9152190891e-16 -6.2112238287e+00" polarizability="2.0655583416e+01 -8.2600593032e-14 6.1816073296e-15 -8.2600593032e-14 2.0655583416e+01 -6.6562618807e-15 6.1816073296e-15 -6.6562618807e-15 1.9285694769e+01" charge=-1 multiplicity=1 method=wB97M-V basis=def2-svpd config_type=oh- sample_index=493 temperature=300.0 units=atomic
O        -0.0000000000      -0.0000000000       0.1079855041  -6.253821355316e-17   1.930679704360e-16  -3.913768765229e-02
H         0.0000000000       0.0000000000      -0.9029616634   1.093845751184e-16   3.201557270195e-17   3.913737961921e-02
2
Properties=species:S:1:pos:R:3:forces:R:3 energy=-7.571396093974e+01 dipole="9.8194474393e-16 -6.1305023693e-16 -5.9941043929e-01" quadrupole="-7.9635338608e+00 -3.8210177545e-15 -1.9396995751e-15 -3.8210177545e-15 -7.9635338608e+00 4.1457660493e-16 -1.9396995751e-15 4.1457660493e-16 -6.1445526712e+00" polarizability="2.0593265467e+01 3.1996627570e-13 2.2189251640e-14 3.1996627570e-13 2.0593265467e+01 9.1839077380e-15 2.2189251640e-14 9.1839077380e-15 1.6516266340e+01" charge=-1 multiplicity=1 method=wB97M-V basis=def2-svpd config_type=oh- sample_index=494 temperature=300.0 units=atomic
O         0.0000000000       0.0000000000       0.1006846614  -1.041562695162e-15  -1.840962526412e-16   1.034636416774e-01
H        -0.0000000000      -0.0000000000      -0.7861504424  -2.430608578269e-17  -3.172460675167e-17  -1.034617766722e-01
2
Properties=species:S:1:pos:R:3:forces:R:3 energy=-7.570921016101e+01 dipole="2.6249989609e-15 -4.0651841579e-16 -5.0353168861e-01" quadrupole="-8.1277067075e+00 -3.2776785102e-15 -9.9141889872e-16 -3.2776785102e-15 -8.1277067075e+00 1.5880755981e-15 -9.9141889872e-16 1.5880755981e-15 -6.2779137056e+00" polarizability="2.0647105453e+01 2.4158453016e-13 -1.9457417052e-14 2.4158453016e-13 2.0647105453e+01 -2.3891212530e-14 -1.9457417052e-14 -2.3891212530e-14 2.1385559056e+01" charge=-1 multiplicity=1 method=wB97M-V basis=def2-svpd config_type=oh- sample_index=495 temperature=300.0 units=atomic
O        -0.0000000000      -0.0000000000       0.1128492805  -2.869368412202e-16  -4.472294652991e-16  -8.275443100300e-02
H         0.0000000000       0.0000000000      -0.9807805795  -1.292935605803e-17  -1.272313239085e-17   8.275495894940e-02
2
Properties=species:S:1:pos:R:3:forces:R:3 energy=-7.572070710856e+01 dipole="9.1348117138e-16 1.5566184623e-15 -5.6490581911e-01" quadrupole="-8.0462535776e+00 2.1665708114e-15 2.5533237136e-16 2.1665708114e-15 -8.0462535776e+00 -3.7106837452e-16 2.5533237136e-16 -3.7106837452e-16 -6.1914636251e+00" polarizability="2.0650073897e+01 8.7485574340e-14 1.0318451774e-14 8.7485574340e-14 2.0650073897e+01 1.8713277274e-14 1.0318451774e-14 1.8713277274e-14 1.8538555239e+01" charge=-1 multiplicity=1 method=wB97M-V basis=def2-svpd config_type=oh- sample_index=496 temperature=300.0 units=atomic
O        -0.0000000000      -0.0000000000       0.1061289106   3.945769617097e-16   8.128788772968e-17  -1.379854847105e-02
H         0.0000000000       0.0000000000      -0.8732567429  -8.831304139613e-17  -3.240224831888e-18   1.379736089562e-02
2
Properties=species:S:1:pos:R:3:forces:R:3 energy=-7.571873534492e+01 dipole="1.3364576468e-15 4.2936691782e-15 -5.8874671189e-01" quadrupole="-7.9943762133e+00 -1.8472880367e-15 -6.4758147701e-16 -1.8472880367e-15 -7.9943762133e+00 -1.8908207813e-15 -6.4758147701e-16 -1.8908207813e-15 -6.1597816226e+00" polarizability="2.0621016879e+01 2.1138646389e-13 -7.7854429455e-15 2.1138646389e-13 2.0621016879e+01 4.2506623285e-15 -7.7854429455e-15 4.2506623285e-15 1.7201059286e+01" charge=-1 multiplicity=1 method=wB97M-V basis=def2-svpd config_type=oh- sample_index=497 temperature=300.0 units=atomic
O         0.0000000000       0.0000000000       0.1026033709   9.964743832099e-17   1.952353780390e-16   5.332164290741e-02
H        -0.0000000000      -0.0000000000      -0.8168492004  -8.355444787953e-17   2.291153738994e-17  -5.332526264625e-02
2
Properties=species:S:1:pos:R:3:forces:R:3 energy=-7.571452709553e+01 dipole="-8.2666270885e-17 -9.1234904187e-16 -5.2600984627e-01" quadrupole="-8.1034624574e+00 2.6874949974e-16 -5.7351189640e-16 2.6874949974e-16 -8.1034624574e+00 1.9201447833e-15 -5.7351189640e-16 1.9201447833e-15 -6.2446274501e+00" polarizability="2.0654311778e+01 1.5232259898e-13 -1.6010168253e-15 1.5232259898e-13 2.0654311778e+01 -4.8336488759e-15 -1.6010168253e-15 -4.8336488759e-15 2.0407425090e+01" charge=-1 multiplicity=1 method=wB97M-V basis=def2-svpd config_type=oh- sample_index=498 temperature=300.0 units=atomic
O        -0.0000000000      -0.0000000000       0.1106426695  -7.506631992340e-16   3.942411350420e-16  -6.642152677171e-02
H         0.0000000000       0.0000000000      -0.9454754878  -3.189117679882e-17   4.639709422600e-17   6.642179750367e-02
2
Properties=species:S:1:pos:R:3:forces:R:3 energy=-7.572029293609e+01 dipole="-2.3098538631e-15 2.1681984568e-17 -5.8113686885e-01" quadrupole="-8.0130246718e+00 -6.7751250627e-16 2.4195439491e-15 -6.7751250627e-16 -8.0130246718e+00 1.2081714789e-15 2.4195439491e-15 1.2081714789e-15 -6.1700534106e+00" polarizability="2.0634105704e+01 -2.8776980798e-13 -3.0522932496e-14 -2.8776980798e-13 2.0634105704e+01 5.0260507171e-15 -3.0522932496e-14 5.0260507171e-15 1.7651731914e+01" charge=-1 multiplicity=1 method=wB97M-V basis=def2-svpd config_type=oh- sample_index=499 temperature=300.0 units=atomic
O         0.0000000000       0.0000000000       0.1038224574   9.268581996249e-16   7.602747868118e-16   2.685942894400e-02
H        -0.0000000000      -0.0000000000      -0.8363542056  -2.202813747579e-17  -4.137977818194e-17  -2.685860169212e-02
