2
Properties=species:S:1:pos:R:3:forces:R:3 energy=-7.565416103586e+01 dipole="1.5795539705e-02 -2.3646300543e-02 -6.6440039647e-01" quadrupole="-4.9109688295e+00 4.7606762910e-01 -4.9913822796e-02 4.7606762910e-01 -4.4900338302e+00 4.5689403948e-02 -4.9913822796e-02 4.5689403948e-02 -3.5939267718e+00" polarizability="7.2249136432e+00 -6.1864108519e-01 -1.0825403878e-02 -6.1864108519e-01 6.6826556076e+00 5.3759863809e-02 -1.0825403878e-02 5.3759863809e-02 8.6041314366e+00" charge=0 multiplicity=2 method=wB97M-V basis=def2-svpd config_type=oh_radical sample_index=0 temperature=300.0 units=atomic
O        -0.0013465670       0.0020211466       0.1098849280  -1.922227471367e-04   2.881190682505e-04   8.103631674792e-03
H         0.0216221429      -0.0323641918      -0.8562368136   1.923974912415e-04  -2.878021652522e-04  -8.103016533348e-03
2
Properties=species:S:1:pos:R:3:forces:R:3 energy=-7.565348340354e+01 dipole="7.8645761524e-02 -1.1773781437e-01 -6.6042286538e-01" quadrupole="-4.2761755061e+00 -2.8713022628e-01 -4.5687010513e-02 -2.8713022628e-01 -5.1357748853e+00 2.6404423322e-01 -4.5687010513e-02 2.6404423322e-01 -3.5847042032e+00" polarizability="6.4867037445e+00 3.0057031718e-01 -3.6751455750e-01 3.0057031718e-01 7.6851809089e+00 2.9210539863e-01 -3.6751455750e-01 2.9210539863e-01 9.0270779745e+00" charge=0 multiplicity=2 method=wB97M-V basis=def2-svpd config_type=oh_radical sample_index=1 temperature=300.0 units=atomic
O        -0.0068589078       0.0102949638       0.1108451820   2.984460451024e-03  -4.469288968975e-03  -2.507168151808e-02
H         0.1101350966      -0.1648510702      -0.8715999979  -2.985585731690e-03   4.469772044195e-03   2.507045593213e-02
2
Properties=species:S:1:pos:R:3:forces:R:3 energy=-7.565287907534e+01 dipole="-6.5366741124e-02 9.7858185008e-02 -6.6806506860e-01" quadrupole="-4.4004770151e+00 -4.1322615979e-01 3.2923721608e-02 -4.1322615979e-01 -5.0509859300e+00 -1.9472750574e-01 3.2923721608e-02 -1.9472750574e-01 -3.5464400025e+00" polarizability="6.6465893325e+00 4.9178869877e-01 3.2930320861e-01 4.9178869877e-01 7.5550922938e+00 -3.0018257555e-01 3.2930320861e-01 -3.0018257555e-01 9.1997191936e+00" charge=0 multiplicity=2 method=wB97M-V basis=def2-svpd config_type=oh_radical sample_index=2 temperature=300.0 units=atomic
O         0.0057370033      -0.0086110271       0.1118852122  -3.251416373047e-03   4.867702104916e-03  -3.322699338348e-02
H        -0.0921204116       0.1378865494      -0.8882395285   3.251470815990e-03  -4.867636156222e-03   3.322746076910e-02
2
Properties=species:S:1:pos:R:3:forces:R:3 energy=-7.563941812790e+01 dipole="1.4965275206e-01 -2.2403871905e-01 -6.5362846625e-01" quadrupole="-4.9625207319e+00 -5.7025033095e-01 -1.9795885286e-01 -5.7025033095e-01 -4.5329332196e+00 3.1108138281e-01 -1.9795885286e-01 3.1108138281e-01 -3.4731232840e+00" polarizability="7.7759521267e+00 3.8670728939e-01 -8.6902406063e-01 3.8670728939e-01 7.5147645210e+00 1.2805966423e+00 -8.6902406063e-01 1.2805966423e+00 1.0354676866e+01" charge=0 multiplicity=2 method=wB97M-V basis=def2-svpd config_type=oh_radical sample_index=3 temperature=300.0 units=atomic
O        -0.0139658023       0.0209621462       0.1142573784   1.875086664896e-02  -2.806930861686e-02  -8.189406309284e-02
H         0.2242521729      -0.3356623985      -0.9261920131  -1.875109401501e-02   2.807137862470e-02   8.189654727888e-02
2
Properties=species:S:1:pos:R:3:forces:R:3 energy=-7.565079457185e+01 dipole="-9.1201333387e-02 1.3653243457e-01 -6.2999448135e-01" quadrupole="-4.1595742090e+00 1.5484578620e-01 1.1539440416e-01 1.5484578620e-01 -5.0638887656e+00 -3.4087712722e-01 1.1539440416e-01 -3.4087712722e-01 -3.7525083273e+00" polarizability="6.2679637335e+00 -2.6920383795e-01 1.8941961099e-01 -2.6920383795e-01 7.4647520545e+00 -7.2569421591e-02 1.8941961099e-01 -7.2569421591e-02 7.9362856938e+00" charge=0 multiplicity=2 method=wB97M-V basis=def2-svpd config_type=oh_radical sample_index=4 temperature=300.0 units=atomic
O         0.0075369838      -0.0113127303       0.1052931602   9.456449834109e-03  -1.415381954519e-02   6.530714970458e-02
H        -0.1210231214       0.1811483505      -0.7827727378  -9.454278613369e-03   1.415413738155e-02  -6.530964251618e-02
2
Properties=species:S:1:pos:R:3:forces:R:3 energy=-7.565372540201e+01 dipole="-7.6787986749e-02 1.1495665490e-01 -6.5960985617e-01" quadrupole="-4.2639178585e+00 -2.7170560865e-01 4.4880098865e-02 -2.7170560865e-01 -5.1411978118e+00 -2.5930255406e-01 4.4880098865e-02 -2.5930255406e-01 -3.5913535719e+00" polarizability="6.4623023961e+00 2.8430168374e-01 3.5036365730e-01 2.8430168374e-01 7.6769509936e+00 -2.7175054568e-01 3.5036365730e-01 -2.7175054568e-01 8.9581935829e+00" charge=0 multiplicity=2 method=wB97M-V basis=def2-svpd config_type=oh_radical sample_index=5 temperature=300.0 units=atomic
O         0.0066752512      -0.0100193021       0.1105876037  -2.425517113958e-03   3.631886285123e-03  -2.084300434745e-02
H        -0.1071860795       0.1604369584      -0.8674789824   2.426496975727e-03  -3.632636447107e-03   2.084164680332e-02
2
Properties=species:S:1:pos:R:3:forces:R:3 energy=-7.561993456032e+01 dipole="-2.5314234853e-01 3.7896532069e-01 -5.7223723818e-01" quadrupole="-5.0946021082e+00 -2.5678355159e-01 7.4294452605e-01 -2.5678355159e-01 -3.9973699485e+00 -5.2638922094e-01 7.4294452605e-01 -5.2638922094e-01 -3.8020825885e+00" polarizability="8.8120871957e+00 -1.0671602968e+00 1.0771353710e+00 -1.0671602968e+00 8.4552818545e+00 -2.4347905355e+00 1.0771353710e+00 -2.4347905355e+00 1.0755702674e+01" charge=0 multiplicity=2 method=wB97M-V basis=def2-svpd config_type=oh_radical sample_index=6 temperature=300.0 units=atomic
O         0.0249010115      -0.0373754856       0.1095337060  -3.810289022332e-02   5.704097341260e-02  -8.613283435194e-02
H        -0.3998413998       0.5984857205      -0.8506175845   3.810434886948e-02  -5.704267838856e-02   8.613469453034e-02
2
Properties=species:S:1:pos:R:3:forces:R:3 energy=-7.565312407866e+01 dipole="-1.5239560568e-01 2.2814473318e-01 -6.1920023168e-01" quadrupole="-5.1673507648e+00 -1.1549808593e-01 3.8078975207e-01 -1.1549808593e-01 -4.1240090747e+00 -2.2085297288e-01 3.8078975207e-01 -2.2085297288e-01 -3.6968717923e+00" polarizability="7.8200910281e+00 -1.4709926874e-01 2.8995826731e-01 -1.4709926874e-01 6.6883591796e+00 -8.9599257701e-01 2.8995826731e-01 -8.9599257701e-01 8.8169212515e+00" charge=0 multiplicity=2 method=wB97M-V basis=def2-svpd config_type=oh_radical sample_index=7 temperature=300.0 units=atomic
O         0.0133436698      -0.0200283485       0.1074532979  -6.926349557629e-03   1.037012504467e-02  -2.813750989929e-02
H        -0.2142624444       0.3207096951      -0.8173329606   6.925895515366e-03  -1.036993644581e-02   2.814359373164e-02
2
Properties=species:S:1:pos:R:3:forces:R:3 energy=-7.565419933803e+01 dipole="-6.8246230296e-02 1.0216817813e-01 -6.5443713415e-01" quadrupole="-4.2052968865e+00 -1.8509650475e-01 4.2747750803e-02 -1.8509650475e-01 -5.1601311628e+00 -2.3698642066e-01 4.2747750803e-02 -2.3698642066e-01 -3.6279139063e+00" polarizability="6.3473344961e+00 1.8782131921e-01 2.6916583366e-01 1.8782131921e-01 7.6278117981e+00 -1.7875798976e-01 2.6916583366e-01 -1.7875798976e-01 8.5913602568e+00" charge=0 multiplicity=2 method=wB97M-V basis=def2-svpd config_type=oh_radical sample_index=8 temperature=300.0 units=atomic
O         0.0058289978      -0.0087491073       0.1091386387   5.142460396955e-04  -7.682838335628e-04   4.925916200972e-03
H        -0.0935975884       0.1400975992      -0.8442968695  -5.127869836794e-04   7.683209072989e-04  -4.924698285957e-03
2
Properties=species:S:1:pos:R:3:forces:R:3 energy=-7.564930540133e+01 dipole="4.9082049340e-02 -7.3478498100e-02 -6.8339772735e-01" quadrupole="-4.4097655632e+00 -3.8846471094e-01 -3.2416959648e-02 -3.8846471094e-01 -5.1201013976e+00 1.5950981966e-01 -3.2416959648e-02 1.5950981966e-01 -3.4662688539e+00" polarizability="6.6883069943e+00 4.8774175767e-01 -2.8106602100e-01 4.8774175767e-01 7.6748659533e+00 2.7122238906e-01 -2.8106602100e-01 2.7122238906e-01 9.8222455188e+00" charge=0 multiplicity=2 method=wB97M-V basis=def2-svpd config_type=oh_radical sample_index=9 temperature=300.0 units=atomic
O        -0.0044085510       0.0066170699       0.1146440342   4.210344922110e-03  -6.302613933505e-03  -5.860671791062e-02
H         0.0707891404      -0.1059577365      -0.9323781516  -4.209061804101e-03   6.301620527009e-03   5.860794568381e-02
2
Properties=species:S:1:pos:R:3:forces:R:3 energy=-7.564759036587e+01 dipole="-1.5202927165e-02 2.2759014152e-02 -6.9232618060e-01" quadrupole="-4.2645134758e+00 -6.9386444195e-02 1.7760988819e-02 -6.9386444195e-02 -5.3063213127e+00 -6.2723323708e-02 1.7760988819e-02 -6.2723323708e-02 -3.4239590407e+00" polarizability="6.4865992977e+00 9.0396990612e-02 8.2202152871e-02 9.0396990612e-02 7.9003999870e+00 -7.4112125756e-02 8.2202152871e-02 -7.4112125756e-02 1.0090280592e+01" charge=0 multiplicity=2 method=wB97M-V basis=def2-svpd config_type=oh_radical sample_index=10 temperature=300.0 units=atomic
O         0.0013766025      -0.0020662288       0.1159565567  -1.459329132054e-03   2.183743595334e-03  -6.648728565176e-02
H        -0.0221044298       0.0330860826      -0.9533773099   1.459459186364e-03  -2.185542260100e-03   6.648796295511e-02
2
Properties=species:S:1:pos:R:3:forces:R:3 energy=-7.565235761665e+01 dipole="-8.0814298720e-02 1.2098376667e-01 -6.6465681789e-01" quadrupole="-4.3110189449e+00 -3.2128846403e-01 4.8380019367e-02 -3.2128846403e-01 -5.1285348816e+00 -2.6968388969e-01 4.8380019367e-02 -2.6968388969e-01 -3.5572018160e+00" polarizability="6.5564857281e+00 3.3973302390e-01 4.0577790524e-01 3.3973302390e-01 7.7162230203e+00 -3.4511700803e-01 4.0577790524e-01 -3.4511700803e-01 9.2730620092e+00" charge=0 multiplicity=2 method=wB97M-V basis=def2-svpd config_type=oh_radical sample_index=11 temperature=300.0 units=atomic
O         0.0071242155      -0.0106931806       0.1118443517  -4.640896770459e-03   6.950619237735e-03  -3.818008235604e-02
H        -0.1143952038       0.1712276318      -0.8875857976   4.642221635481e-03  -6.950073949562e-03   3.818074620424e-02
2
Properties=species:S:1:pos:R:3:forces:R:3 energy=-7.565216244963e+01 dipole="1.0959852255e-01 -1.6407430899e-01 -6.5188283264e-01" quadrupole="-5.0758662542e+00 2.8712736453e-01 -3.4958083096e-01 2.8712736453e-01 -4.2942012751e+00 2.6663855213e-01 -3.4958083096e-01 2.6663855213e-01 -3.6239106432e+00" polarizability="7.6272297969e+00 -5.4456223253e-01 -1.6482806296e-01 -5.4456223253e-01 6.7211299767e+00 5.8843651399e-01 -1.6482806296e-01 5.8843651399e-01 9.2470109907e+00" charge=0 multiplicity=2 method=wB97M-V basis=def2-svpd config_type=oh_radical sample_index=12 temperature=300.0 units=atomic
O        -0.0096761392       0.0145235225       0.1108010687   6.568241685586e-03  -9.841122237830e-03  -3.909380426736e-02
H         0.1553720433      -0.2325620841      -0.8708942255  -6.571713959122e-03   9.840248882830e-03   3.909327955965e-02
2
Properties=species:S:1:pos:R:3:forces:R:3 energy=-7.565327088543e+01 dipole="-9.4754593653e-02 1.4185193289e-01 -6.3604749815e-01" quadrupole="-4.1802465789e+00 1.5491119221e-01 1.2745239488e-01 1.5491119221e-01 -5.0795542586e+00 -3.6268688055e-01 1.2745239488e-01 -3.6268688055e-01 -3.7250634444e+00" polarizability="6.3216835497e+00 -2.8829966638e-01 2.3139848686e-01 -2.8829966638e-01 7.5445774982e+00 -1.2698611147e-01 2.3139848686e-01 -1.2698611147e-01 8.2437676452e+00" charge=0 multiplicity=2 method=wB97M-V basis=def2-svpd config_type=oh_radical sample_index=13 temperature=300.0 units=atomic
O         0.0079628552      -0.0119519474       0.1066856860   4.813789210701e-03  -7.203105704779e-03   3.229574286749e-02
H        -0.1278614390       0.1913839975      -0.8050518748  -4.811114667164e-03   7.202481421991e-03  -3.229426166691e-02
2
Properties=species:S:1:pos:R:3:forces:R:3 energy=-7.565362229778e+01 dipole="-5.6310802680e-02 8.4299749004e-02 -6.6694858598e-01" quadrupole="-4.3287994559e+00 -3.4825795426e-01 2.8630490346e-02 -3.4825795426e-01 -5.1072864476e+00 -1.7772850027e-01 2.8630490346e-02 -1.7772850027e-01 -3.5618857820e+00" polarizability="6.5275715080e+00 4.1903214295e-01 2.6851266537e-01 4.1903214295e-01 7.5857464433e+00 -2.2432678545e-01 2.6851266537e-01 -2.2432678545e-01 9.0295580260e+00" charge=0 multiplicity=2 method=wB97M-V basis=def2-svpd config_type=oh_radical sample_index=14 temperature=300.0 units=atomic
O         0.0049022302      -0.0073580639       0.1113123135  -1.942389379407e-03   2.910152030784e-03  -2.300073300100e-02
H        -0.0787162634       0.1178231160      -0.8790736738   1.942125820288e-03  -2.907388934707e-03   2.299953385102e-02
2
Properties=species:S:1:pos:R:3:forces:R:3 energy=-7.565281132328e+01 dipole="-1.2312679745e-01 1.8432701465e-01 -6.4141125687e-01" quadrupole="-5.1608974444e+00 1.1200677287e-01 3.6235815868e-01 1.1200677287e-01 -4.1815421972e+00 -2.3428218210e-01 3.6235815868e-01 -2.3428218210e-01 -3.6500503195e+00" polarizability="7.7515833432e+00 -3.4753629935e-01 1.9562923842e-01 -3.4753629935e-01 6.6179087752e+00 -7.0146767080e-01 1.9562923842e-01 -7.0146767080e-01 9.0518537752e+00" charge=0 multiplicity=2 method=wB97M-V basis=def2-svpd config_type=oh_radical sample_index=15 temperature=300.0 units=atomic
O         0.0108129812      -0.0162298798       0.1095726667  -6.255002111678e-03   9.371679218377e-03  -3.260506171757e-02
H        -0.1736265826       0.2598856207      -0.8512409206   6.258338279374e-03  -9.370521693231e-03   3.260501021564e-02
2
Properties=species:S:1:pos:R:3:forces:R:3 energy=-7.565298544637e+01 dipole="-1.9450008490e-02 2.9116819933e-02 -6.7698519972e-01" quadrupole="-4.2166256420e+00 -9.8409005063e-03 2.1623607279e-02 -9.8409005063e-03 -5.2617193456e+00 -7.7666111500e-02 2.1623607279e-02 -7.7666111500e-02 -3.5214272655e+00" polarizability="6.3673363757e+00 8.1092845405e-03 8.3215460250e-02 8.1092845405e-03 7.7554812876e+00 -6.4575989547e-02 8.3215460250e-02 -6.4575989547e-02 9.2463929701e+00" charge=0 multiplicity=2 method=wB97M-V basis=def2-svpd config_type=oh_radical sample_index=16 temperature=300.0 units=atomic
O         0.0017052952      -0.0025595842       0.1126114672  -9.324271294784e-04   1.394025306095e-03  -3.245560362233e-02
H        -0.0273823261       0.0409860789      -0.8998589422   9.321904094417e-04  -1.396228553090e-03   3.245648233934e-02
2
Properties=species:S:1:pos:R:3:forces:R:3 energy=-7.565360368142e+01 dipole="2.6401314372e-02 -3.9524188406e-02 -6.7304850293e-01" quadrupole="-4.6047827953e+00 5.0432072602e-01 -7.4197392955e-02 5.0432072602e-01 -4.8492634049e+00 1.0087010982e-01 -7.4197392955e-02 1.0087010982e-01 -3.5451526556e+00" polarizability="6.8708757458e+00 -6.7304932779e-01 -4.7388131968e-02 -6.7304932779e-01 7.2001519096e+00 8.4373320675e-02 -4.7388131968e-02 8.4373320675e-02 9.0797325162e+00" charge=0 multiplicity=2 method=wB97M-V basis=def2-svpd config_type=oh_radical sample_index=17 temperature=300.0 units=atomic
O        -0.0022989929       0.0034507023       0.1118600016   9.223307244098e-04  -1.381552285806e-03  -2.354427703897e-02
H         0.0369154701      -0.0552553631      -0.8878361823  -9.235926049791e-04   1.382988342374e-03   2.354326096067e-02
2
Properties=species:S:1:pos:R:3:forces:R:3 energy=-7.565403397884e+01 dipole="-8.1005489920e-02 1.2126940152e-01 -6.5533490371e-01" quadrupole="-4.2248562889e+00 -2.0948496622e-01 5.2490657984e-02 -2.0948496622e-01 -5.1557790838e+00 -2.8294848573e-01 5.2490657984e-02 -2.8294848573e-01 -3.6146696993e+00" polarizability="6.4067033092e+00 1.9555106759e-01 3.4636455945e-01 1.9555106759e-01 7.6909734072e+00 -2.5089686977e-01 3.4636455945e-01 -2.5089686977e-01 8.8268676942e+00" charge=0 multiplicity=2 method=wB97M-V basis=def2-svpd config_type=oh_radical sample_index=18 temperature=300.0 units=atomic
O         0.0070024853      -0.0105104681       0.1098950215  -1.617123503580e-03   2.425439333286e-03  -1.309837534925e-02
H        -0.1124405532       0.1683018955      -0.8563983006   1.619436259769e-03  -2.423836184629e-03   1.309703304023e-02
2
Properties=species:S:1:pos:R:3:forces:R:3 energy=-7.564215538892e+01 dipole="9.0793309905e-02 -1.3592174599e-01 -6.8344502939e-01" quadrupole="-5.3081868243e+00 -4.2926902004e-02 -2.6095964319e-01 -4.2926902004e-02 -4.2489307794e+00 1.8704406250e-01 -2.6095964319e-01 1.8704406250e-01 -3.4241423708e+00" polarizability="8.0523405131e+00 -8.1760307184e-02 -3.3681597293e-01 -8.1760307184e-02 6.7172297246e+00 7.8323233444e-01 -3.3681597293e-01 7.8323233444e-01 1.0509630921e+01" charge=0 multiplicity=2 method=wB97M-V basis=def2-svpd config_type=oh_radical sample_index=19 temperature=300.0 units=atomic
O        -0.0083963543       0.0126026134       0.1164709815   1.069689001260e-02  -1.601743964265e-02  -8.053457195167e-02
H         0.1348222367      -0.2018029736      -0.9616076339  -1.069795207365e-02   1.601720649452e-02   8.053583651343e-02
2
Properties=species:S:1:pos:R:3:forces:R:3 energy=-7.563399605456e+01 dipole="-1.4216238871e-01 2.1282569796e-01 -6.6720482019e-01" quadrupole="-4.5967791431e+00 -5.5021018226e-01 1.2524602016e-01 -5.5021018226e-01 -4.9308799886e+00 -4.3950299122e-01 1.2524602016e-01 -4.3950299122e-01 -3.4292048488e+00" polarizability="7.3080684875e+00 3.7635154150e-01 1.0186366404e+00 3.7635154150e-01 8.0918898018e+00 -1.1754072771e+00 1.0186366404e+00 -1.1754072771e+00 1.0933417125e+01" charge=0 multiplicity=2 method=wB97M-V basis=def2-svpd config_type=oh_radical sample_index=20 temperature=300.0 units=atomic
O         0.0134845550      -0.0202398120       0.1165540098  -1.934983886783e-02   2.896921744480e-02  -9.081470553377e-02
H        -0.2165246715       0.3240958143      -0.9629360112   1.935054860901e-02  -2.896989474692e-02   9.081607530899e-02
2
Properties=species:S:1:pos:R:3:forces:R:3 energy=-7.564027644738e+01 dipole="1.5488730633e-01 -2.3187486625e-01 -6.4825001402e-01" quadrupole="-5.0306111102e+00 -5.3941848366e-01 -2.3162874206e-01 -5.3941848366e-01 -4.4462761313e+00 2.9763242580e-01 -2.3162874206e-01 2.9763242580e-01 -3.4927515441e+00" polarizability="7.8771679347e+00 3.2029903125e-01 -8.3807996491e-01 3.2029903125e-01 7.4230448954e+00 1.3221094751e+00 -8.3807996491e-01 1.3221094751e+00 1.0232142571e+01" charge=0 multiplicity=2 method=wB97M-V basis=def2-svpd config_type=oh_radical sample_index=21 temperature=300.0 units=atomic
O        -0.0144142864       0.0216353040       0.1135857432   1.907226477729e-02  -2.855052362671e-02  -7.981844666815e-02
H         0.2314535873      -0.3464415316      -0.9154464654  -1.907231234454e-02   2.855172842761e-02   7.982180729432e-02
2
Properties=species:S:1:pos:R:3:forces:R:3 energy=-7.565392873976e+01 dipole="3.3417956271e-02 -5.0027972864e-02 -6.5962408167e-01" quadrupole="-4.9807069133e+00 4.2516028541e-01 -1.0531918882e-01 4.2516028541e-01 -4.3945987522e+00 8.6470732069e-02 -1.0531918882e-01 8.6470732069e-02 -3.6171377712e+00" polarizability="7.3087198048e+00 -5.5894928599e-01 -1.7047635405e-02 -5.5894928599e-01 6.5644198155e+00 1.1711619196e-01 -1.7047635405e-02 1.1711619196e-01 8.4722605698e+00" charge=0 multiplicity=2 method=wB97M-V basis=def2-svpd config_type=oh_radical sample_index=22 temperature=300.0 units=atomic
O        -0.0028323121       0.0042511943       0.1091482708  -9.083647984088e-04   1.359899587900e-03   1.794390967371e-02
H         0.0454791010      -0.0680734725      -0.8444509740   9.086053988539e-04  -1.359678474765e-03  -1.794139813458e-02
2
Properties=species:S:1:pos:R:3:forces:R:3 energy=-7.562365641170e+01 dipole="1.6019355456e-01 -2.3981915463e-01 -6.6772489287e-01" quadrupole="-4.5434504351e+00 -5.3607741620e-01 -1.5909619347e-01 -5.3607741620e-01 -4.9864871775e+00 5.5682891116e-01 -1.5909619347e-01 5.5682891116e-01 -3.3956937910e+00" polarizability="7.4239311446e+00 1.9952549359e-01 -1.2890547816e+00 1.9952549359e-01 8.5010475491e+00 1.4835008019e+00 -1.2890547816e+00 1.4835008019e+00 1.1656256883e+01" charge=0 multiplicity=2 method=wB97M-V basis=def2-svpd config_type=oh_radical sample_index=23 temperature=300.0 units=atomic
O        -0.0156153588       0.0234380687       0.1183623876   2.371217906008e-02  -3.549702151645e-02  -9.883461214169e-02
H         0.2507394902      -0.3753088212      -0.9918683981  -2.371308863580e-02   3.549837793071e-02   9.883670009094e-02
2
Properties=species:S:1:pos:R:3:forces:R:3 energy=-7.562159323799e+01 dipole="1.9694429738e-01 -2.9483824974e-01 -6.3775796464e-01" quadrupole="-5.2495336576e+00 -2.7561656152e-01 -5.5059555035e-01 -2.7561656152e-01 -4.1585823096e+00 4.2544736220e-01 -5.5059555035e-01 4.2544736220e-01 -3.5046974259e+00" polarizability="8.6298999768e+00 -4.6380154507e-01 -1.0394596035e+00 -4.6380154507e-01 7.8049897704e+00 2.1152369810e+00 -1.0394596035e+00 2.1152369810e+00 1.1391392401e+01" charge=0 multiplicity=2 method=wB97M-V basis=def2-svpd config_type=oh_radical sample_index=24 temperature=300.0 units=atomic
O        -0.0192954567       0.0289617578       0.1157484667   2.944043326270e-02  -4.407898636677e-02  -9.533920185986e-02
H         0.3098316875      -0.4637584822      -0.9500480607  -2.944199587778e-02   4.407851335758e-02   9.534334087989e-02
2
Properties=species:S:1:pos:R:3:forces:R:3 energy=-7.564804316336e+01 dipole="4.6864257077e-02 -7.0158702383e-02 -6.4029630402e-01" quadrupole="-4.4223700857e+00 4.5974293641e-01 -1.0907887592e-01 4.5974293641e-01 -4.8365502869e+00 1.6689561317e-01 -1.0907887592e-01 1.6689561317e-01 -3.7121173760e+00" polarizability="6.5449214554e+00 -5.8769101156e-01 -2.4769118688e-02 -5.8769101156e-01 7.0730511875e+00 3.2604332923e-02 -2.4769118688e-02 3.2604332923e-02 7.7577407891e+00" charge=0 multiplicity=2 method=wB97M-V basis=def2-svpd config_type=oh_radical sample_index=25 temperature=300.0 units=atomic
O        -0.0038275337       0.0057449848       0.1055245192  -6.864273486948e-03   1.027861579455e-02   9.380433764683e-02
H         0.0614596096      -0.0919932221      -0.7864742695   6.864909791626e-03  -1.027732132126e-02  -9.380578273620e-02
2
Properties=species:S:1:pos:R:3:forces:R:3 energy=-7.565254946460e+01 dipole="-5.4198749952e-04 8.1136743309e-04 -6.7967705794e-01" quadrupole="-4.3732796108e+00 -3.6803889794e-01 3.0623581514e-04 -3.6803889794e-01 -5.1200822559e+00 -1.7140063216e-03 3.0623581514e-04 -1.7140063216e-03 -3.5066030373e+00" polarizability="6.5781386263e+00 4.8885675699e-01 2.7916112429e-03 4.8885675699e-01 7.5700940224e+00 -2.5108048656e-03 2.7916112429e-03 -2.5108048656e-03 9.3466729872e+00" charge=0 multiplicity=2 method=wB97M-V basis=def2-svpd config_type=oh_radical sample_index=26 temperature=300.0 units=atomic
O         0.0000477036      -0.0000716014       0.1130799533  -2.971078369356e-05   4.440410846632e-05  -3.723795803595e-02
H        -0.0007659885       0.0011465375      -0.9073542910   2.969103657376e-05  -4.446133835337e-05   3.724029808816e-02
2
Properties=species:S:1:pos:R:3:forces:R:3 energy=-7.564516401550e+01 dipole="-1.5085755885e-01 2.2584178865e-01 -6.4252312029e-01" quadrupole="-5.1162936035e+00 -4.4525614580e-01 2.6681454792e-01 -4.4525614580e-01 -4.3233280845e+00 -2.5039148510e-01 2.6681454792e-01 -2.5039148510e-01 -3.5401928878e+00" polarizability="7.9109006674e+00 2.3823063105e-01 6.6385328613e-01 2.3823063105e-01 7.1359788835e+00 -1.1967719065e+00 6.6385328613e-01 -1.1967719065e+00 9.8051697706e+00" charge=0 multiplicity=2 method=wB97M-V basis=def2-svpd config_type=oh_radical sample_index=27 temperature=300.0 units=atomic
O         0.0137983135      -0.0207107518       0.1120210509  -1.618376420574e-02   2.422778008825e-02  -6.892598580457e-02
H        -0.2215627667       0.3316368743      -0.8904128227   1.618374949973e-02  -2.422812032590e-02   6.892788730850e-02
2
Properties=species:S:1:pos:R:3:forces:R:3 energy=-7.565157397140e+01 dipole="5.1929235316e-02 -7.7740624418e-02 -6.7659202095e-01" quadrupole="-4.4931332335e+00 -4.6320355285e-01 -2.9412138546e-02 -4.6320355285e-01 -5.0001765642e+00 1.4639360943e-01 -2.9412138546e-02 1.4639360943e-01 -3.5049371697e+00" polarizability="6.7758139076e+00 5.8126710884e-01 -2.7806088197e-01 5.8126710884e-01 7.4838012494e+00 2.7954650489e-01 -2.7806088197e-01 2.7954650489e-01 9.4749875847e+00" charge=0 multiplicity=2 method=wB97M-V basis=def2-svpd config_type=oh_radical sample_index=28 temperature=300.0 units=atomic
O        -0.0046038276       0.0069101728       0.1132402669   3.464545856367e-03  -5.188885667091e-03  -4.515229352447e-02
H         0.0739247426      -0.1106511303      -0.9099191622  -3.465371186169e-03   5.188239499858e-03   4.515354425160e-02
2
Properties=species:S:1:pos:R:3:forces:R:3 energy=-7.565332323732e+01 dipole="-1.4514325160e-01 2.1728753292e-01 -6.2376767773e-01" quadrupole="-5.1164832859e+00 1.0034642595e-01 4.2185867096e-01 1.0034642595e-01 -4.1540167404e+00 -2.6722378840e-01 4.2185867096e-01 -2.6722378840e-01 -3.7187415451e+00" polarizability="7.7269243305e+00 -4.0139608908e-01 1.9538045717e-01 -4.0139608908e-01 6.6785385430e+00 -7.7362141258e-01 1.9538045717e-01 -7.7362141258e-01 8.8525561773e+00" charge=0 multiplicity=2 method=wB97M-V basis=def2-svpd config_type=oh_radical sample_index=29 temperature=300.0 units=atomic
O         0.0126818687      -0.0190350100       0.1077391995  -6.024949077893e-03   9.021537404335e-03  -2.589418093741e-02
H        -0.2036357499       0.3048035760      -0.8219071250   6.025385585136e-03  -9.021583936824e-03   2.589787228073e-02
2
Properties=species:S:1:pos:R:3:forces:R:3 energy=-7.564912422642e+01 dipole="-5.6991958193e-02 8.5318622983e-02 -6.3950332032e-01" quadrupole="-4.1268855589e+00 2.3073377763e-02 4.9007170739e-02 2.3073377763e-02 -5.1373585404e+00 -2.0560462683e-01 4.9007170739e-02 -2.0560462683e-01 -3.7092774401e+00" polarizability="6.1887881519e+00 -5.6428594362e-02 1.3953527538e-01 -5.6428594362e-02 7.4692837497e+00 -4.4287303804e-02 1.3953527538e-01 -4.4287303804e-02 7.8206221831e+00" charge=0 multiplicity=2 method=wB97M-V basis=def2-svpd config_type=oh_radical sample_index=30 temperature=300.0 units=atomic
O         0.0046742087      -0.0070158122       0.1056805743   7.444861716557e-03  -1.115006129112e-02   8.356166179134e-02
H        -0.0750548690       0.1123427123      -0.7889710083  -7.446173908850e-03   1.114740282620e-02  -8.356362261870e-02
2
Properties=species:S:1:pos:R:3:forces:R:3 energy=-7.564326185731e+01 dipole="2.0222488742e-01 -3.0274203121e-01 -5.9891838391e-01" quadrupole="-4.6110834987e+00 -6.3456289959e-01 -1.2711837024e-01 -6.3456289959e-01 -4.6939308539e+00 4.9800113174e-01 -1.2711837024e-01 4.9800113174e-01 -3.6618075619e+00" polarizability="7.4509818701e+00 1.8309083611e-01 -1.1531224825e+00 1.8309083611e-01 8.1319466260e+00 1.3053403747e+00 -1.1531224825e+00 1.3053403747e+00 9.5428368694e+00" charge=0 multiplicity=2 method=wB97M-V basis=def2-svpd config_type=oh_radical sample_index=31 temperature=300.0 units=atomic
O        -0.0186285790       0.0279607994       0.1084109250   2.311194071804e-02  -3.460139185791e-02  -6.845046189396e-02
H         0.2991234758      -0.4477303477      -0.8326541171  -2.311251147885e-02   3.460200680006e-02   6.845283595761e-02
2
Properties=species:S:1:pos:R:3:forces:R:3 energy=-7.565409542610e+01 dipole="4.1417969726e-02 -6.2004029688e-02 -6.5983027440e-01" quadrupole="-4.8771413752e+00 4.7682622692e-01 -1.2942045224e-01 4.7682622692e-01 -4.5004540441e+00 1.2118900427e-01 -1.2942045224e-01 1.2118900427e-01 -3.6158923966e+00" polarizability="7.1874268566e+00 -6.3434707038e-01 -2.6555538798e-02 -6.3434707038e-01 6.7165751703e+00 1.3341280103e-01 -2.6555538798e-02 1.3341280103e-01 8.5458183639e+00" charge=0 multiplicity=2 method=wB97M-V basis=def2-svpd config_type=oh_radical sample_index=32 temperature=300.0 units=atomic
O        -0.0035232551       0.0052882739       0.1093725290  -7.291034549878e-04   1.093772726362e-03   1.163444316587e-02
H         0.0565737360      -0.0846800085      -0.8480389002   7.298438316135e-04  -1.092169452472e-03  -1.163235092411e-02
2
Properties=species:S:1:pos:R:3:forces:R:3 energy=-7.562821733123e+01 dipole="1.7600513976e-01 -2.6349065699e-01 -6.4869892107e-01" quadrupole="-5.2382475064e+00 -3.5746112175e-01 -4.2885562692e-01 -3.5746112175e-01 -4.2342359157e+00 3.5448462150e-01 -4.2885562692e-01 3.5448462150e-01 -3.4637105663e+00" polarizability="8.4132780462e+00 -1.3532871269e-01 -9.3792318467e-01 -1.3532871269e-01 7.5382920721e+00 1.8050841360e+00 -9.3792318467e-01 1.8050841360e+00 1.1085030623e+01" charge=0 multiplicity=2 method=wB97M-V basis=def2-svpd config_type=oh_radical sample_index=33 temperature=300.0 units=atomic
O        -0.0169589482       0.0254547460       0.1157697670   2.531395778215e-02  -3.789493320817e-02  -9.329581642096e-02
H         0.2723138202      -0.4076014464      -0.9503888455  -2.531359070728e-02   3.789558687414e-02   9.329853228779e-02
2
Properties=species:S:1:pos:R:3:forces:R:3 energy=-7.563476057650e+01 dipole="8.5959739210e-02 -1.2868597789e-01 -6.1177996970e-01" quadrupole="-4.7899732493e+00 4.2021837944e-01 -2.4414129765e-01 4.2021837944e-01 -4.3257447441e+00 1.9452751860e-01 -2.4414129765e-01 1.9452751860e-01 -3.8221827534e+00" polarizability="6.9610755831e+00 -5.4549863454e-01 8.1930079052e-02 -5.4549863454e-01 6.4473592837e+00 8.0543237698e-02 8.1930079052e-02 8.0543237698e-02 7.1891983015e+00" charge=0 multiplicity=2 method=wB97M-V basis=def2-svpd config_type=oh_radical sample_index=34 temperature=300.0 units=atomic
O        -0.0067831880       0.0101813112       0.1014923829  -2.589004081247e-02   3.876126604549e-02   1.842745193585e-01
H         0.1089192462      -0.1630311757      -0.7219637833   2.589154525961e-02  -3.876216795892e-02  -1.842741719071e-01
2
Properties=species:S:1:pos:R:3:forces:R:3 energy=-7.565240474697e+01 dipole="6.3236727648e-03 -9.4664277691e-03 -6.8012596093e-01" quadrupole="-4.3369436385e+00 -3.2534548514e-01 -3.8581599943e-03 -3.2534548514e-01 -5.1593811459e+00 2.0975798467e-02 -3.8581599943e-03 2.0975798467e-02 -3.5035934535e+00" polarizability="6.5322257423e+00 4.3200565401e-01 -3.2453735910e-02 4.3200565401e-01 7.6260767645e+00 2.8372994849e-02 -3.2453735910e-02 2.8372994849e-02 9.3751934451e+00" charge=0 multiplicity=2 method=wB97M-V basis=def2-svpd config_type=oh_radical sample_index=35 temperature=300.0 units=atomic
O        -0.0005572288       0.0008363795       0.1131902029   3.592633144588e-04  -5.374501152216e-04  -3.863425735210e-02
H         0.0089475538      -0.0133927682      -0.9091181845  -3.590939193438e-04   5.378038988762e-04   3.863700278330e-02
2
Properties=species:S:1:pos:R:3:forces:R:3 energy=-7.565404740388e+01 dipole="1.2442552787e-01 -1.8627124506e-01 -6.3273375057e-01" quadrupole="-5.0654060913e+00 2.2651688510e-01 -3.7742220796e-01 2.2651688510e-01 -4.2176645081e+00 2.6011252865e-01 -3.7742220796e-01 2.6011252865e-01 -3.7076604242e+00" polarizability="7.5778993031e+00 -4.8204923716e-01 -1.1977811510e-01 -4.8204923716e-01 6.6219228992e+00 5.7838656372e-01 -1.1977811510e-01 5.7838656372e-01 8.7147926986e+00" charge=0 multiplicity=2 method=wB97M-V basis=def2-svpd config_type=oh_radical sample_index=36 temperature=300.0 units=atomic
O        -0.0107523991       0.0161389483       0.1079166423   2.398041834593e-03  -3.594648838120e-03  -1.220215990376e-02
H         0.1726538015      -0.2584295544      -0.8247460475  -2.398883856332e-03   3.592637545782e-03   1.220239325342e-02
2
Properties=species:S:1:pos:R:3:forces:R:3 energy=-7.564783754027e+01 dipole="2.1573741798e-01 -3.2297044662e-01 -5.7314752476e-01" quadrupole="-4.8327608954e+00 -6.4694542145e-01 -1.9608403158e-01 -6.4694542145e-01 -4.4296221909e+00 3.6849914451e-01 -1.9608403158e-01 3.6849914451e-01 -3.7089021597e+00" polarizability="7.7274554141e+00 1.6238013012e-01 -9.7087548911e-01 1.6238013012e-01 7.7730341268e+00 1.3519056325e+00 -9.7087548911e-01 1.3519056325e+00 8.9364241472e+00" charge=0 multiplicity=2 method=wB97M-V basis=def2-svpd config_type=oh_radical sample_index=37 temperature=300.0 units=atomic
O        -0.0195136883       0.0292893153       0.1050702826   2.043183249866e-02  -3.058251482330e-02  -5.427621203404e-02
H         0.3133358844      -0.4690035914      -0.7792069011  -2.043070778293e-02   3.058500243950e-02   5.427709940765e-02
2
Properties=species:S:1:pos:R:3:forces:R:3 energy=-7.564856935566e+01 dipole="-7.8595413297e-02 1.1766030214e-01 -6.7612174169e-01" quadrupole="-5.2143264438e+00 -2.8873170578e-01 1.6477090083e-01 -2.8873170578e-01 -4.3017044290e+00 -1.2947464246e-01 1.6477090083e-01 -1.2947464246e-01 -3.4773367187e+00" polarizability="7.8203872782e+00 2.9685967203e-01 3.0153678496e-01 2.9685967203e-01 6.6650852925e+00 -6.0962850051e-01 3.0153678496e-01 -6.0962850051e-01 9.8287954061e+00" charge=0 multiplicity=2 method=wB97M-V basis=def2-svpd config_type=oh_radical sample_index=38 temperature=300.0 units=atomic
O         0.0070849457      -0.0106342382       0.1142086334  -7.109128658597e-03   1.064659227141e-02  -6.117123526463e-02
H        -0.1137646405       0.1702837997      -0.9254121388   7.110580630819e-03  -1.064546274146e-02   6.117166243756e-02
2
Properties=species:S:1:pos:R:3:forces:R:3 energy=-7.564140153611e+01 dipole="5.6665537747e-03 -8.4830603395e-03 -7.0385337484e-01" quadrupole="-4.3694466653e+00 -2.7455182622e-01 -5.5211156131e-03 -2.7455182622e-01 -5.2704197587e+00 2.1865702514e-02 -5.5211156131e-03 2.1865702514e-02 -3.3437097126e+00" polarizability="6.6782593028e+00 3.7620841448e-01 -3.7631157676e-02 3.7620841448e-01 7.9151206025e+00 3.7666509589e-02 -3.7631157676e-02 3.7666509589e-02 1.0788409096e+01" charge=0 multiplicity=2 method=wB97M-V basis=def2-svpd config_type=oh_radical sample_index=39 temperature=300.0 units=atomic
O        -0.0005253735       0.0007885659       0.1185330996   6.803281343519e-04  -1.017978753041e-03  -8.450435954255e-02
H         0.0084360455      -0.0126271386      -0.9945996340  -6.800782433375e-04   1.018351905457e-03   8.450717219881e-02
2
Properties=species:S:1:pos:R:3:forces:R:3 energy=-7.565249907293e+01 dipole="2.4182067676e-02 -3.6203185687e-02 -6.5415502631e-01" quadrupole="-5.1127659002e+00 2.7034303770e-01 -7.1857630968e-02 2.7034303770e-01 -4.2280812191e+00 4.6197785311e-02 -7.1857630968e-02 4.6197785311e-02 -3.6450011799e+00" polarizability="7.4404899489e+00 -3.4846821340e-01 -7.9241096988e-03 -3.4846821340e-01 6.3233273486e+00 8.9678410597e-02 -7.9241096988e-03 8.9678410597e-02 8.1712346266e+00" charge=0 multiplicity=2 method=wB97M-V basis=def2-svpd config_type=oh_radical sample_index=40 temperature=300.0 units=atomic
O        -0.0020190350       0.0030304960       0.1078547050  -1.699444596049e-03   2.543385148705e-03   4.598220558238e-02
H         0.0324201205      -0.0485266888      -0.8237551076   1.699113845787e-03  -2.544148517074e-03  -4.598140830211e-02
2
Properties=species:S:1:pos:R:3:forces:R:3 energy=-7.564951508761e+01 dipole="-4.9223040345e-02 7.3688506373e-02 -6.4232146552e-01" quadrupole="-4.2695890601e+00 3.4600437924e-01 9.0367076751e-02 3.4600437924e-01 -5.0030091179e+00 -1.8649933615e-01 9.0367076751e-02 -1.8649933615e-01 -3.7024796845e+00" polarizability="6.3636060325e+00 -4.5226916977e-01 6.3472577684e-02 -4.5226916977e-01 7.2952995415e+00 -3.1150214498e-02 6.3472577684e-02 -3.1150214498e-02 7.8604893336e+00" charge=0 multiplicity=2 method=wB97M-V basis=def2-svpd config_type=oh_radical sample_index=41 temperature=300.0 units=atomic
O         0.0040436941      -0.0060694334       0.1059992576   6.136258361975e-03  -9.187298799348e-03   8.007682835782e-02
H        -0.0649305472       0.0971885486      -0.7940696496  -6.136083670808e-03   9.185167345849e-03  -8.007650363716e-02
2
Properties=species:S:1:pos:R:3:forces:R:3 energy=-7.564316881146e+01 dipole="-1.4849796035e-01 2.2231016006e-01 -6.4807156672e-01" quadrupole="-5.0721741477e+00 -4.9649098749e-01 2.3841509711e-01 -4.9649098749e-01 -4.3939180274e+00 -2.6538135050e-01 2.3841509711e-01 -2.6538135050e-01 -3.5104058730e+00" polarizability="7.8721183080e+00 3.0930475990e-01 7.3163647919e-01 3.0930475990e-01 7.2509268852e+00 -1.2204250268e+00 7.3163647919e-01 -1.2204250268e+00 1.0015772427e+01" charge=0 multiplicity=2 method=wB97M-V basis=def2-svpd config_type=oh_radical sample_index=42 temperature=300.0 units=atomic
O         0.0136839172      -0.0205390471       0.1129743541  -1.701998639658e-02   2.547728268003e-02  -7.426996284778e-02
H        -0.2197258771       0.3288874037      -0.9056648012   1.701893346095e-02  -2.547850593599e-02   7.427225860307e-02
2
Properties=species:S:1:pos:R:3:forces:R:3 energy=-7.564612057357e+01 dipole="6.8309676685e-02 -1.0226262373e-01 -6.8483068226e-01" quadrupole="-5.2964572676e+00 -1.0677188031e-01 -1.8016827189e-01 -1.0677188031e-01 -4.2553691439e+00 1.2744624562e-01 -1.8016827189e-01 1.2744624562e-01 -3.4385187426e+00" polarizability="7.9489190198e+00 7.0993740505e-02 -2.4228127852e-01 7.0993740505e-02 6.5951804072e+00 5.5605082061e-01 -2.4228127852e-01 5.5605082061e-01 1.0164297020e+01" charge=0 multiplicity=2 method=wB97M-V basis=def2-svpd config_type=oh_radical sample_index=43 temperature=300.0 units=atomic
O        -0.0062242688       0.0093423944       0.1156652264   7.049903047753e-03  -1.055542485590e-02  -7.067928739445e-02
H         0.0999445489      -0.1495977790      -0.9487162922  -7.049744692772e-03   1.055465304818e-02   7.067895891638e-02
2
Properties=species:S:1:pos:R:3:forces:R:3 energy=-7.564040474450e+01 dipole="-8.6877739107e-02 1.3006147088e-01 -6.8792468595e-01" quadrupole="-5.3143169858e+00 2.5163426004e-02 2.6430708135e-01 2.5163426004e-02 -4.2618466964e+00 -1.9271443048e-01 2.6430708135e-01 -1.9271443048e-01 -3.4017771495e+00" polarizability="8.0728755809e+00 -1.6688989286e-01 3.2449998958e-01 -1.6688989286e-01 6.7358390610e+00 -7.6472197432e-01 3.2449998958e-01 -7.6472197432e-01 1.0706587900e+01" charge=0 multiplicity=2 method=wB97M-V basis=def2-svpd config_type=oh_radical sample_index=44 temperature=300.0 units=atomic
O         0.0080818059      -0.0121304880       0.1172637874  -1.066946617739e-02   1.597242047485e-02  -8.447415333107e-02
H        -0.1297714590       0.1942429303      -0.9742918026   1.066757526015e-02  -1.597194589852e-02   8.447596027091e-02
2
Properties=species:S:1:pos:R:3:forces:R:3 energy=-7.564524021136e+01 dipole="-3.3661445273e-02 5.0391974556e-02 -6.9478865877e-01" quadrupole="-4.2912556410e+00 -1.4692369856e-01 3.6417002992e-02 -1.4692369856e-01 -5.2975320059e+00 -1.3632346048e-01 3.6417002992e-02 -1.3632346048e-01 -3.4017104839e+00" polarizability="6.5524826719e+00 1.8181776835e-01 1.9828916514e-01 1.8181776835e-01 7.9383250998e+00 -1.8539726510e-01 1.9828916514e-01 -1.8539726510e-01 1.0349962829e+01" charge=0 multiplicity=2 method=wB97M-V basis=def2-svpd config_type=oh_radical sample_index=45 temperature=300.0 units=atomic
O         0.0030779139      -0.0046198335       0.1167990700  -3.599397256136e-03   5.390358982844e-03  -7.432135973184e-02
H        -0.0494227881       0.0739764141      -0.9668567498   3.599765159276e-03  -5.390058618686e-03   7.432010844459e-02
2
Properties=species:S:1:pos:R:3:forces:R:3 energy=-7.565265106415e+01 dipole="-5.5453815307e-02 8.3016466952e-02 -6.4847163507e-01" quadrupole="-4.1500357650e+00 -9.4083686018e-03 4.8352729379e-02 -9.4083686018e-03 -5.1676853803e+00 -2.0364261269e-01 4.8352729379e-02 -2.0364261269e-01 -3.6674746995e+00" polarizability="6.2370519225e+00 -1.7989173051e-02 1.6546108861e-01 -1.7989173051e-02 7.5537745058e+00 -8.1049309535e-02 1.6546108861e-01 -8.1049309535e-02 8.1743716311e+00" charge=0 multiplicity=2 method=wB97M-V basis=def2-svpd config_type=oh_radical sample_index=46 temperature=300.0 units=atomic
O         0.0046351237      -0.0069571471       0.1074402681   3.702314946317e-03  -5.547168412703e-03   4.331257572488e-02
H        -0.0744272725       0.1114033209      -0.8171244964  -3.703372387937e-03   5.543826574879e-03  -4.331302827497e-02
2
Properties=species:S:1:pos:R:3:forces:R:3 energy=-7.564998373509e+01 dipole="2.9890037404e-02 -4.4746416269e-02 -6.8532581345e-01" quadrupole="-4.2817944534e+00 1.9493149358e-01 -5.1698705575e-02 1.9493149358e-01 -5.2475279237e+00 1.2988768241e-01 -5.1698705575e-02 1.2988768241e-01 -3.4683396154e+00" polarizability="6.4942266220e+00 -2.7499078403e-01 -1.2520004990e-01 -2.7499078403e-01 7.8030459984e+00 1.1685257112e-01 -1.2520004990e-01 1.1685257112e-01 9.7633611877e+00" charge=0 multiplicity=2 method=wB97M-V basis=def2-svpd config_type=oh_radical sample_index=47 temperature=300.0 units=atomic
O        -0.0026751940       0.0040153660       0.1145992221   2.417615635341e-03  -3.618269856437e-03  -5.544276622414e-02
H         0.0429562196      -0.0642972040      -0.9316611996  -2.417592794570e-03   3.620138574032e-03   5.544496883124e-02
2
Properties=species:S:1:pos:R:3:forces:R:3 energy=-7.565272714604e+01 dipole="2.0617589689e-02 -3.0866882080e-02 -6.5532652173e-01" quadrupole="-5.1148364323e+00 2.7313502036e-01 -6.1475255183e-02 2.7313502036e-01 -4.2322457546e+00 3.9784664362e-02 -6.1475255183e-02 3.9784664362e-02 -3.6397489306e+00" polarizability="7.4460000887e+00 -3.5111394606e-01 -7.5213504187e-03 -3.5111394606e-01 6.3283095653e+00 7.7615084395e-02 -7.5213504187e-03 7.7615084395e-02 8.2067740188e+00" charge=0 multiplicity=2 method=wB97M-V basis=def2-svpd config_type=oh_radical sample_index=48 temperature=300.0 units=atomic
O        -0.0017244079       0.0025882716       0.1080478266  -1.339378571382e-03   2.004371051351e-03   4.258645156351e-02
H         0.0276892225      -0.0414454439      -0.8268448750   1.339175029910e-03  -2.005259841527e-03  -4.258490618526e-02
2
Properties=species:S:1:pos:R:3:forces:R:3 energy=-7.565416683243e+01 dipole="-1.6684436743e-01 2.4977563288e-01 -5.9834573055e-01" quadrupole="-4.1688053588e+00 6.8277162306e-02 2.1728456550e-01 6.8277162306e-02 -4.9285896228e+00 -6.1874200041e-01 2.1728456550e-01 -6.1874200041e-01 -3.8860157335e+00" polarizability="6.4933539060e+00 -4.1545479830e-01 4.7642844981e-01 -4.1545479830e-01 7.7553448135e+00 -3.3021762051e-01 4.7642844981e-01 -3.3021762051e-01 8.5532143227e+00" charge=0 multiplicity=2 method=wB97M-V basis=def2-svpd config_type=oh_radical sample_index=49 temperature=300.0 units=atomic
O         0.0143644239      -0.0215604622       0.1047417399  -1.851677379486e-03   2.775069431526e-03  -6.649622423185e-03
H        -0.2306529332       0.3452431063      -0.7739505178   1.854243013031e-03  -2.777545732105e-03   6.652459955996e-03
2
Properties=species:S:1:pos:R:3:forces:R:3 energy=-7.564923093129e+01 dipole="5.9916134943e-02 -8.9697813322e-02 -6.8076868932e-01" quadrupole="-5.1389113329e+00 -3.8269071396e-01 -1.0478890936e-01 -3.8269071396e-01 -4.3885552520e+00 9.9785367744e-02 -1.0478890936e-01 9.9785367744e-02 -3.4680123220e+00" polarizability="7.6833975464e+00 4.6253342991e-01 -2.5442994009e-01 4.6253342991e-01 6.7163064455e+00 4.5778140181e-01 -2.5442994009e-01 4.5778140181e-01 9.7990433656e+00" charge=0 multiplicity=2 method=wB97M-V basis=def2-svpd config_type=oh_radical sample_index=50 temperature=300.0 units=atomic
O        -0.0053837186       0.0080807600       0.1144301073   5.168914094274e-03  -7.739166046353e-03  -5.872244669623e-02
H         0.0864476361      -0.1293954948      -0.9289555177  -5.168417058811e-03   7.737939721835e-03   5.872328846540e-02
2
Properties=species:S:1:pos:R:3:forces:R:3 energy=-7.564858905762e+01 dipole="-2.1499526031e-02 3.2186926203e-02 -6.4558131446e-01" quadrupole="-4.9954157892e+00 3.7797788551e-01 6.4765053174e-02 3.7797788551e-01 -4.2917891041e+00 -4.6242492502e-02 6.4765053174e-02 -4.6242492502e-02 -3.6862138728e+00" polarizability="7.2494163289e+00 -4.7316108421e-01 -5.2469599832e-03 -4.7316108421e-01 6.3790481301e+00 -5.5098244043e-02 -5.2469599832e-03 -5.5098244043e-02 7.7976887805e+00" charge=0 multiplicity=2 method=wB97M-V basis=def2-svpd config_type=oh_radical sample_index=51 temperature=300.0 units=atomic
O         0.0017595903      -0.0026410791       0.1060672489   2.978775543568e-03  -4.460629762629e-03   8.950134908096e-02
H        -0.0282541550       0.0422910392      -0.7951574478  -2.980038802301e-03   4.461530408945e-03  -8.950201203066e-02
2
Properties=species:S:1:pos:R:3:forces:R:3 energy=-7.565238206759e+01 dipole="1.1208322689e-01 -1.6779585054e-01 -6.2338010274e-01" quadrupole="-4.6094550989e+00 4.4421229801e-01 -3.0601187888e-01 4.4421229801e-01 -4.5786262428e+00 3.5063304581e-01 -3.0601187888e-01 3.5063304581e-01 -3.7912016194e+00" polarizability="6.8777677612e+00 -6.8355485927e-01 -4.6538660083e-02 -6.8355485927e-01 6.9387960716e+00 2.0580169739e-01 -4.6538660083e-02 2.0580169739e-01 8.0961845027e+00" charge=0 multiplicity=2 method=wB97M-V basis=def2-svpd config_type=oh_radical sample_index=52 temperature=300.0 units=atomic
O        -0.0093502559       0.0140343839       0.1052324974  -8.171912157222e-03   1.223014068941e-02   4.544864830336e-02
H         0.1501392585      -0.2247296111      -0.7818021891   8.171652779352e-03  -1.223482438810e-02  -4.544922078347e-02
2
Properties=species:S:1:pos:R:3:forces:R:3 energy=-7.565047810738e+01 dipole="-8.5561514235e-02 1.2809054681e-01 -6.6864440053e-01" quadrupole="-4.4655679966e+00 -4.5823729463e-01 4.9200673018e-02 -4.5823729463e-01 -5.0093042916e+00 -2.5055890017e-01 4.9200673018e-02 -2.5055890017e-01 -3.5202133085e+00" polarizability="6.7971568987e+00 5.0996491890e-01 4.6963044322e-01 5.0996491890e-01 7.6135424806e+00 -4.6566309313e-01 4.6963044322e-01 -4.6566309313e-01 9.5544222326e+00" charge=0 multiplicity=2 method=wB97M-V basis=def2-svpd config_type=oh_radical sample_index=53 temperature=300.0 units=atomic
O         0.0076369384      -0.0114627585       0.1129362947  -6.584633461072e-03   9.859003007838e-03  -5.147222386821e-02
H        -0.1226281167       0.1835507200      -0.9050558850   6.586110142058e-03  -9.860839147744e-03   5.147398732361e-02
2
Properties=species:S:1:pos:R:3:forces:R:3 energy=-7.561613685529e+01 dipole="-2.4279305470e-01 3.6347128680e-01 -5.9172707107e-01" quadrupole="-4.5833723851e+00 1.1187955725e-01 7.2050269015e-01 1.1187955725e-01 -4.3714077410e+00 -8.9128206808e-01 7.2050269015e-01 -8.9128206808e-01 -3.9300194158e+00" polarizability="8.0797945622e+00 -1.5183807526e+00 1.1677010818e+00 -1.5183807526e+00 8.9098108582e+00 -2.0115502888e+00 1.1677010818e+00 -2.0115502888e+00 1.1484099589e+01" charge=0 multiplicity=2 method=wB97M-V basis=def2-svpd config_type=oh_radical sample_index=54 temperature=300.0 units=atomic
O         0.0240989461      -0.0361716154       0.1119855892  -3.699696096505e-02   5.538393521814e-02  -9.016665417256e-02
H        -0.3869624464       0.5792084028      -0.8898454688   3.699834984031e-02  -5.538668689117e-02   9.016996611842e-02
2
Properties=species:S:1:pos:R:3:forces:R:3 energy=-7.565364719516e+01 dipole="-7.1578870850e-02 1.0715804870e-01 -6.6202814546e-01" quadrupole="-4.2844145082e+00 -2.9888155104e-01 3.9808858668e-02 -2.9888155104e-01 -5.1319880536e+00 -2.3686284803e-01 3.9808858668e-02 -2.3686284803e-01 -3.5805743856e+00" polarizability="6.4848246304e+00 3.2958385169e-01 3.3313815525e-01 3.2958385169e-01 7.6538037240e+00 -2.6528220153e-01 3.3313815525e-01 -2.6528220153e-01 8.9936312351e+00" charge=0 multiplicity=2 method=wB97M-V basis=def2-svpd config_type=oh_radical sample_index=55 temperature=300.0 units=atomic
O         0.0062293563      -0.0093500305       0.1108629264  -2.420049800364e-03   3.624487569731e-03  -2.238855740110e-02
H        -0.1000262400       0.1497200548      -0.8718838919   2.420714025602e-03  -3.624034759008e-03   2.238726199213e-02
2
Properties=species:S:1:pos:R:3:forces:R:3 energy=-7.565404579591e+01 dipole="-9.3816063468e-03 1.4044922954e-02 -6.7102149723e-01" quadrupole="-4.6828525946e+00 5.2098407726e-01 2.7596682868e-02 5.2098407726e-01 -4.7579517691e+00 -3.3840233357e-02 2.7596682868e-02 -3.3840233357e-02 -3.5576332314e+00" polarizability="6.9539483814e+00 -6.8307610853e-01 1.3042957032e-02 -6.8307610853e-01 7.0531460526e+00 -2.9305318358e-02 1.3042957032e-02 -2.9305318358e-02 8.9087524607e+00" charge=0 multiplicity=2 method=wB97M-V basis=def2-svpd config_type=oh_radical sample_index=56 temperature=300.0 units=atomic
O         0.0008107611      -0.0012169221       0.1112390572  -1.813135040942e-04   2.714130913151e-04  -1.300019618561e-02
H        -0.0130185822       0.0194863152      -0.8779016412   1.819444706684e-04  -2.723063045348e-04   1.299956838556e-02
2
Properties=species:S:1:pos:R:3:forces:R:3 energy=-7.565365172738e+01 dipole="8.8088731652e-02 -1.3187326659e-01 -6.4113919596e-01" quadrupole="-4.1556709195e+00 8.4711279318e-03 -8.5401105808e-02 8.4711279318e-03 -5.1372555311e+00 3.2826361563e-01 -8.5401105808e-02 3.2826361563e-01 -3.6944848491e+00" polarizability="6.2882384077e+00 -9.1369054498e-02 -2.7057651638e-01 -9.1369054498e-02 7.6129721001e+00 1.4816007597e-01 -2.7057651638e-01 1.4816007597e-01 8.3267295105e+00" charge=0 multiplicity=2 method=wB97M-V basis=def2-svpd config_type=oh_radical sample_index=57 temperature=300.0 units=atomic
O        -0.0074345611       0.0111589978       0.1073475409  -3.400840978297e-03   5.090098268134e-03   2.475096818861e-02
H         0.1193784968      -0.1786866635      -0.8156409458   3.399672563409e-03  -5.090596154562e-03  -2.474888598686e-02
2
Properties=species:S:1:pos:R:3:forces:R:3 energy=-7.563919160760e+01 dipole="1.6296013310e-01 -2.4396111923e-01 -6.4360324460e-01" quadrupole="-5.0651256762e+00 -5.2548902560e-01 -2.6278319385e-01 -5.2548902560e-01 -4.3994572061e+00 3.0613086397e-01 -2.6278319385e-01 3.0613086397e-01 -3.5014023448e+00" polarizability="7.9697509174e+00 2.4976175532e-01 -8.6584743840e-01 2.4976175532e-01 7.4458720650e+00 1.4163092531e+00 -8.6584743840e-01 1.4163092531e+00 1.0259360787e+01" charge=0 multiplicity=2 method=wB97M-V basis=def2-svpd config_type=oh_radical sample_index=58 temperature=300.0 units=atomic
O        -0.0152186758       0.0228426624       0.1133620224   2.050867741690e-02  -3.069936480791e-02  -8.098933913012e-02
H         0.2443698583      -0.3657747066      -0.9118671383  -2.050754320425e-02   3.070028840666e-02   8.099238481097e-02
2
Properties=species:S:1:pos:R:3:forces:R:3 energy=-7.564473502232e+01 dipole="9.8632083857e-02 -1.4765687964e-01 -6.7538557344e-01" quadrupole="-5.2427799618e+00 -2.7063010544e-01 -2.2294023894e-01 -2.7063010544e-01 -4.2883878454e+00 1.7410454239e-01 -2.2294023894e-01 1.7410454239e-01 -3.4543317079e+00" polarizability="7.9478557559e+00 2.1030959678e-01 -4.0847315712e-01 2.1030959678e-01 6.7780473069e+00 8.2913396606e-01 -4.0847315712e-01 8.2913396606e-01 1.0189129219e+01" charge=0 multiplicity=2 method=wB97M-V basis=def2-svpd config_type=oh_radical sample_index=59 temperature=300.0 units=atomic
O        -0.0090363521       0.0135632261       0.1151397523   1.074530446570e-02  -1.609176879350e-02  -7.360055152077e-02
H         0.1450988316      -0.2171850609      -0.9403091874  -1.074732385058e-02   1.609104703031e-02   7.360040281625e-02
2
Properties=species:S:1:pos:R:3:forces:R:3 energy=-7.564818846756e+01 dipole="9.3405418977e-02 -1.3983167834e-01 -6.7084783720e-01" quadrupole="-5.0179127091e+00 -4.8760786551e-01 -1.2943180141e-01 -4.8760786551e-01 -4.4905420184e+00 1.6806068123e-01 -1.2943180141e-01 1.6806068123e-01 -3.4831511835e+00" polarizability="7.5861414118e+00 5.2662948876e-01 -4.4852850316e-01 5.2662948876e-01 6.9830585834e+00 7.0617295340e-01 -4.4852850316e-01 7.0617295340e-01 9.8095054602e+00" charge=0 multiplicity=2 method=wB97M-V basis=def2-svpd config_type=oh_radical sample_index=60 temperature=300.0 units=atomic
O        -0.0084350468       0.0126606893       0.1138400523   8.657739277532e-03  -1.296653943278e-02  -6.220455077035e-02
H         0.1354435307      -0.2027329313      -0.9195151785  -8.660255520660e-03   1.296581033502e-02   6.220421098923e-02
2
Properties=species:S:1:pos:R:3:forces:R:3 energy=-7.564324068295e+01 dipole="1.0063046699e-02 -1.5065306502e-02 -6.3903486590e-01" quadrupole="-5.0788329318e+00 2.4140500695e-01 -2.8194405608e-02 2.4140500695e-01 -4.1662432872e+00 1.5971481421e-02 -2.8194405608e-02 1.5971481421e-02 -3.7149562988e+00" polarizability="7.3146173462e+00 -2.9463161618e-01 3.9683282429e-03 -2.9463161618e-01 6.2042393921e+00 2.5994221623e-02 3.9683282429e-03 2.5994221623e-02 7.5031035083e+00" charge=0 multiplicity=2 method=wB97M-V basis=def2-svpd config_type=oh_radical sample_index=61 temperature=300.0 units=atomic
O        -0.0008096054       0.0012151873       0.1046394217  -2.096177645273e-03   3.138064941883e-03   1.331688167787e-01
H         0.0130000237      -0.0194585367      -0.7723135216   2.096566535124e-03  -3.138969666635e-03  -1.331638409104e-01
2
Properties=species:S:1:pos:R:3:forces:R:3 energy=-7.565146249467e+01 dipole="-1.7437892330e-02 2.6106934014e-02 -6.5187941867e-01" quadrupole="-5.0500882140e+00 3.4420874134e-01 5.2883852912e-02 3.4420874134e-01 -4.2750187240e+00 -3.6691690006e-02 5.2883852912e-02 -3.6691690006e-02 -3.6571419595e+00" polarizability="7.3448389055e+00 -4.3633009534e-01 1.3227847402e-03 -4.3633009534e-01 6.3710013989e+00 -5.5471747424e-02 1.3227847402e-03 -5.5471747424e-02 8.0452941084e+00" charge=0 multiplicity=2 method=wB97M-V basis=def2-svpd config_type=oh_radical sample_index=62 temperature=300.0 units=atomic
O         0.0014463291      -0.0021708858       0.1073023860   1.595569592875e-03  -2.389235457371e-03   5.969424404736e-02
H        -0.0232240461       0.0347619330      -0.8149185096  -1.596278127630e-03   2.390198561174e-03  -5.969498686723e-02
2
Properties=species:S:1:pos:R:3:forces:R:3 energy=-7.564379472221e+01 dipole="-1.6573419889e-01 2.4811309900e-01 -6.3320881652e-01" quadrupole="-4.9960050181e+00 -5.5352372464e-01 2.2838724699e-01 -5.5352372464e-01 -4.4291555211e+00 -2.9952679060e-01 2.2838724699e-01 -2.9952679060e-01 -3.5497702288e+00" polarizability="7.8192088076e+00 3.0051781296e-01 8.2833597746e-01 3.0051781296e-01 7.4225278954e+00 -1.2978793571e+00 8.2833597746e-01 -1.2978793571e+00 9.8087384313e+00" charge=0 multiplicity=2 method=wB97M-V basis=def2-svpd config_type=oh_radical sample_index=63 temperature=300.0 units=atomic
O         0.0152375227      -0.0228709508       0.1114673190  -1.863714015942e-02   2.790031856551e-02  -7.120362012991e-02
H        -0.2446724863       0.3662276825      -0.8815536200   1.863757395473e-02  -2.790121075473e-02   7.120770125627e-02
2
Properties=species:S:1:pos:R:3:forces:R:3 energy=-7.565147775795e+01 dipole="-7.3410745933e-02 1.0989984294e-01 -6.3915220030e-01" quadrupole="-4.1461273134e+00 -1.0774713613e-01 4.5686730111e-02 -1.0774713613e-01 -5.1307537966e+00 -2.5302810896e-01 4.5686730111e-02 -2.5302810896e-01 -3.7028505541e+00" polarizability="6.2377751843e+00 8.5897065238e-02 2.2282426878e-01 8.5897065238e-02 7.5193134370e+00 -1.0097508991e-01 2.2282426878e-01 -1.0097508991e-01 8.0062303000e+00" charge=0 multiplicity=2 method=wB97M-V basis=def2-svpd config_type=oh_radical sample_index=64 temperature=300.0 units=atomic
O         0.0060891480      -0.0091395831       0.1062477908   6.702997186587e-03  -1.003218154883e-02   5.834328173753e-02
H        -0.0977748820       0.1463502047      -0.7980459523  -6.700700452592e-03   1.003196609349e-02  -5.834616283482e-02
2
Properties=species:S:1:pos:R:3:forces:R:3 energy=-7.564979618975e+01 dipole="-1.2468121861e-01 1.8665596389e-01 -6.5024909047e-01" quadrupole="-5.2237723909e+00 -7.3972375455e-03 3.5111566607e-01 -7.3972375455e-03 -4.1791399910e+00 -2.2747696991e-01 3.5111566607e-01 -2.2747696991e-01 -3.5873842182e+00" polarizability="7.9059974626e+00 -2.1699108536e-01 3.0150519751e-01 -2.1699108536e-01 6.6890333545e+00 -8.5233403657e-01 3.0150519751e-01 -8.5233403657e-01 9.5007708078e+00" charge=0 multiplicity=2 method=wB97M-V basis=def2-svpd config_type=oh_radical sample_index=65 temperature=300.0 units=atomic
O         0.0111705110      -0.0167665187       0.1115076905  -1.025969525383e-02   1.536356009019e-02  -5.351483344107e-02
H        -0.1793675234       0.2684787056      -0.8821995271   1.026045673041e-02  -1.536272642009e-02   5.351556995986e-02
2
Properties=species:S:1:pos:R:3:forces:R:3 energy=-7.564725542116e+01 dipole="4.2360130102e-02 -6.3414360665e-02 -6.8934890457e-01" quadrupole="-4.2839697615e+00 -1.6579918201e-01 -4.2346903082e-02 -1.6579918201e-01 -5.2747581418e+00 1.6716712974e-01 -4.2346903082e-02 1.6716712974e-01 -3.4348148869e+00" polarizability="6.5320663748e+00 1.9689480289e-01 -2.3956224964e-01 1.9689480289e-01 7.8981434877e+00 2.1795054111e-01 -2.3956224964e-01 2.1795054111e-01 1.0101035120e+01" charge=0 multiplicity=2 method=wB97M-V basis=def2-svpd config_type=oh_radical sample_index=66 temperature=300.0 units=atomic
O        -0.0038413661       0.0057657466       0.1157782612   4.141209037614e-03  -6.202358468660e-03  -6.740612435582e-02
H         0.0616817187      -0.0923256768      -0.9505247441  -4.141374578874e-03   6.200715707085e-03   6.740595395475e-02
2
Properties=species:S:1:pos:R:3:forces:R:3 energy=-7.565024239052e+01 dipole="-1.6674443488e-03 2.4961766137e-03 -6.8676835019e-01" quadrupole="-4.2665472366e+00 1.5595093241e-01 2.6881658531e-03 1.5595093241e-01 -5.2698980697e+00 -7.2007060173e-03 2.6881658531e-03 -7.2007060173e-03 -3.4619239300e+00" polarizability="6.4625263397e+00 -2.0946789564e-01 7.1935857845e-03 -2.0946789564e-01 7.8099287647e+00 -6.5022312731e-03 7.1935857845e-03 -6.5022312731e-03 9.7387300336e+00" charge=0 multiplicity=2 method=wB97M-V basis=def2-svpd config_type=oh_radical sample_index=67 temperature=300.0 units=atomic
O         0.0001490257      -0.0002236820       0.1146413050  -1.315342066538e-04   1.967999212587e-04  -5.418129913842e-02
H        -0.0023929406       0.0035817721      -0.9323344867   1.315172988946e-04  -1.969393698775e-04   5.418311547895e-02
2
Properties=species:S:1:pos:R:3:forces:R:3 energy=-7.563496449030e+01 dipole="1.5877228054e-01 -2.3769071980e-01 -6.5353285540e-01" quadrupole="-5.0258224238e+00 -5.6080809842e-01 -2.4096679480e-01 -5.6080809842e-01 -4.4792976263e+00 3.3098512765e-01 -2.4096679480e-01 3.3098512765e-01 -3.4516808354e+00" polarizability="7.9546688221e+00 3.0037970268e-01 -9.5405812328e-01 3.0037970268e-01 7.5925882486e+00 1.4693928928e+00 -9.5405812328e-01 1.4693928928e+00 1.0665847534e+01" charge=0 multiplicity=2 method=wB97M-V basis=def2-svpd config_type=oh_radical sample_index=68 temperature=300.0 units=atomic
O        -0.0150182152       0.0225417786       0.1150802002   2.135258625468e-02  -3.196549551769e-02  -8.788879011758e-02
H         0.2411510150      -0.3609567169      -0.9393564084  -2.135287974686e-02   3.196538575265e-02   8.789019029020e-02
2
Properties=species:S:1:pos:R:3:forces:R:3 energy=-7.560115993319e+01 dipole="-2.4671316884e-01 3.6934003129e-01 -6.0513084769e-01" quadrupole="-4.4005505153e+00 1.8956892034e-02 6.4416508471e-01 1.8956892034e-02 -4.5764178433e+00 -1.0619110087e+00 6.4416508471e-01 -1.0619110087e+00 -3.8534355832e+00" polarizability="8.1006373859e+00 -1.6239019232e+00 1.6698905668e+00 -1.6239019232e+00 9.6735186177e+00 -2.3616638506e+00 1.6698905668e+00 -2.3616638506e+00 1.2505367124e+01" charge=0 multiplicity=2 method=wB97M-V basis=def2-svpd config_type=oh_radical sample_index=69 temperature=300.0 units=atomic
O         0.0253323356      -0.0380228869       0.1153983256  -3.819586734273e-02   5.717787892950e-02  -9.367877889816e-02
H        -0.4067672717       0.6088524195      -0.9444461233   3.819510678625e-02  -5.717924587083e-02   9.368369462246e-02
2
Properties=species:S:1:pos:R:3:forces:R:3 energy=-7.565317623366e+01 dipole="4.1563510021e-02 -6.2222579284e-02 -6.7286764292e-01" quadrupole="-4.6091726415e+00 4.9874379994e-01 -1.1746486107e-01 4.9874379994e-01 -4.8451599558e+00 1.5941887066e-01 -1.1746486107e-01 1.5941887066e-01 -3.5447237269e+00" polarizability="6.8951223824e+00 -6.8180132574e-01 -7.9664745487e-02 -6.8180132574e-01 7.2256357917e+00 1.4097010607e-01 -7.9664745487e-02 1.4097010607e-01 9.1875611933e+00" charge=0 multiplicity=2 method=wB97M-V basis=def2-svpd config_type=oh_radical sample_index=70 temperature=300.0 units=atomic
O        -0.0036373203       0.0054594816       0.1121371269   1.847212527252e-03  -2.766776432337e-03  -2.992252791372e-02
H         0.0584053084      -0.0874215204      -0.8922699329  -1.848268176398e-03   2.767332665767e-03   2.992164845546e-02
2
Properties=species:S:1:pos:R:3:forces:R:3 energy=-7.565326542421e+01 dipole="4.5474724889e-02 -6.8077188237e-02 -6.7160903332e-01" quadrupole="-4.3424167200e+00 3.4003876366e-01 -9.4434554801e-02 3.4003876366e-01 -5.1054330269e+00 1.9012429803e-01 -9.4434554801e-02 1.9012429803e-01 -3.5509963041e+00" polarizability="6.5436459161e+00 -4.7585955021e-01 -1.3046473915e-01 -4.7585955021e-01 7.5739079502e+00 1.3085193666e-01 -1.3046473915e-01 1.3085193666e-01 9.1606401656e+00" charge=0 multiplicity=2 method=wB97M-V basis=def2-svpd config_type=oh_radical sample_index=71 temperature=300.0 units=atomic
O        -0.0039758348       0.0059675791       0.1119709530   1.942231697260e-03  -2.908746542875e-03  -2.868406091701e-02
H         0.0638409143      -0.0955575776      -0.8896113027  -1.941855820589e-03   2.908050837914e-03   2.868420303337e-02
2
Properties=species:S:1:pos:R:3:forces:R:3 energy=-7.565388375679e+01 dipole="4.0394751052e-02 -6.0472160592e-02 -6.5799874862e-01" quadrupole="-4.9564177316e+00 4.3533742191e-01 -1.2695516138e-01 4.3533742191e-01 -4.4107427796e+00 1.0672618259e-01 -1.2695516138e-01 1.0672618259e-01 -3.6247253799e+00" polarizability="7.2794344683e+00 -5.7704305733e-01 -1.9778720297e-02 -5.7704305733e-01 6.5921425654e+00 1.3673787814e-01 -1.9778720297e-02 1.3673787814e-01 8.4516792212e+00" charge=0 multiplicity=2 method=wB97M-V basis=def2-svpd config_type=oh_radical sample_index=72 temperature=300.0 units=atomic
O        -0.0034209169       0.0051346682       0.1089659864  -1.182581273197e-03   1.771171069360e-03   1.928050486372e-02
H         0.0549304682      -0.0822203524      -0.8415345912   1.183234593303e-03  -1.770523188189e-03  -1.927835652752e-02
2
Properties=species:S:1:pos:R:3:forces:R:3 energy=-7.563471983609e+01 dipole="-2.1516125684e-01 3.2210700489e-01 -5.9936216958e-01" quadrupole="-4.5508251119e+00 -6.3744321949e-01 1.4727578925e-01 -6.3744321949e-01 -4.7431449782e+00 -6.0772303863e-01 1.4727578925e-01 -6.0772303863e-01 -3.6512530502e+00" polarizability="7.5666602998e+00 5.5612290690e-03 1.3990808371e+00 5.5612290690e-03 8.5606633730e+00 -1.5578423158e+00 1.3990808371e+00 -1.5578423158e+00 1.0116236503e+01" charge=0 multiplicity=2 method=wB97M-V basis=def2-svpd config_type=oh_radical sample_index=73 temperature=300.0 units=atomic
O         0.0203664583      -0.0305692912       0.1099788856  -2.902696018457e-02   4.345493461164e-02  -8.085834863129e-02
H        -0.3270290131       0.4894995731      -0.8577400492   2.902703030405e-02  -4.345479327991e-02   8.085880812778e-02
2
Properties=species:S:1:pos:R:3:forces:R:3 energy=-7.564598692663e+01 dipole="-9.4419052637e-02 1.4134934949e-01 -6.7496285980e-01" quadrupole="-5.2203130926e+00 -3.0230121764e-01 2.0146425511e-01 -3.0230121764e-01 -4.3057510112e+00 -1.6251769500e-01 2.0146425511e-01 -1.6251769500e-01 -3.4620172269e+00" polarizability="7.8922530066e+00 2.6902809156e-01 3.9134961584e-01 2.6902809156e-01 6.7664139666e+00 -7.7493446035e-01 3.9134961584e-01 -7.7493446035e-01 1.0070082264e+01" charge=0 multiplicity=2 method=wB97M-V basis=def2-svpd config_type=oh_radical sample_index=74 temperature=300.0 units=atomic
O         0.0086079446      -0.0129202024       0.1147965778  -9.797834103553e-03   1.467311177312e-02  -7.006181150357e-02
H        -0.1382197908       0.2068884591      -0.9348187103   9.799824814052e-03  -1.467215047315e-02   7.006165847240e-02
2
Properties=species:S:1:pos:R:3:forces:R:3 energy=-7.565412907996e+01 dipole="-3.5870757870e-02 5.3700562323e-02 -6.6704089977e-01" quadrupole="-4.6251546041e+00 5.0750743224e-01 1.0163844938e-01 5.0750743224e-01 -4.7935241372e+00 -1.3182294283e-01 1.0163844938e-01 -1.3182294283e-01 -3.5787206920e+00" polarizability="6.8835695657e+00 -6.7826304738e-01 5.1466006327e-02 -6.7826304738e-01 7.1161695335e+00 -1.0359792748e-01 5.1466006327e-02 -1.0359792748e-01 8.8449724931e+00" charge=0 multiplicity=2 method=wB97M-V basis=def2-svpd config_type=oh_radical sample_index=75 temperature=300.0 units=atomic
O         0.0030926808      -0.0046419981       0.1107583770  -5.117991993880e-04   7.661264848107e-04  -9.522691858964e-03
H        -0.0496599035       0.0743313303      -0.8702111977   5.124713395414e-04  -7.671122780160e-04   9.522778050913e-03
2
Properties=species:S:1:pos:R:3:forces:R:3 energy=-7.565419676698e+01 dipole="-1.0584933708e-01 1.5846060362e-01 -6.4109626611e-01" quadrupole="-4.3027104575e+00 3.0139966434e-01 2.0701017500e-01 3.0139966434e-01 -4.9818070889e+00 -4.1595512644e-01 2.0701017500e-01 -4.1595512644e-01 -3.7072861487e+00" polarizability="6.5348706539e+00 -5.2299079725e-01 2.4307290420e-01 -5.2299079725e-01 7.5277568929e+00 -2.2563011842e-01 2.4307290420e-01 -2.2563011842e-01 8.6940740162e+00" charge=0 multiplicity=2 method=wB97M-V basis=def2-svpd config_type=oh_radical sample_index=76 temperature=300.0 units=atomic
O         0.0090992549      -0.0136576408       0.1083513186  -8.128308824012e-04   1.224475192761e-03  -4.941443503699e-03
H        -0.1461088766       0.2186969041      -0.8317004698   8.151021529956e-04  -1.221820977628e-03   4.942643324734e-03
2
Properties=species:S:1:pos:R:3:forces:R:3 energy=-7.564210401292e+01 dipole="-1.5398805512e-03 2.3053565923e-03 -6.3799886970e-01" quadrupole="-5.0695853464e+00 2.5176179082e-01 4.3232874139e-03 2.5176179082e-01 -4.1683847173e+00 -2.4608901673e-03 4.3232874139e-03 -2.4608901673e-03 -3.7194831818e+00" polarizability="7.2966365028e+00 -3.0541739768e-01 -7.2421814752e-04 -3.0541739768e-01 6.2034357897e+00 -3.7829256048e-03 -7.2421814752e-04 -3.7829256048e-03 7.4541124640e+00" charge=0 multiplicity=2 method=wB97M-V basis=def2-svpd config_type=oh_radical sample_index=77 temperature=300.0 units=atomic
O         0.0001235188      -0.0001853970       0.1044019914   3.412963440495e-04  -5.109347173388e-04   1.414640483489e-01
H        -0.0019833697       0.0029687232      -0.7685148542  -3.413611855634e-04   5.110879203453e-04  -1.414581775332e-01
2
Properties=species:S:1:pos:R:3:forces:R:3 energy=-7.565421885362e+01 dipole="3.7637870107e-02 -5.6346268027e-02 -6.6321450200e-01" quadrupole="-4.7925599716e+00 5.0519522258e-01 -1.1544262719e-01 5.0519522258e-01 -4.6039596457e+00 1.2119942728e-01 -1.1544262719e-01 1.2119942728e-01 -3.5989397836e+00" polarizability="7.0876574807e+00 -6.7166606180e-01 -3.3617963723e-02 -6.7166606180e-01 6.8561519927e+00 1.1730873335e-01 -3.3617963723e-02 1.1730873335e-01 8.6736766435e+00" charge=0 multiplicity=2 method=wB97M-V basis=def2-svpd config_type=oh_radical sample_index=78 temperature=300.0 units=atomic
O        -0.0032203288       0.0048335929       0.1099904022  -1.238431305233e-04   1.865356759284e-04   2.186051558499e-03
H         0.0517095766      -0.0773992969      -0.8579243047   1.235323429696e-04  -1.849907123985e-04  -2.184651655046e-03
2
Properties=species:S:1:pos:R:3:forces:R:3 energy=-7.564792051048e+01 dipole="-1.5555726542e-01 2.3287769075e-01 -5.8173086855e-01" quadrupole="-4.3356252730e+00 3.3227916364e-01 3.2562039999e-01 3.3227916364e-01 -4.6478458990e+00 -5.0210936072e-01 3.2562039999e-01 -5.0210936072e-01 -3.9754927066e+00" polarizability="6.5580154252e+00 -6.1080338016e-01 7.5579904494e-02 -6.1080338016e-01 7.1098705783e+00 -9.4957670798e-02 7.5579904494e-02 -9.4957670798e-02 7.6968400610e+00" charge=0 multiplicity=2 method=wB97M-V basis=def2-svpd config_type=oh_radical sample_index=79 temperature=300.0 units=atomic
O         0.0126990244      -0.0190607600       0.1007034394   2.306024237105e-02  -3.451801292797e-02   8.623629923687e-02
H        -0.2039112221       0.3052159049      -0.7093414111  -2.306160472680e-02   3.452262290469e-02  -8.623726947261e-02
2
Properties=species:S:1:pos:R:3:forces:R:3 energy=-7.565419365919e+01 dipole="6.4355640886e-02 -9.6344265145e-02 -6.5555144861e-01" quadrupole="-4.2184527159e+00 -2.1614093407e-01 -3.6871765844e-02 -2.1614093407e-01 -5.1519542477e+00 2.1869854848e-01 -3.6871765844e-02 2.1869854848e-01 -3.6230834118e+00" polarizability="6.3600225558e+00 2.3381716487e-01 -2.5815842525e-01 2.3381716487e-01 7.6075920750e+00 1.7464322440e-01 -2.5815842525e-01 1.7464322440e-01 8.5887055533e+00" charge=0 multiplicity=2 method=wB97M-V basis=def2-svpd config_type=oh_radical sample_index=80 temperature=300.0 units=atomic
O        -0.0054947733       0.0082474490       0.1092144693  -5.392064684842e-04   8.083846705118e-04   5.496486580227e-03
H         0.0882308680      -0.1320646502      -0.8455100894   5.386843240633e-04  -8.069370178921e-04  -5.494981862010e-03
2
Properties=species:S:1:pos:R:3:forces:R:3 energy=-7.565422326588e+01 dipole="-6.6273784308e-02 9.9215788568e-02 -6.5638864414e-01" quadrupole="-4.2207695563e+00 -2.1384731078e-01 3.9315689509e-02 -2.1384731078e-01 -5.1557584858e+00 -2.2695262462e-01 3.9315689509e-02 -2.2695262462e-01 -3.6177557266e+00" polarizability="6.3695962840e+00 2.2788676936e-01 2.7060111572e-01 2.2788676936e-01 7.6255902850e+00 -1.8670673376e-01 2.7060111572e-01 -1.8670673376e-01 8.6530170936e+00" charge=0 multiplicity=2 method=wB97M-V basis=def2-svpd config_type=oh_radical sample_index=81 temperature=300.0 units=atomic
O         0.0056763746      -0.0085200256       0.1094633579   5.302512727137e-05  -7.974855279208e-05   5.260502485553e-04
H        -0.0911468821       0.1364293628      -0.8494920789  -5.228164919757e-05   7.878265588779e-05  -5.250869556335e-04
2
Properties=species:S:1:pos:R:3:forces:R:3 energy=-7.563677780879e+01 dipole="2.0677163862e-01 -3.0954844437e-01 -6.0553390849e-01" quadrupole="-4.5661420391e+00 -6.2929137581e-01 -1.4155675233e-01 -6.2929137581e-01 -4.7511489135e+00 5.7308161182e-01 -1.4155675233e-01 5.7308161182e-01 -3.6347605831e+00" polarizability="7.5124626302e+00 8.0558440109e-02 -1.3192857479e+00 8.0558440109e-02 8.4222589086e+00 1.4758195254e+00 -1.3192857479e+00 1.4758195254e+00 1.0050469354e+01" charge=0 multiplicity=2 method=wB97M-V basis=def2-svpd config_type=oh_radical sample_index=82 temperature=300.0 units=atomic
O        -0.0194544041       0.0292003319       0.1102183920   2.710842394584e-02  -4.058487233469e-02  -7.938962523072e-02
H         0.3123839438      -0.4675787194      -0.8615719331  -2.710879617303e-02   4.058468842721e-02   7.939061181516e-02
2
Properties=species:S:1:pos:R:3:forces:R:3 energy=-7.564219456525e+01 dipole="1.1562661632e-02 -1.7310231039e-02 -6.3776486364e-01" quadrupole="-5.0979582766e+00 1.9117512280e-01 -3.1352714819e-02 1.9117512280e-01 -4.1395627194e+00 1.6616666058e-02 -3.1352714819e-02 1.6616666058e-02 -3.7200723881e+00" polarizability="7.3321757659e+00 -2.3294147929e-01 4.0430649895e-03 -2.3294147929e-01 6.1700444621e+00 3.0735027397e-02 4.0430649895e-03 3.0735027397e-02 7.4571862236e+00" charge=0 multiplicity=2 method=wB97M-V basis=def2-svpd config_type=oh_radical sample_index=83 temperature=300.0 units=atomic
O        -0.0009276898       0.0013924276       0.1043951131  -2.550693217859e-03   3.818764784689e-03   1.407417019298e-01
H         0.0148961329      -0.0222966477      -0.7684048065   2.551090223039e-03  -3.819550416845e-03  -1.407368508628e-01
2
Properties=species:S:1:pos:R:3:forces:R:3 energy=-7.563117612892e+01 dipole="1.8455216329e-01 -2.7628553806e-01 -6.3680980041e-01" quadrupole="-5.1552601913e+00 -4.8149745016e-01 -3.7160792172e-01 -4.8149745016e-01 -4.2920299369e+00 3.5488914323e-01 -3.7160792172e-01 3.5488914323e-01 -3.4953748518e+00" polarizability="8.2990580757e+00 -4.3277816318e-03 -1.0110395244e+00 -4.3277816318e-03 7.6571032533e+00 1.7936406526e+00 -1.0110395244e+00 1.7936406526e+00 1.0722970600e+01" charge=0 multiplicity=2 method=wB97M-V basis=def2-svpd config_type=oh_radical sample_index=84 temperature=300.0 units=atomic
O        -0.0176429532       0.0264814119       0.1141374789   2.588450335364e-02  -3.875513742741e-02  -8.932347533367e-02
H         0.2832970494      -0.4240412294      -0.9242737311  -2.588616985869e-02   3.875416245354e-02   8.932479297686e-02
2
Properties=species:S:1:pos:R:3:forces:R:3 energy=-7.565097585485e+01 dipole="1.2839811464e-01 -1.9222038466e-01 -6.4459717037e-01" quadrupole="-5.2077829563e+00 1.3035240684e-04 -3.5980215077e-01 1.3035240684e-04 -4.1684889864e+00 2.2863075073e-01 -3.5980215077e-01 2.2863075073e-01 -3.6147185105e+00" polarizability="7.8704908300e+00 -2.3262191085e-01 -2.8049362542e-01 -2.3262191085e-01 6.6716092983e+00 8.3492893929e-01 -2.8049362542e-01 8.3492893929e-01 9.3220236252e+00" charge=0 multiplicity=2 method=wB97M-V basis=def2-svpd config_type=oh_radical sample_index=85 temperature=300.0 units=atomic
O        -0.0114268412       0.0171512606       0.1106133184   9.325024245244e-03  -1.396318888609e-02  -4.681848575538e-02
H         0.1834834770      -0.2746394971      -0.8678903928  -9.325351378498e-03   1.396235715407e-02   4.681961140966e-02
2
Properties=species:S:1:pos:R:3:forces:R:3 energy=-7.565042451926e+01 dipole="1.0995664667e-01 -1.6461063463e-01 -6.5713007742e-01" quadrupole="-5.2400877118e+00 -3.6221953487e-02 -3.0000297194e-01 -3.6221953487e-02 -4.1889000489e+00 1.9327242717e-01 -3.0000297194e-01 1.9327242717e-01 -3.5636981067e+00" polarizability="7.8828873882e+00 -1.2477703397e-01 -2.7477187015e-01 -1.2477703397e-01 6.6160226951e+00 7.5460218447e-01 -2.7477187015e-01 7.5460218447e-01 9.4767698588e+00" charge=0 multiplicity=2 method=wB97M-V basis=def2-svpd config_type=oh_radical sample_index=86 temperature=300.0 units=atomic
O        -0.0098173459       0.0147354686       0.1119231021   8.509248382361e-03  -1.274687030783e-02  -5.087801122234e-02
H         0.1576394334      -0.2359559313      -0.8888457314  -8.512468711007e-03   1.274587569820e-02   5.087835018638e-02
2
Properties=species:S:1:pos:R:3:forces:R:3 energy=-7.565412841756e+01 dipole="7.6169040088e-02 -1.1402910081e-01 -6.5599023836e-01" quadrupole="-4.2212616727e+00 -2.0370532600e-01 -4.9069686947e-02 -2.0370532600e-01 -5.1593961406e+00 2.6585419143e-01 -4.9069686947e-02 2.6585419143e-01 -3.6145220915e+00" polarizability="6.3915813945e+00 1.9757574893e-01 -3.2055324060e-01 1.9757574893e-01 7.6741554881e+00 2.2848778374e-01 -3.2055324060e-01 2.2848778374e-01 8.7796279294e+00" charge=0 multiplicity=2 method=wB97M-V basis=def2-svpd config_type=oh_radical sample_index=87 temperature=300.0 units=atomic
O        -0.0065672371       0.0098571769       0.1098035386   1.089658625604e-03  -1.634632486804e-03  -9.396487383967e-03
H         0.1054516705      -0.1578408815      -0.8549346591  -1.091597483261e-03   1.633574028113e-03   9.395713675767e-03
2
Properties=species:S:1:pos:R:3:forces:R:3 energy=-7.563459124483e+01 dipole="-1.6670124902e-01 2.4956193092e-01 -6.4765716581e-01" quadrupole="-5.1092258951e+00 -5.1041285763e-01 2.9738085445e-01 -5.1041285763e-01 -4.3746135671e+00 -3.2509584495e-01 2.9738085445e-01 -3.2509584495e-01 -3.4707448222e+00" polarizability="8.1076839534e+00 1.7959978532e-01 9.3416059809e-01 1.7959978532e-01 7.5271598129e+00 -1.5647956149e+00 9.3416059809e-01 -1.5647956149e+00 1.0624705701e+01" charge=0 multiplicity=2 method=wB97M-V basis=def2-svpd config_type=oh_radical sample_index=88 temperature=300.0 units=atomic
O         0.0157852968      -0.0236931392       0.1145886930  -2.252725434378e-02   3.372205517841e-02  -8.751471860445e-02
H        -0.2534682236       0.3793932107      -0.9314927438   2.252608097099e-02  -3.372201451038e-02   8.751588246857e-02
2
Properties=species:S:1:pos:R:3:forces:R:3 energy=-7.563500001571e+01 dipole="-2.1910926206e-01 3.2801658942e-01 -5.9425364833e-01" quadrupole="-4.5880748281e+00 -6.5865385039e-01 1.5236184745e-01 -6.5865385039e-01 -4.6995770988e+00 -5.9092610454e-01 1.5236184745e-01 -5.9092610454e-01 -3.6573175808e+00" polarizability="7.6356094941e+00 5.3897008074e-03 1.4014927818e+00 5.3897008074e-03 8.5418403487e+00 -1.5954385556e+00 1.4014927818e+00 -1.5954385556e+00 1.0031218500e+01" charge=0 multiplicity=2 method=wB97M-V basis=def2-svpd config_type=oh_radical sample_index=89 temperature=300.0 units=atomic
O         0.0207233610      -0.0311049887       0.1094480345  -2.945369514877e-02   4.409318535142e-02  -7.988096226229e-02
H        -0.3327598835       0.4980775845      -0.8492469186   2.945405359292e-02  -4.409295068130e-02   7.988149549482e-02
2
Properties=species:S:1:pos:R:3:forces:R:3 energy=-7.564909234320e+01 dipole="-2.6709837332e-02 3.9988060746e-02 -6.4583691430e-01" quadrupole="-5.0328173757e+00 3.4040411815e-01 7.9822639004e-02 3.4040411815e-01 -4.2575222999e+00 -5.4008026664e-02 7.9822639004e-02 -5.4008026664e-02 -3.6843789704e+00" polarizability="7.3015288796e+00 -4.2965794914e-01 -4.4736158918e-03 -4.2965794914e-01 6.3418519882e+00 -7.4781056644e-02 -4.4736158918e-03 -7.4781056644e-02 7.8321723468e+00" charge=0 multiplicity=2 method=wB97M-V basis=def2-svpd config_type=oh_radical sample_index=90 temperature=300.0 units=atomic
O         0.0021904299      -0.0032877532       0.1061948940   3.500909057304e-03  -5.242778297126e-03   8.470118930498e-02
H        -0.0351722476       0.0526460940      -0.7971996529  -3.502255484180e-03   5.243743641060e-03  -8.470130307473e-02
2
Properties=species:S:1:pos:R:3:forces:R:3 energy=-7.565417835562e+01 dipole="7.6310399644e-02 -1.1424048882e-01 -6.5501969787e-01" quadrupole="-4.2122878037e+00 -1.8648012432e-01 -5.0593308584e-02 -1.8648012432e-01 -5.1620957093e+00 2.6832329730e-01 -5.0593308584e-02 2.6832329730e-01 -3.6203607444e+00" polarizability="6.3768407027e+00 1.7517180310e-01 -3.1427702145e-01 1.7517180310e-01 7.6721589647e+00 2.1924747655e-01 -3.1427702145e-01 2.1924747655e-01 8.7373997521e+00" charge=0 multiplicity=2 method=wB97M-V basis=def2-svpd config_type=oh_radical sample_index=91 temperature=300.0 units=atomic
O        -0.0065665308       0.0098561168       0.1096085069   7.580864740591e-04  -1.139370621070e-03  -6.522214475490e-03
H         0.1054403304      -0.1578239075      -0.8518143295  -7.603903341541e-04   1.137708285169e-03   6.521585473526e-03
2
Properties=species:S:1:pos:R:3:forces:R:3 energy=-7.565249657145e+01 dipole="-5.3134165373e-02 7.9545447338e-02 -6.7311590888e-01" quadrupole="-4.4431584792e+00 -4.3731851258e-01 2.7802262139e-02 -4.3731851258e-01 -5.0296998894e+00 -1.5375863578e-01 2.7802262139e-02 -1.5375863578e-01 -3.5257357613e+00" polarizability="6.6968556536e+00 5.4345028058e-01 2.7425180934e-01 5.4345028058e-01 7.5073792184e+00 -2.6153371014e-01 2.7425180934e-01 -2.6153371014e-01 9.3049300731e+00" charge=0 multiplicity=2 method=wB97M-V basis=def2-svpd config_type=oh_radical sample_index=92 temperature=300.0 units=atomic
O         0.0046788470      -0.0070227741       0.1125263675  -2.951324055544e-03   4.417771678209e-03  -3.738580420038e-02
H        -0.0751293466       0.1124541909      -0.8984974262   2.951135573008e-03  -4.418345007802e-03   3.738592934748e-02
2
Properties=species:S:1:pos:R:3:forces:R:3 energy=-7.564599991936e+01 dipole="-5.5989164264e-02 8.3818634433e-02 -6.8867680494e-01" quadrupole="-5.2288473420e+00 -2.9714528777e-01 1.1828242703e-01 -2.9714528777e-01 -4.3404496294e+00 -9.8906038860e-02 1.1828242703e-01 -9.8906038860e-02 -3.4215713257e+00" polarizability="7.8422043739e+00 3.5410420010e-01 2.4174734087e-01 3.5410420010e-01 6.6756078556e+00 -4.6815671452e-01 2.4174734087e-01 -4.6815671452e-01 1.0208956723e+01" charge=0 multiplicity=2 method=wB97M-V basis=def2-svpd config_type=oh_radical sample_index=93 temperature=300.0 units=atomic
O         0.0051041476      -0.0076611343       0.1160477850  -5.807946846386e-03   8.697690305436e-03  -7.144719372056e-02
H        -0.0819584983       0.1226761183      -0.9548368792   5.808263806643e-03  -8.695996414484e-03   7.144589258776e-02
2
Properties=species:S:1:pos:R:3:forces:R:3 energy=-7.565359235067e+01 dipole="4.4632331165e-02 -6.6815826055e-02 -6.5521579371e-01" quadrupole="-4.8712397496e+00 4.7159880811e-01 -1.3808967479e-01 4.7159880811e-01 -4.4794848363e+00 1.2689182550e-01 -1.3808967479e-01 1.2689182550e-01 -3.6392712166e+00" polarizability="7.1638296393e+00 -6.2455944222e-01 -1.9092334131e-02 -6.2455944222e-01 6.6791413605e+00 1.3080389438e-01 -1.9092334131e-02 1.3080389438e-01 8.3643690951e+00" charge=0 multiplicity=2 method=wB97M-V basis=def2-svpd config_type=oh_radical sample_index=94 temperature=300.0 units=atomic
O        -0.0037640736       0.0056497335       0.1084983498  -1.814393440482e-03   2.718750385950e-03   2.665389313234e-02
H         0.0604406149      -0.0904679830      -0.8340528338   1.815127481975e-03  -2.716786674408e-03  -2.665263139486e-02
2
Properties=species:S:1:pos:R:3:forces:R:3 energy=-7.564464235098e+01 dipole="-2.2720360109e-01 3.4013489092e-01 -5.6621214393e-01" quadrupole="-4.8295760928e+00 -6.7164333195e-01 2.1076613995e-01 -6.7164333195e-01 -4.4207712957e+00 -4.0432059882e-01 2.1076613995e-01 -4.0432059882e-01 -3.7129822994e+00" polarizability="7.8428551667e+00 7.2387337964e-02 1.0858133235e+00 7.2387337964e-02 7.9846231733e+00 -1.5042978101e+00 1.0858133235e+00 -1.5042978101e+00 9.1010698155e+00" charge=0 multiplicity=2 method=wB97M-V basis=def2-svpd config_type=oh_radical sample_index=95 temperature=300.0 units=atomic
O         0.0208230209      -0.0312545745       0.1051216482  -2.484303875684e-02   3.718535138900e-02  -6.190447747052e-02
H        -0.3343601461       0.5004728701      -0.7800287022   2.484198667864e-02  -3.718762229706e-02   6.190593467197e-02
2
Properties=species:S:1:pos:R:3:forces:R:3 energy=-7.565135395008e+01 dipole="1.3110291357e-01 -1.9626950047e-01 -6.4165748745e-01" quadrupole="-5.2037041527e+00 -1.4963116854e-02 -3.6220140881e-01 -1.4963116854e-02 -4.1618137809e+00 2.2727569765e-01 -3.6220140881e-01 2.2727569765e-01 -3.6254078213e+00" polarizability="7.8634272702e+00 -2.1932802614e-01 -2.8069572411e-01 -2.1932802614e-01 6.6690983599e+00 8.4115044745e-01 -2.8069572411e-01 8.4115044745e-01 9.2509117506e+00" charge=0 multiplicity=2 method=wB97M-V basis=def2-svpd config_type=oh_radical sample_index=96 temperature=300.0 units=atomic
O        -0.0116399259       0.0174710928       0.1102151382   9.045733526793e-03  -1.354500446883e-02  -4.427609551639e-02
H         0.1869050281      -0.2797609014      -0.8615198748  -9.046030102865e-03   1.354405141432e-02   4.427726195042e-02
2
Properties=species:S:1:pos:R:3:forces:R:3 energy=-7.564458279218e+01 dipole="-3.3078404305e-02 4.9519252417e-02 -6.9606689158e-01" quadrupole="-4.2980221974e+00 -1.5794316282e-01 3.5659641841e-02 -1.5794316282e-01 -5.2983654930e+00 -1.3385260039e-01 3.5659641841e-02 -1.3385260039e-01 -3.3929435795e+00" polarizability="6.5667746120e+00 1.9754664864e-01 1.9845481567e-01 1.9754664864e-01 7.9461306932e+00 -1.8731108904e-01 1.9845481567e-01 -1.8731108904e-01 1.0424303339e+01" charge=0 multiplicity=2 method=wB97M-V basis=def2-svpd config_type=oh_radical sample_index=97 temperature=300.0 units=atomic
O         0.0030322612      -0.0045513104       0.1170779970  -3.622892350640e-03   5.425238950456e-03  -7.626283662503e-02
H        -0.0486897308       0.0728791682      -0.9713193263   3.623181193256e-03  -5.425081759080e-03   7.626160960031e-02
2
Properties=species:S:1:pos:R:3:forces:R:3 energy=-7.565216440874e+01 dipole="-1.5559826802e-01 2.3293888851e-01 -6.2080835182e-01" quadrupole="-4.9979330228e+00 -5.0119821528e-01 2.0659414337e-01 -5.0119821528e-01 -4.3554355491e+00 -2.2404318734e-01 2.0659414337e-01 -2.2404318734e-01 -3.6343603309e+00" polarizability="7.6335293879e+00 3.4013113579e-01 5.7598974145e-01 3.4013113579e-01 7.0493447358e+00 -9.7568478093e-01 5.7598974145e-01 -9.7568478093e-01 8.9119898495e+00" charge=0 multiplicity=2 method=wB97M-V basis=def2-svpd config_type=oh_radical sample_index=98 temperature=300.0 units=atomic
O         0.0137371358      -0.0206189264       0.1080473040  -9.327265287601e-03   1.396229194628e-02  -3.720774513411e-02
H        -0.2205804219       0.3301664930      -0.8268365145   9.327088897436e-03  -1.396354410112e-02   3.721447457546e-02
2
Properties=species:S:1:pos:R:3:forces:R:3 energy=-7.565202537654e+01 dipole="-5.7271313211e-02 8.5736986804e-02 -6.7371526071e-01" quadrupole="-4.5580949802e+00 -4.9772103419e-01 3.2928762809e-02 -4.9772103419e-01 -4.9234587472e+00 -1.4828011309e-01 3.2928762809e-02 -1.4828011309e-01 -3.5166664238e+00" polarizability="6.8612537131e+00 6.1856083205e-01 2.9864126565e-01 6.1856083205e-01 7.3849698731e+00 -3.1517564802e-01 2.9864126565e-01 -3.1517564802e-01 9.3828783372e+00" charge=0 multiplicity=2 method=wB97M-V basis=def2-svpd config_type=oh_radical sample_index=99 temperature=300.0 units=atomic
O         0.0050614002      -0.0075969721       0.1127957822  -3.529350170930e-03   5.287824919085e-03  -4.153367357436e-02
H        -0.0812720934       0.1216487022      -0.9028078140   3.530737320770e-03  -5.285787154152e-03   4.153442967647e-02
2
Properties=species:S:1:pos:R:3:forces:R:3 energy=-7.565394903344e+01 dipole="-8.3816910753e-02 1.2547901981e-01 -6.4511748826e-01" quadrupole="-4.1629029762e+00 -4.9535441867e-02 7.1822827528e-02 -4.9535441867e-02 -5.1530759992e+00 -3.0806765189e-01 7.1822827528e-02 -3.0806765189e-01 -3.6736502596e+00" polarizability="6.2990315647e+00 -1.1265953630e-02 2.8244342270e-01 -1.1265953630e-02 7.6357040220e+00 -1.6465753209e-01 2.8244342270e-01 -1.6465753209e-01 8.4210775028e+00" charge=0 multiplicity=2 method=wB97M-V basis=def2-svpd config_type=oh_radical sample_index=100 temperature=300.0 units=atomic
O         0.0071064425      -0.0106665041       0.1079348308   2.199220614803e-03  -3.292581285363e-03   1.691577491233e-02
H        -0.1141098197       0.1708004666      -0.8250370470  -2.197220274174e-03   3.289657408054e-03  -1.691416336928e-02
2
Properties=species:S:1:pos:R:3:forces:R:3 energy=-7.563451335845e+01 dipole="-1.8150662507e-01 2.7172713381e-01 -6.3474413729e-01" quadrupole="-5.0698156499e+00 -5.5022127031e-01 3.0268147548e-01 -5.5022127031e-01 -4.3765051036e+00 -3.5151557564e-01 3.0268147548e-01 -3.5151557564e-01 -3.5054486761e+00" polarizability="8.1195646410e+00 1.3632775176e-01 1.0180435919e+00 1.3632775176e-01 7.6778222224e+00 -1.6647725310e+00 1.0180435919e+00 -1.6647725310e+00 1.0471837202e+01" charge=0 multiplicity=2 method=wB97M-V basis=def2-svpd config_type=oh_radical sample_index=101 temperature=300.0 units=atomic
O         0.0171911030      -0.0258032018       0.1133752129  -2.455060145210e-02   3.675361245895e-02  -8.585279043506e-02
H        -0.2760415857       0.4131811947      -0.9120781744   2.454978566724e-02  -3.675350234506e-02   8.585474804430e-02
2
Properties=species:S:1:pos:R:3:forces:R:3 energy=-7.565421075413e+01 dipole="1.0053711954e-01 -1.5050861882e-01 -6.4336970069e-01" quadrupole="-4.1810330229e+00 6.4377902250e-02 -1.2100544682e-01 6.4377902250e-02 -5.1279852896e+00 3.9015018068e-01 -1.2100544682e-01 3.9015018068e-01 -3.6830903036e+00" polarizability="6.3659321930e+00 -2.0055557719e-01 -3.2826600993e-01 -2.0055557719e-01 7.6957225093e+00 2.1924676880e-01 -3.2826600993e-01 2.1924676880e-01 8.6642641481e+00" charge=0 multiplicity=2 method=wB97M-V basis=def2-svpd config_type=oh_radical sample_index=102 temperature=300.0 units=atomic
O        -0.0086337289       0.0129589037       0.1084900693   5.353342752298e-04  -8.091675044377e-04  -3.437077587000e-03
H         0.1386338164      -0.2075081758      -0.8339203527  -5.367849462591e-04   8.036866021153e-04   3.436839965527e-03
2
Properties=species:S:1:pos:R:3:forces:R:3 energy=-7.564569782168e+01 dipole="2.1589605529e-02 -3.2322073253e-02 -6.4119182705e-01" quadrupole="-5.0711862973e+00 2.6806975733e-01 -6.1826506595e-02 2.6806975733e-01 -4.1895916932e+00 3.6904196438e-02 -6.1826506595e-02 3.6904196438e-02 -3.7050172216e+00" polarizability="7.3221629497e+00 -3.3271609464e-01 6.6024080830e-03 -3.3271609464e-01 6.2429104609e+00 5.8421700192e-02 6.6024080830e-03 5.8421700192e-02 7.6214004761e+00" charge=0 multiplicity=2 method=wB97M-V basis=def2-svpd config_type=oh_radical sample_index=103 temperature=300.0 units=atomic
O        -0.0017493660       0.0026257329       0.1051828563  -3.843124093849e-03   5.753872333062e-03   1.141817368704e-01
H         0.0280899819      -0.0420453037      -0.7810079760   3.843845177200e-03  -5.754940669803e-03  -1.141785814983e-01
2
Properties=species:S:1:pos:R:3:forces:R:3 energy=-7.564613285927e+01 dipole="-5.5458958958e-02 8.3025386107e-02 -6.8856044058e-01" quadrupole="-5.2074289600e+00 -3.2712881872e-01 1.1169792789e-01 -3.2712881872e-01 -4.3612261591e+00 -9.7860995744e-02 1.1169792789e-01 -9.7860995744e-02 -3.4224661433e+00" polarizability="7.8108746708e+00 3.9581163278e-01 2.4579928310e-01 3.9581163278e-01 6.7011155724e+00 -4.6221337135e-01 2.4579928310e-01 -4.6221337135e-01 1.0194525081e+01" charge=0 multiplicity=2 method=wB97M-V basis=def2-svpd config_type=oh_radical sample_index=104 temperature=300.0 units=atomic
O         0.0050531051      -0.0075845214       0.1160030996  -5.721006858378e-03   8.566207765501e-03  -7.102759251544e-02
H        -0.0811388969       0.1214493326      -0.9541219537   5.720439694749e-03  -8.564590318849e-03   7.102617824803e-02
2
Properties=species:S:1:pos:R:3:forces:R:3 energy=-7.563774089821e+01 dipole="1.5495690450e-02 -2.3197862203e-02 -7.0888796223e-01" quadrupole="-4.3129986257e+00 -7.3702801859e-02 -2.1244603700e-02 -7.3702801859e-02 -5.3575451015e+00 6.7980661349e-02 -2.1244603700e-02 6.7980661349e-02 -3.3048513827e+00" polarizability="6.6312324010e+00 9.7337055881e-02 -1.0219413498e-01 9.7337055881e-02 8.0764331737e+00 1.0304740840e-01 -1.0219413498e-01 1.0304740840e-01 1.1154795478e+01" charge=0 multiplicity=2 method=wB97M-V basis=def2-svpd config_type=oh_radical sample_index=105 temperature=300.0 units=atomic
O        -0.0014536722       0.0021819075       0.1197808805   2.000672151541e-03  -2.994175926304e-03  -9.153088661025e-02
H         0.0233419563      -0.0349384219      -1.0145629855  -2.000025668345e-03   2.994930656266e-03   9.153267657666e-02
2
Properties=species:S:1:pos:R:3:forces:R:3 energy=-7.565017130732e+01 dipole="-9.4293163444e-02 1.4116156931e-01 -6.6565386996e-01" quadrupole="-4.4025525597e+00 -4.1458322264e-01 5.5597749872e-02 -4.1458322264e-01 -5.0601431285e+00 -2.9553143769e-01 5.5597749872e-02 -2.9553143769e-01 -3.5313081911e+00" polarizability="6.7317046015e+00 4.2843851745e-01 5.1830067832e-01 4.2843851745e-01 7.7214387492e+00 -4.9072869317e-01 5.1830067832e-01 -4.9072869317e-01 9.5717589445e+00" charge=0 multiplicity=2 method=wB97M-V basis=def2-svpd config_type=oh_radical sample_index=106 temperature=300.0 units=atomic
O         0.0084308112      -0.0126543319       0.1127712583  -7.490630827147e-03   1.121739499034e-02  -5.289003754517e-02
H        -0.1353755191       0.2026311310      -0.9024154540   7.491645164891e-03  -1.121649193379e-02   5.289082427349e-02
2
Properties=species:S:1:pos:R:3:forces:R:3 energy=-7.565283386285e+01 dipole="-2.3847619306e-02 3.5700762582e-02 -6.7718103848e-01" quadrupole="-4.3848364139e+00 3.8095579218e-01 5.3176329425e-02 3.8095579218e-01 -5.0941748139e+00 -1.0034425762e-01 5.3176329425e-02 -1.0034425762e-01 -3.5206926034e+00" polarizability="6.5942070171e+00 -5.1252696873e-01 6.7776355064e-02 -5.1252696873e-01 7.5408245218e+00 -7.3953713199e-02 6.7776355064e-02 -7.3953713199e-02 9.2797235051e+00" charge=0 multiplicity=2 method=wB97M-V basis=def2-svpd config_type=oh_radical sample_index=107 temperature=300.0 units=atomic
O         0.0020938617      -0.0031428080       0.1127126453  -1.203353670998e-03   1.800565946489e-03  -3.417892640033e-02
H        -0.0336216298       0.0503251172      -0.9014776991   1.203525683083e-03  -1.802240899050e-03   3.417953877110e-02
2
Properties=species:S:1:pos:R:3:forces:R:3 energy=-7.565274176302e+01 dipole="-9.2332354173e-04 1.3823190766e-03 -6.5642617152e-01" quadrupole="-5.1276670640e+00 2.5741514811e-01 2.7336045634e-03 2.5741514811e-01 -4.2237396304e+00 -1.7389985654e-03 2.7336045634e-03 -1.7389985654e-03 -3.6356930155e+00" polarizability="7.4597787273e+00 -3.2702484088e-01 3.7023221483e-04 -3.2702484088e-01 6.3114356878e+00 -3.5450929154e-03 3.7023221483e-04 -3.5450929154e-03 8.2129336268e+00" charge=0 multiplicity=2 method=wB97M-V basis=def2-svpd config_type=oh_radical sample_index=108 temperature=300.0 units=atomic
O         0.0000772335      -0.0001159245       0.1081464054   5.966178377492e-05  -8.924773315023e-05   4.243037371342e-02
H        -0.0012401557       0.0018562747      -0.8284220454  -5.964351440302e-05   8.931209843605e-05  -4.242801047172e-02
2
Properties=species:S:1:pos:R:3:forces:R:3 energy=-7.562143091295e+01 dipole="-9.4804279679e-02 1.4192921777e-01 -7.0963591825e-01" quadrupole="-5.3298523047e+00 1.7367701549e-01 3.3803916217e-01 1.7367701549e-01 -4.3599315532e+00 -2.8323262378e-01 3.3803916217e-01 -2.8323262378e-01 -3.2369546226e+00" polarizability="8.3077224368e+00 -4.4090725068e-01 4.9933242339e-01 -4.4090725068e-01 7.1111274924e+00 -1.0599476077e+00 4.9933242339e-01 -1.0599476077e+00 1.2426670723e+01" charge=0 multiplicity=2 method=wB97M-V basis=def2-svpd config_type=oh_radical sample_index=109 temperature=300.0 units=atomic
O         0.0092921501      -0.0139471693       0.1228425810  -1.418138071519e-02   2.123280595959e-02  -1.061636221879e-01
H        -0.1492062408       0.2233330629      -1.0635473882   1.418209408723e-02  -2.123365627668e-02   1.061646938164e-01
2
Properties=species:S:1:pos:R:3:forces:R:3 energy=-7.562985683587e+01 dipole="-1.0592917771e-02 1.5858895998e-02 -6.2698617728e-01" quadrupole="-5.0988512776e+00 2.6690720393e-03 2.3739283037e-02 2.6690720393e-03 -4.0718209978e+00 -9.5008171923e-03 2.3739283037e-02 -9.5008171923e-03 -3.7614836105e+00" polarizability="7.2789366914e+00 -3.7750506462e-03 -3.8060076975e-03 -3.7750506462e-03 6.0729815208e+00 -2.4883035771e-02 -3.8060076975e-03 -2.4883035771e-02 7.0587630676e+00" charge=0 multiplicity=2 method=wB97M-V basis=def2-svpd config_type=oh_radical sample_index=110 temperature=300.0 units=atomic
O         0.0008283633      -0.0012433423       0.1022494247   3.708068029390e-03  -5.551046759777e-03   2.194975842710e-01
H        -0.0133012248       0.0199093768      -0.7340757589  -3.708047844710e-03   5.551789932553e-03  -2.194996427950e-01
2
Properties=species:S:1:pos:R:3:forces:R:3 energy=-7.565054858020e+01 dipole="-7.7857400411e-02 1.1655625216e-01 -6.7149614392e-01" quadrupole="-4.7584457896e+00 -5.4197323183e-01 6.3828924223e-02 -5.4197323183e-01 -4.7334377360e+00 -1.6917207536e-01 6.3828924223e-02 -1.6917207536e-01 -3.5038867925e+00" polarizability="7.1770488502e+00 6.4033109455e-01 4.0286686359e-01 6.4033109455e-01 7.2152968357e+00 -5.0432751741e-01 4.0286686359e-01 -5.0432751741e-01 9.5588166405e+00" charge=0 multiplicity=2 method=wB97M-V basis=def2-svpd config_type=oh_radical sample_index=111 temperature=300.0 units=atomic
O         0.0069464935      -0.0104264266       0.1131673256  -5.946156704819e-03   8.904918877982e-03  -5.129415409378e-02
H        -0.1115414806       0.1669561566      -0.9087521683   5.947886200983e-03  -8.904413121734e-03   5.129679720006e-02
2
Properties=species:S:1:pos:R:3:forces:R:3 energy=-7.564610874411e+01 dipole="-5.8767518275e-02 8.7978117374e-02 -6.8771704949e-01" quadrupole="-5.2763764828e+00 -1.9855519502e-01 1.4088195458e-01 -1.9855519502e-01 -4.2876427198e+00 -1.0545345423e-01 1.4088195458e-01 -1.0545345423e-01 -3.4268818107e+00" polarizability="7.9088871306e+00 2.1502660392e-01 2.2952236988e-01 2.1502660392e-01 6.6103348035e+00 -4.8691456881e-01 2.2952236988e-01 -4.8691456881e-01 1.0190986099e+01" charge=0 multiplicity=2 method=wB97M-V basis=def2-svpd config_type=oh_radical sample_index=112 temperature=300.0 units=atomic
O         0.0053550757      -0.0080377680       0.1159321771  -6.068248094283e-03   9.086405885607e-03  -7.101360864014e-02
H        -0.0859877099       0.1287070737      -0.9529872573   6.068108956321e-03  -9.085199815944e-03   7.101347734170e-02
2
Properties=species:S:1:pos:R:3:forces:R:3 energy=-7.565261448744e+01 dipole="1.2203712276e-01 -1.8269574490e-01 -6.4292253720e-01" quadrupole="-5.1656268037e+00 1.1096296838e-01 -3.5982493899e-01 1.1096296838e-01 -4.1840050020e+00 2.3353699967e-01 -3.5982493899e-01 2.3353699967e-01 -3.6429967723e+00" polarizability="7.7610478538e+00 -3.4468077174e-01 -2.0047088279e-01 -3.4468077174e-01 6.6213025861e+00 7.0520014736e-01 -2.0047088279e-01 7.0520014736e-01 9.0947661326e+00" charge=0 multiplicity=2 method=wB97M-V basis=def2-svpd config_type=oh_radical sample_index=113 temperature=300.0 units=atomic
O        -0.0107356561       0.0161138178       0.1098029484   6.567288604849e-03  -9.839091420804e-03  -3.461892254723e-02
H         0.1723849563      -0.2580271449      -0.8549252160  -6.570620935301e-03   9.838102371604e-03   3.461895337012e-02
2
Properties=species:S:1:pos:R:3:forces:R:3 energy=-7.565098286846e+01 dipole="-6.1138326892e-02 9.1526873934e-02 -6.4210460120e-01" quadrupole="-4.1367359475e+00 -3.5848781046e-02 4.6627228826e-02 -3.5848781046e-02 -5.1468417301e+00 -2.1799909219e-01 4.6627228826e-02 -2.1799909219e-01 -3.6953463024e+00" polarizability="6.2128088321e+00 1.1125349997e-02 1.7153763395e-01 1.1125349997e-02 7.5095989371e+00 -7.0635842108e-02 1.7153763395e-01 -7.0635842108e-02 7.9713331739e+00" charge=0 multiplicity=2 method=wB97M-V basis=def2-svpd config_type=oh_radical sample_index=114 temperature=300.0 units=atomic
O         0.0050574189      -0.0075909964       0.1063490952   6.134456825053e-03  -9.187759060510e-03   6.443591169233e-02
H        -0.0812081653       0.1215530142      -0.7996667297  -6.134837582782e-03   9.184075907196e-03  -6.443839269703e-02
2
Properties=species:S:1:pos:R:3:forces:R:3 energy=-7.564871263365e+01 dipole="-9.1556161072e-02 1.3706167604e-01 -6.2560393222e-01" quadrupole="-4.1951342430e+00 2.4754782780e-01 1.3934381489e-01 2.4754782780e-01 -4.9989017088e+00 -3.3970321605e-01 1.3934381489e-01 -3.3970321605e-01 -3.7756706450e+00" polarizability="6.3008472063e+00 -3.7818228098e-01 1.3785313144e-01 -3.7818228098e-01 7.3578698521e+00 -4.3480073784e-02 1.3785313144e-01 -4.3480073784e-02 7.7792898172e+00" charge=0 multiplicity=2 method=wB97M-V basis=def2-svpd config_type=oh_radical sample_index=115 temperature=300.0 units=atomic
O         0.0074966212      -0.0112521476       0.1044515513   1.252620016824e-02  -1.875025861271e-02   8.559408285152e-02
H        -0.1203750097       0.1801782518      -0.7693077665  -1.252620128477e-02   1.875330378473e-02  -8.559484837757e-02
2
Properties=species:S:1:pos:R:3:forces:R:3 energy=-7.563424422785e+01 dipole="1.3608496506e-01 -2.0372933122e-01 -6.7094633979e-01" quadrupole="-4.5215402240e+00 -5.0198992018e-01 -1.1798369834e-01 -5.0198992018e-01 -5.0108584058e+00 4.5150771906e-01 -1.1798369834e-01 4.5150771906e-01 -3.4259082847e+00" polarizability="7.1794698764e+00 3.4270217244e-01 -9.8068179341e-01 3.4270217244e-01 8.1505754048e+00 1.0869934748e+00 -9.8068179341e-01 1.0869934748e+00 1.0972569185e+01" charge=0 multiplicity=2 method=wB97M-V basis=def2-svpd config_type=oh_radical sample_index=116 temperature=300.0 units=atomic
O        -0.0128990490       0.0193609894       0.1168650810   1.846864311003e-02  -2.764627209095e-02  -9.105295803559e-02
H         0.2071230645      -0.3100234157      -0.9679128660  -1.846732434176e-02   2.764896820945e-02   9.105274823789e-02
2
Properties=species:S:1:pos:R:3:forces:R:3 energy=-7.565414402159e+01 dipole="-1.5612006555e-01 2.3371945697e-01 -6.0810850873e-01" quadrupole="-4.2479299313e+00 2.0952313187e-01 2.7501562662e-01 2.0952313187e-01 -4.8768892348e+00 -5.8661424771e-01 2.7501562662e-01 -5.8661424771e-01 -3.8606651946e+00" polarizability="6.5717460391e+00 -5.6090972851e-01 3.6784908050e-01 -5.6090972851e-01 7.6312447269e+00 -3.2221093472e-01 3.6784908050e-01 -3.2221093472e-01 8.6259759974e+00" charge=0 multiplicity=2 method=wB97M-V basis=def2-svpd config_type=oh_radical sample_index=117 temperature=300.0 units=atomic
O         0.0134532019      -0.0201927522       0.1056324367  -2.047999233070e-03   3.067906744602e-03  -7.977509017542e-03
H        -0.2160212285       0.3233422567      -0.7882008513   2.047407910345e-03  -3.067405278002e-03   7.979788352528e-03
2
Properties=species:S:1:pos:R:3:forces:R:3 energy=-7.564644174208e+01 dipole="-2.0814480848e-01 3.1160261187e-01 -5.8552430433e-01" quadrupole="-4.7336479291e+00 -6.5409097592e-01 1.5274131478e-01 -6.5409097592e-01 -4.5516298128e+00 -4.2027440261e-01 1.5274131478e-01 -4.2027440261e-01 -3.6857449579e+00" polarizability="7.5880531400e+00 2.0450671199e-01 1.0493230540e+00 2.0450671199e-01 7.9077726014e+00 -1.3105136074e+00 1.0493230540e+00 -1.3105136074e+00 9.1632623950e+00" charge=0 multiplicity=2 method=wB97M-V basis=def2-svpd config_type=oh_radical sample_index=118 temperature=300.0 units=atomic
O         0.0189407102      -0.0284292966       0.1065149959  -2.117516637813e-02   3.170302306046e-02  -5.957203986982e-02
H        -0.3041354395       0.4552322939      -0.8023209898   2.117691179487e-02  -3.170320754921e-02   5.957337846071e-02
2
Properties=species:S:1:pos:R:3:forces:R:3 energy=-7.559135389129e+01 dipole="-3.1704926702e-01 4.7463743117e-01 -5.0090322322e-01" quadrupole="-4.9836365982e+00 -8.7429263718e-01 5.9004626987e-01 -8.7429263718e-01 -3.9727189698e+00 -6.1196897081e-01 5.9004626987e-01 -6.1196897081e-01 -3.8117358445e+00" polarizability="9.8477275841e+00 -1.6087826769e+00 2.1244597550e+00 -1.6087826769e+00 1.0775584977e+01 -3.5651483946e+00 2.1244597550e+00 -3.5651483946e+00 1.0889729336e+01" charge=0 multiplicity=2 method=wB97M-V basis=def2-svpd config_type=oh_radical sample_index=119 temperature=300.0 units=atomic
O         0.0332687762      -0.0499351870       0.1057920868  -4.865147016672e-02   7.282935550052e-02  -7.686047666884e-02
H        -0.5342045655       0.7996015532      -0.7907551065   4.864768278566e-02  -7.282892780869e-02   7.685965808129e-02
2
Properties=species:S:1:pos:R:3:forces:R:3 energy=-7.565067596386e+01 dipole="1.5579586889e-01 -2.3323500859e-01 -6.2562923614e-01" quadrupole="-5.0286517537e+00 -4.9041019144e-01 -2.2417578377e-01 -4.9041019144e-01 -4.3457174661e+00 2.3250262549e-01 -2.2417578377e-01 2.3250262549e-01 -3.6123625402e+00" polarizability="7.7105264198e+00 3.1198088131e-01 -6.0516777944e-01 3.1198088131e-01 7.0813652980e+00 1.0440990417e+00 -6.0516777944e-01 1.0440990417e+00 9.1337140788e+00" charge=0 multiplicity=2 method=wB97M-V basis=def2-svpd config_type=oh_radical sample_index=120 temperature=300.0 units=atomic
O        -0.0138899259       0.0208482586       0.1090196330   1.173343502414e-02  -1.756321537787e-02  -4.710972657871e-02
H         0.2230338086      -0.3338387414      -0.8423928877  -1.173249913319e-02   1.756447353951e-02   4.711462340513e-02
2
Properties=species:S:1:pos:R:3:forces:R:3 energy=-7.565417521356e+01 dipole="1.0634736952e-01 -1.5920698771e-01 -6.4137670040e-01" quadrupole="-4.3319697479e+00 3.2814007516e-01 -2.1988464978e-01 3.2814007516e-01 -4.9530261850e+00 4.1576791367e-01 -2.1988464978e-01 4.1576791367e-01 -3.7070213518e+00" polarizability="6.5761119554e+00 -5.6036061406e-01 -2.3225804253e-01 -5.6036061406e-01 7.4959451675e+00 2.3468475801e-01 -2.3225804253e-01 2.3468475801e-01 8.7189727552e+00" charge=0 multiplicity=2 method=wB97M-V basis=def2-svpd config_type=oh_radical sample_index=121 temperature=300.0 units=atomic
O        -0.0091525721       0.0137376680       0.1084390500   1.092306649231e-03  -1.641283463002e-03  -6.608311446772e-03
H         0.1469650038      -0.2199783620      -0.8331040911  -1.095202143203e-03   1.640713997765e-03   6.609064155607e-03
2
Properties=species:S:1:pos:R:3:forces:R:3 energy=-7.563584372503e+01 dipole="1.9986316624e-01 -2.9920714284e-01 -6.1451359169e-01" quadrupole="-4.6094411553e+00 -6.3444502401e-01 -1.4946350770e-01 -6.3444502401e-01 -4.7445482128e+00 5.4553692999e-01 -1.4946350770e-01 5.4553692999e-01 -3.5973595887e+00" polarizability="7.5512769042e+00 1.3142331086e-01 -1.2984243472e+00 1.3142331086e-01 8.3569569887e+00 1.4984696006e+00 -1.2984243472e+00 1.4984696006e+00 1.0194821368e+01" charge=0 multiplicity=2 method=wB97M-V basis=def2-svpd config_type=oh_radical sample_index=122 temperature=300.0 units=atomic
O        -0.0188566952       0.0283031932       0.1112273221   2.656127388387e-02  -3.976661269874e-02  -8.167084903078e-02
H         0.3027863907      -0.4532130272      -0.8777138894  -2.656139741905e-02   3.976624305961e-02   8.167122516574e-02
2
Properties=species:S:1:pos:R:3:forces:R:3 energy=-7.563368986207e+01 dipole="-4.3094725580e-02 6.4515683090e-02 -7.1079478673e-01" quadrupole="-4.5056991483e+00 -4.0788346534e-01 4.2968049622e-02 -4.0788346534e-01 -5.1834754475e+00 -1.5651631801e-01 4.2968049622e-02 -1.5651631801e-01 -3.2755991623e+00" polarizability="6.9496860561e+00 5.3013394370e-01 3.2732129765e-01 5.3013394370e-01 7.9194228866e+00 -3.6210544490e-01 3.2732129765e-01 -3.6210544490e-01 1.1502071689e+01" charge=0 multiplicity=2 method=wB97M-V basis=def2-svpd config_type=oh_radical sample_index=123 temperature=300.0 units=atomic
O         0.0040912334      -0.0061407880       0.1207616177  -5.887894840258e-03   8.812937542751e-03  -9.710100707787e-02
H        -0.0656938966       0.0983311359      -1.0302538821   5.886022676700e-03  -8.813329751671e-03   9.710010155869e-02
2
Properties=species:S:1:pos:R:3:forces:R:3 energy=-7.564763655646e+01 dipole="-4.2612434626e-02 6.3791836201e-02 -6.4060590445e-01" quadrupole="-4.9133188001e+00 4.2477827573e-01 1.2810367447e-01 4.2477827573e-01 -4.3495341409e+00 -1.0055348739e-01 1.2810367447e-01 -1.0055348739e-01 -3.7072761477e+00" polarizability="7.1480685902e+00 -5.4015936781e-01 -1.4628356596e-02 -5.4015936781e-01 6.4631322773e+00 -9.0901212831e-02 -1.4628356596e-02 -9.0901212831e-02 7.7287324881e+00" charge=0 multiplicity=2 method=wB97M-V basis=def2-svpd config_type=oh_radical sample_index=124 temperature=300.0 units=atomic
O         0.0034750841      -0.0052159710       0.1054722342   6.485189904717e-03  -9.710042719370e-03   9.751333495496e-02
H        -0.0558002426       0.0835222376      -0.7856377573  -6.485862131691e-03   9.708735572780e-03  -9.751302982902e-02
2
Properties=species:S:1:pos:R:3:forces:R:3 energy=-7.565422346545e+01 dipole="2.5245323620e-02 -3.7793644881e-02 -6.6563340833e-01" quadrupole="-4.8120732775e+00 5.0729849545e-01 -7.8112570464e-02 5.0729849545e-01 -4.5972783647e+00 8.0851419856e-02 -7.8112570464e-02 8.0851419856e-02 -3.5868063475e+00" polarizability="7.1093870366e+00 -6.6629724828e-01 -2.2892529929e-02 -6.6629724828e-01 6.8363464365e+00 8.1138957808e-02 -2.2892529929e-02 8.1138957808e-02 8.7049758710e+00" charge=0 multiplicity=2 method=wB97M-V basis=def2-svpd config_type=oh_radical sample_index=125 temperature=300.0 units=atomic
O        -0.0021624502       0.0032457568       0.1102628218  -1.553274899603e-05   2.368018039081e-05   3.985206083534e-04
H         0.0347229717      -0.0519736144      -0.8622827689   1.463414995459e-05  -2.201740998301e-05  -3.974461126046e-04
2
Properties=species:S:1:pos:R:3:forces:R:3 energy=-7.565422114139e+01 dipole="1.3315818224e-01 -1.9934559357e-01 -6.2323891277e-01" quadrupole="-4.9403185911e+00 3.1124379857e-01 -4.0633685897e-01 3.1124379857e-01 -4.2833703321e+00 3.1558521806e-01 -4.0633685897e-01 3.1558521806e-01 -3.7641592463e+00" polarizability="7.4095401008e+00 -6.0799538815e-01 -8.9395407920e-02 -6.0799538815e-01 6.7235674240e+00 5.1446159778e-01 -8.9395407920e-02 5.1446159778e-01 8.5544732048e+00" charge=0 multiplicity=2 method=wB97M-V basis=def2-svpd config_type=oh_radical sample_index=126 temperature=300.0 units=atomic
O        -0.0114203047       0.0171414497       0.1066860566   3.090707052408e-04  -4.698266835630e-04  -1.459757298193e-03
H         0.1833785198      -0.2744823963      -0.8050578029  -3.115037100643e-04   4.676279968407e-04   1.461823799168e-03
2
Properties=species:S:1:pos:R:3:forces:R:3 energy=-7.564794884098e+01 dipole="9.5331956526e-02 -1.4271582859e-01 -6.7049824425e-01" quadrupole="-5.0179040342e+00 -4.8930205179e-01 -1.3231917258e-01 -4.8930205179e-01 -4.4910528213e+00 1.7224889618e-01 -1.3231917258e-01 1.7224889618e-01 -3.4821288056e+00" polarizability="7.5931441586e+00 5.2308506091e-01 -4.6059958873e-01 5.2308506091e-01 6.9954886747e+00 7.2444815701e-01 -4.6059958873e-01 7.2444815701e-01 9.8299277547e+00" charge=0 multiplicity=2 method=wB97M-V basis=def2-svpd config_type=oh_radical sample_index=127 temperature=300.0 units=atomic
O        -0.0086184948       0.0129360378       0.1138751790   8.965630835924e-03  -1.342772454417e-02  -6.308238834386e-02
H         0.1383891980      -0.2071420292      -0.9200771734  -8.968238037045e-03   1.342702771672e-02   6.308194089422e-02
2
Properties=species:S:1:pos:R:3:forces:R:3 energy=-7.565317557779e+01 dipole="-8.1711867948e-02 1.2232794887e-01 -6.6084295406e-01" quadrupole="-4.2792275124e+00 -2.8772790973e-01 4.8908369754e-02 -2.8772790973e-01 -5.1374929778e+00 -2.7620983392e-01 4.8908369754e-02 -2.7620983392e-01 -3.5799160358e+00" polarizability="6.5013546950e+00 2.9454166272e-01 3.8890439852e-01 2.9454166272e-01 7.7076466196e+00 -3.1371807564e-01 3.8890439852e-01 -3.1371807564e-01 9.0995229700e+00" charge=0 multiplicity=2 method=wB97M-V basis=def2-svpd config_type=oh_radical sample_index=128 temperature=300.0 units=atomic
O         0.0071509113      -0.0107332501       0.1110815692  -3.633315602175e-03   5.440740897395e-03  -2.939524295777e-02
H        -0.1148238657       0.1718692562      -0.8753819771   3.634555424596e-03  -5.441464471902e-03   2.939459636313e-02
2
Properties=species:S:1:pos:R:3:forces:R:3 energy=-7.563157416993e+01 dipole="-9.3169109629e-02 1.3948127280e-01 -6.9789217465e-01" quadrupole="-5.3464349045e+00 1.6623208569e-02 2.9487887513e-01 1.6623208569e-02 -4.2880812249e+00 -2.2712842718e-01 2.9487887513e-01 -2.2712842718e-01 -3.3216066738e+00" polarizability="8.2253655822e+00 -1.9411274906e-01 4.3262083914e-01 -1.9411274906e-01 6.8955762286e+00 -9.4557352296e-01 4.3262083914e-01 -9.4557352296e-01 1.1509715301e+01" charge=0 multiplicity=2 method=wB97M-V basis=def2-svpd config_type=oh_radical sample_index=129 temperature=300.0 units=atomic
O         0.0088973291      -0.0133545578       0.1199244885  -1.301967275491e-02   1.949118107315e-02  -9.751749465906e-02
H        -0.1428665069       0.2138437000      -1.0168605816   1.301759816099e-02  -1.949036300637e-02   9.751744140814e-02
2
Properties=species:S:1:pos:R:3:forces:R:3 energy=-7.565421431812e+01 dipole="-8.8190903029e-02 1.3202727154e-01 -6.4721354712e-01" quadrupole="-4.1736007159e+00 -6.7018853011e-02 7.6132767094e-02 -6.7018853011e-02 -5.1580465013e+00 -3.2609032205e-01 7.6132767094e-02 -3.2609032205e-01 -3.6604781323e+00" polarizability="6.3314094636e+00 -6.0881433482e-04 3.1892835751e-01 -6.0881433482e-04 7.6809829271e+00 -2.0225054584e-01 3.1892835751e-01 -2.0225054584e-01 8.5881528778e+00" charge=0 multiplicity=2 method=wB97M-V basis=def2-svpd config_type=oh_radical sample_index=130 temperature=300.0 units=atomic
O         0.0075413141      -0.0113192300       0.1085844813   4.155449850887e-04  -6.201347674989e-04   3.031665057441e-03
H        -0.1210926545       0.1812524281      -0.8354308593  -4.131422748506e-04   6.184568361396e-04  -3.032337363203e-03
2
Properties=species:S:1:pos:R:3:forces:R:3 energy=-7.565298026565e+01 dipole="-1.3018609913e-01 1.9489555553e-01 -6.3610796048e-01" quadrupole="-5.1574677655e+00 8.6199576087e-02 3.7690466045e-01 8.6199576087e-02 -4.1662492595e+00 -2.3859185099e-01 3.7690466045e-01 -2.3859185099e-01 -3.6678291839e+00" polarizability="7.7575467542e+00 -3.3475204809e-01 2.0343968718e-01 -3.3475204809e-01 6.6275805345e+00 -7.3580798082e-01 2.0343968718e-01 -7.3580798082e-01 8.9856660807e+00" charge=0 multiplicity=2 method=wB97M-V basis=def2-svpd config_type=oh_radical sample_index=131 temperature=300.0 units=atomic
O         0.0114150940      -0.0171336285       0.1090178149  -6.249923007773e-03   9.362212732350e-03  -3.055121310330e-02
H        -0.1832948498       0.2743571584      -0.8423637990   6.252241018037e-03  -9.361077633683e-03   3.055211484720e-02
2
Properties=species:S:1:pos:R:3:forces:R:3 energy=-7.565197168916e+01 dipole="-7.1182249209e-04 1.0656142306e-03 -6.8173913812e-01" quadrupole="-4.2816168806e+00 -2.3035665418e-01 5.3400004910e-04 -2.3035665418e-01 -5.2242837906e+00 -2.5711840120e-03 5.3400004910e-04 -2.5711840120e-03 -3.4938689966e+00" polarizability="6.4637988357e+00 3.0697604259e-01 3.6066766170e-03 3.0697604259e-01 7.7200416034e+00 -3.0374381273e-03 3.6066766170e-03 -3.0374381273e-03 9.4582331747e+00" charge=0 multiplicity=2 method=wB97M-V basis=def2-svpd config_type=oh_radical sample_index=132 temperature=300.0 units=atomic
O         0.0000629321      -0.0000944587       0.1135309561  -4.434306373756e-05   6.631480690165e-05  -4.246425637140e-02
H        -0.0010105151       0.0015125469      -0.9145699224   4.433058674640e-05  -6.638643953505e-05   4.246703298698e-02
2
Properties=species:S:1:pos:R:3:forces:R:3 energy=-7.565416768494e+01 dipole="-7.5945358033e-02 1.1369407612e-01 -6.5538421856e-01" quadrupole="-4.2150158687e+00 -1.9195702865e-01 4.9834948192e-02 -1.9195702865e-01 -5.1614618584e+00 -2.6636452594e-01 4.9834948192e-02 -2.6636452594e-01 -3.6184031709e+00" polarizability="6.3807505099e+00 1.8288280886e-01 3.1475007203e-01 1.8288280886e-01 7.6718118318e+00 -2.2093157967e-01 3.1475007203e-01 -2.2093157967e-01 8.7483917547e+00" charge=0 multiplicity=2 method=wB97M-V basis=def2-svpd config_type=oh_radical sample_index=133 temperature=300.0 units=atomic
O         0.0065382941      -0.0098137346       0.1096674812  -8.374188890363e-04   1.257698111693e-03  -7.240420721284e-03
H        -0.1049869265       0.1571452491      -0.8527578648   8.395766729758e-04  -1.256253832374e-03   7.239790452866e-03
2
Properties=species:S:1:pos:R:3:forces:R:3 energy=-7.565184562890e+01 dipole="-1.7143719686e-01 2.5664984426e-01 -6.0834048106e-01" quadrupole="-4.5640958867e+00 -5.7989792348e-01 7.9120974422e-02 -5.7989792348e-01 -4.7395774883e+00 -3.9522945972e-01 7.9120974422e-02 -3.9522945972e-01 -3.6811809252e+00" polarizability="7.1105890541e+00 3.7124994859e-01 8.2461757504e-01 3.7124994859e-01 7.6779246007e+00 -8.6530085318e-01 8.2461757504e-01 -8.6530085318e-01 8.8835179883e+00" charge=0 multiplicity=2 method=wB97M-V basis=def2-svpd config_type=oh_radical sample_index=134 temperature=300.0 units=atomic
O         0.0151705596      -0.0227704418       0.1070678475  -1.092757365252e-02   1.636058107758e-02  -3.877829893978e-02
H        -0.2435972449       0.3646182529      -0.8111661089   1.092883270214e-02  -1.636234860393e-02   3.878373111398e-02
2
Properties=species:S:1:pos:R:3:forces:R:3 energy=-7.558574557597e+01 dipole="2.7775552232e-01 -4.1581699937e-01 -5.7761390950e-01" quadrupole="-4.9501302704e+00 -8.5879058825e-01 -4.6590493215e-01 -8.5879058825e-01 -4.2692387889e+00 7.1966035362e-01 -4.6590493215e-01 7.1966035362e-01 -3.5394125620e+00" polarizability="9.4729127740e+00 -1.0639173356e+00 -2.4702593753e+00 -1.0639173356e+00 1.0398929293e+01 3.6664541729e+00 -2.4702593753e+00 3.6664541729e+00 1.2375418767e+01" charge=0 multiplicity=2 method=wB97M-V basis=def2-svpd config_type=oh_radical sample_index=135 temperature=300.0 units=atomic
O        -0.0295146182       0.0443003365       0.1146388879   4.219076023115e-02  -6.315967196874e-02  -8.773669314941e-02
H         0.4739231685      -0.7093718887      -0.9322958159  -4.219108206927e-02   6.316440873420e-02   8.774009043857e-02
2
Properties=species:S:1:pos:R:3:forces:R:3 energy=-7.565104590232e+01 dipole="-1.0113785353e-01 1.5140614001e-01 -6.2566251406e-01" quadrupole="-4.2413419668e+00 2.8906606386e-01 1.7508219668e-01 2.8906606386e-01 -4.9557115672e+00 -3.7695004708e-01 1.7508219668e-01 -3.7695004708e-01 -3.7787414427e+00" polarizability="6.3840321881e+00 -4.5619515887e-01 1.5148194455e-01 -4.5619515887e-01 7.3586605800e+00 -8.2434942396e-02 1.5148194455e-01 -8.2434942396e-02 7.9596037216e+00" charge=0 multiplicity=2 method=wB97M-V basis=def2-svpd config_type=oh_radical sample_index=136 temperature=300.0 units=atomic
O         0.0083690286      -0.0125615985       0.1050015418   1.003695027610e-02  -1.501979324113e-02   6.208285005546e-02
H        -0.1343834611       0.2011462109      -0.7781071100  -1.003597721053e-02   1.502428680459e-02  -6.208281147945e-02
2
Properties=species:S:1:pos:R:3:forces:R:3 energy=-7.565219717985e+01 dipole="-1.1837740527e-01 1.7721685537e-01 -6.4676039706e-01" quadrupole="-5.1697439428e+00 1.2592610820e-01 3.5353822410e-01 1.2592610820e-01 -4.1956709956e+00 -2.3370260882e-01 3.5353822410e-01 -2.3370260882e-01 -3.6275703599e+00" polarizability="7.7694259292e+00 -3.5669327745e-01 2.0367989194e-01 -3.5669327745e-01 6.6296421089e+00 -6.9826135991e-01 2.0367989194e-01 -6.9826135991e-01 9.1876480612e+00" charge=0 multiplicity=2 method=wB97M-V basis=def2-svpd config_type=oh_radical sample_index=137 temperature=300.0 units=atomic
O         0.0104484635      -0.0156827524       0.1103322835  -7.043092778823e-03   1.055154735013e-02  -3.850305585172e-02
H        -0.1677734372       0.2511245871      -0.8633940923   7.046590712966e-03  -1.055095243516e-02   3.850321048845e-02
2
Properties=species:S:1:pos:R:3:forces:R:3 energy=-7.565154483508e+01 dipole="4.4821604678e-03 -6.7103852428e-03 -6.5279546642e-01" quadrupole="-5.0366217392e+00 3.6237696118e-01 -1.3674857734e-02 3.6237696118e-01 -4.2926075703e+00 9.7333413526e-03 -1.3674857734e-02 9.7333413526e-03 -3.6534399655e+00" polarizability="7.3271158448e+00 -4.5680569705e-01 -3.1219827316e-04 -4.5680569705e-01 6.3897721432e+00 1.3998491188e-02 -3.1219827316e-04 1.3998491188e-02 8.0564501535e+00" charge=0 multiplicity=2 method=wB97M-V basis=def2-svpd config_type=oh_radical sample_index=138 temperature=300.0 units=atomic
O        -0.0003719336       0.0005582584       0.1074043006  -4.031405500036e-04   6.035893564472e-04   5.875948671795e-02
H         0.0059722253      -0.0089392733      -0.8165490498   4.032858325827e-04  -6.038525817325e-04  -5.876053986873e-02
2
Properties=species:S:1:pos:R:3:forces:R:3 energy=-7.563447192194e+01 dipole="-1.4546610104e-01 2.1777161854e-01 -6.6420882047e-01" quadrupole="-4.6911787651e+00 -5.8605201750e-01 1.3659701547e-01 -5.8605201750e-01 -4.8344627986e+00 -4.1069564454e-01 1.3659701547e-01 -4.1069564454e-01 -3.4319435595e+00" polarizability="7.4456760796e+00 4.0980772523e-01 1.0178178389e+00 4.0980772523e-01 7.9778321483e+00 -1.2378539874e+00 1.0178178389e+00 -1.2378539874e+00 1.0850860945e+01" charge=0 multiplicity=2 method=wB97M-V basis=def2-svpd config_type=oh_radical sample_index=139 temperature=300.0 units=atomic
O         0.0137791749      -0.0206820254       0.1161831032  -1.968719723537e-02   2.947089661034e-02  -8.988478558299e-02
H        -0.2212554523       0.3311768838      -0.9570018454   1.968608783492e-02  -2.947166320251e-02   8.988583366410e-02
2
Properties=species:S:1:pos:R:3:forces:R:3 energy=-7.565403328010e+01 dipole="5.6956794701e-02 -8.5267790287e-02 -6.5534768678e-01" quadrupole="-4.2193750187e+00 -2.2771170616e-01 -3.0059281341e-02 -2.2771170616e-01 -5.1452951005e+00 1.9001063447e-01 -3.0059281341e-02 1.9001063447e-01 -3.6275053553e+00" polarizability="6.3471472513e+00 2.5855429011e-01 -2.2306925325e-01 2.5855429011e-01 7.5699026841e+00 1.4696278892e-01 -2.2306925325e-01 1.4696278892e-01 8.4882123342e+00" charge=0 multiplicity=2 method=wB97M-V basis=def2-svpd config_type=oh_radical sample_index=140 temperature=300.0 units=atomic
O        -0.0048375380       0.0072609633       0.1089025595  -1.232007643018e-03   1.847299261124e-03   1.418957965222e-02
H         0.0776774850      -0.1162682644      -0.8405198184   1.232414063832e-03  -1.845206321611e-03  -1.418764223832e-02
2
Properties=species:S:1:pos:R:3:forces:R:3 energy=-7.565311183086e+01 dipole="-2.8163778677e-02 4.2164701243e-02 -6.5588593360e-01" quadrupole="-5.0912730171e+00 3.0979754343e-01 8.5576334361e-02 3.0979754343e-01 -4.2610030902e+00 -5.8211474649e-02 8.5576334361e-02 -5.8211474649e-02 -3.6359991539e+00" polarizability="7.4258590030e+00 -4.0273966317e-01 1.0611627565e-02 -4.0273966317e-01 6.3743185349e+00 -1.0495210080e-01 1.0611627565e-02 -1.0495210080e-01 8.2687076602e+00" charge=0 multiplicity=2 method=wB97M-V basis=def2-svpd config_type=oh_radical sample_index=141 temperature=300.0 units=atomic
O         0.0023632751      -0.0035471874       0.1082747106   1.553874401061e-03  -2.326503923504e-03   3.621278147829e-02
H        -0.0379476638       0.0568003587      -0.8304748122  -1.554195577852e-03   2.327373187336e-03  -3.621046523151e-02
2
Properties=species:S:1:pos:R:3:forces:R:3 energy=-7.558721075960e+01 dipole="-2.9690305148e-01 4.4448031525e-01 -5.4424271960e-01" quadrupole="-4.5904581728e+00 -8.9452317186e-01 2.9720742539e-01 -8.9452317186e-01 -4.4366576912e+00 -9.2476253080e-01 2.9720742539e-01 -9.2476253080e-01 -3.7314801310e+00" polarizability="9.1470776079e+00 -1.3097857524e+00 2.6940812716e+00 -1.3097857524e+00 1.1067002277e+01 -3.3520417473e+00 2.6940812716e+00 -3.3520417473e+00 1.1838945593e+01" charge=0 multiplicity=2 method=wB97M-V basis=def2-svpd config_type=oh_radical sample_index=142 temperature=300.0 units=atomic
O         0.0314449607      -0.0471977083       0.1108887843  -4.523284652593e-02   6.771519913141e-02  -8.291540841143e-02
H        -0.5049191322       0.7557668885      -0.8722975956   4.523262097059e-02  -6.771742077704e-02   8.291494814929e-02
2
Properties=species:S:1:pos:R:3:forces:R:3 energy=-7.565421481884e+01 dipole="-1.3406784955e-01 2.0070891728e-01 -6.2120244377e-01" quadrupole="-4.8745195679e+00 3.4762923307e-01 4.0644693743e-01 3.4762923307e-01 -4.3312824106e+00 -3.3977173251e-01 4.0644693743e-01 -3.3977173251e-01 -3.7811140708e+00" polarizability="7.3176073172e+00 -6.5342744117e-01 8.1826170653e-02 -6.5342744117e-01 6.7806724741e+00 -4.7100662947e-01 8.1826170653e-02 -4.7100662947e-01 8.5051082235e+00" charge=0 multiplicity=2 method=wB97M-V basis=def2-svpd config_type=oh_radical sample_index=143 temperature=300.0 units=atomic
O         0.0114654993      -0.0172092850       0.1063576713   5.967483426726e-04  -8.919344448235e-04   2.772981338990e-03
H        -0.1841042192       0.2755686287      -0.7998039393  -5.984908510472e-04   8.950768049882e-04  -2.769088961007e-03
2
Properties=species:S:1:pos:R:3:forces:R:3 energy=-7.565023592616e+01 dipole="-7.6720953992e-02 1.1485520944e-01 -6.7275969592e-01" quadrupole="-4.9375016765e+00 -5.1048218679e-01 8.9181757248e-02 -5.1048218679e-01 -4.5618874084e+00 -1.4160316060e-01 8.9181757248e-02 -1.4160316060e-01 -3.4961493137e+00" polarizability="7.4202837534e+00 6.0066047816e-01 3.6705879011e-01 6.0066047816e-01 6.9862255871e+00 -5.3858491304e-01 3.6705879011e-01 -5.3858491304e-01 9.6059257743e+00" charge=0 multiplicity=2 method=wB97M-V basis=def2-svpd config_type=oh_radical sample_index=144 temperature=300.0 units=atomic
O         0.0068571916      -0.0102923878       0.1133871746  -6.055850294910e-03   9.067253811257e-03  -5.311136152474e-02
H        -0.1101075389       0.1648098215      -0.9122695497   6.056581850438e-03  -9.067372573467e-03   5.311227551241e-02
2
Properties=species:S:1:pos:R:3:forces:R:3 energy=-7.565391848283e+01 dipole="-1.4794127316e-01 2.2147632966e-01 -6.0636126440e-01" quadrupole="-4.3584563574e+00 3.2776620531e-01 3.2101288147e-01 3.2776620531e-01 -4.7475521733e+00 -5.2336726248e-01 3.2101288147e-01 -5.2336726248e-01 -3.8756679904e+00" polarizability="6.6554112285e+00 -6.5459113830e-01 2.0560092010e-01 -6.5459113830e-01 7.3491114876e+00 -2.5267877923e-01 2.0560092010e-01 -2.5267877923e-01 8.3356609959e+00" charge=0 multiplicity=2 method=wB97M-V basis=def2-svpd config_type=oh_radical sample_index=145 temperature=300.0 units=atomic
O         0.0125363507      -0.0188165928       0.1046090038   4.096099290960e-03  -6.132216756661e-03   1.679479460451e-02
H        -0.2012991321       0.3013061082      -0.7718268619  -4.097406972505e-03   6.133141768274e-03  -1.679067349429e-02
2
Properties=species:S:1:pos:R:3:forces:R:3 energy=-7.565008493226e+01 dipole="7.6608321377e-02 -1.1468610518e-01 -6.7319666863e-01" quadrupole="-4.9947263537e+00 -4.8619700987e-01 -9.9931594420e-02 -4.8619700987e-01 -4.5069719599e+00 1.3514374591e-01 -9.9931594420e-02 1.3514374591e-01 -3.4936883635e+00" polarizability="7.4992742459e+00 5.6830202824e-01 -3.5428734991e-01 5.6830202824e-01 6.9143258634e+00 5.4977415524e-01 -3.5428734991e-01 5.4977415524e-01 9.6278185382e+00" charge=0 multiplicity=2 method=wB97M-V basis=def2-svpd config_type=oh_radical sample_index=146 temperature=300.0 units=atomic
O        -0.0068527970       0.0102857916       0.1134765824   6.136672083889e-03  -9.189375744697e-03  -5.394052118477e-02
H         0.1100369734      -0.1647041985      -0.9136999935  -6.138113703822e-03   9.189287111989e-03   5.394168285997e-02
2
Properties=species:S:1:pos:R:3:forces:R:3 energy=-7.564860149024e+01 dipole="-1.1394730749e-01 1.7058446509e-01 -6.5953098601e-01" quadrupole="-5.2500865948e+00 -1.1741696387e-01 2.9558498924e-01 -1.1741696387e-01 -4.2018672316e+00 -1.9651440066e-01 2.9558498924e-01 -1.9651440066e-01 -3.5381323091e+00" polarizability="7.9366432396e+00 -3.6884839571e-02 3.4101904034e-01 -3.6884839571e-02 6.6832535339e+00 -8.4262713507e-01 3.4101904034e-01 -8.4262713507e-01 9.6888769900e+00" charge=0 multiplicity=2 method=wB97M-V basis=def2-svpd config_type=oh_radical sample_index=147 temperature=300.0 units=atomic
O         0.0102701519      -0.0154151134       0.1126987880  -1.028207112583e-02   1.540037143294e-02  -5.954147128670e-02
H        -0.1649102456       0.2468389396      -0.9012559962   1.028606895525e-02  -1.540105388844e-02   5.954182518792e-02
2
Properties=species:S:1:pos:R:3:forces:R:3 energy=-7.565367338758e+01 dipole="-3.5902637720e-02 5.3748155755e-02 -6.7118081663e-01" quadrupole="-4.6297445905e+00 5.0674932409e-01 1.0257834345e-01 5.0674932409e-01 -4.8139032593e+00 -1.3465240046e-01 1.0257834345e-01 -1.3465240046e-01 -3.5551646374e+00" polarizability="6.9068362304e+00 -6.8305926827e-01 6.0688349534e-02 -6.8305926827e-01 7.1625517878e+00 -1.1572936460e-01 6.0688349534e-02 -1.1572936460e-01 9.0514940408e+00" charge=0 multiplicity=2 method=wB97M-V basis=def2-svpd config_type=oh_radical sample_index=148 temperature=300.0 units=atomic
O         0.0031233748      -0.0046880686       0.1116408879  -1.187308083316e-03   1.778191795896e-03  -2.221376349780e-02
H        -0.0501527638       0.0750690473      -0.8843305632   1.188394622278e-03  -1.779151972553e-03   2.221269174480e-02
2
Properties=species:S:1:pos:R:3:forces:R:3 energy=-7.564148078712e+01 dipole="-1.4569713445e-01 2.1811645577e-01 -6.5309685742e-01" quadrupole="-4.9920421792e+00 -5.4980735660e-01 2.0090794498e-01 -5.4980735660e-01 -4.4960474421e+00 -2.8728081600e-01 2.0090794498e-01 -2.8728081600e-01 -3.4854609740e+00" polarizability="7.7760219684e+00 3.8844195017e-01 8.0007911544e-01 3.8844195017e-01 7.3988275122e+00 -1.2161805108e+00 8.0007911544e-01 -1.2161805108e+00 1.0196262841e+01" charge=0 multiplicity=2 method=wB97M-V basis=def2-svpd config_type=oh_radical sample_index=149 temperature=300.0 units=atomic
O         0.0135048477      -0.0202702705       0.1137947380  -1.745908905722e-02   2.613718023153e-02  -7.826132081417e-02
H        -0.2168505161       0.3245835410      -0.9187901921   1.745986983182e-02  -2.613872889877e-02   7.826433798954e-02
2
Properties=species:S:1:pos:R:3:forces:R:3 energy=-7.564445754489e+01 dipole="1.4051186084e-01 -2.1035429816e-01 -6.5143945555e-01" quadrupole="-5.1127068193e+00 -4.5167045003e-01 -2.4405811125e-01 -4.5167045003e-01 -4.3561232020e+00 2.4191028816e-01 -2.4405811125e-01 2.4191028816e-01 -3.5112421002e+00" polarizability="7.8836332736e+00 2.9250382487e-01 -6.5038216271e-01 2.9250382487e-01 7.1197457297e+00 1.1420098374e+00 -6.5038216271e-01 1.1420098374e+00 9.9519828953e+00" charge=0 multiplicity=2 method=wB97M-V basis=def2-svpd config_type=oh_radical sample_index=150 temperature=300.0 units=atomic
O        -0.0128868682       0.0193427064       0.1130013450   1.546160276554e-02  -2.314708825746e-02  -7.168123012254e-02
H         0.2069274737      -0.3097306539      -0.9060966302  -1.546122006496e-02   2.314751261256e-02   7.168123763532e-02
2
Properties=species:S:1:pos:R:3:forces:R:3 energy=-7.556138745243e+01 dipole="8.2538386678e-02 -1.2356438025e-01 -5.7891442238e-01" quadrupole="-4.9438468221e+00 -2.0156586051e-01 -1.2225662824e-01 -2.0156586051e-01 -4.0146873470e+00 2.0345575067e-02 -1.2225662824e-01 2.0345575067e-02 -3.8683979713e+00" polarizability="6.9656732810e+00 1.9902329326e-01 7.8792364269e-02 1.9902329326e-01 6.0014214639e+00 5.2612277241e-02 7.8792364269e-02 5.2612277241e-02 6.1150219941e+00" charge=0 multiplicity=2 method=wB97M-V basis=def2-svpd config_type=oh_radical sample_index=151 temperature=300.0 units=atomic
O        -0.0059798046       0.0089754628       0.0951363428  -7.668048287143e-02   1.147980275740e-01   5.378371201180e-01
H         0.0960191298      -0.1437221812      -0.6202729669   7.668052324907e-02  -1.147951362572e-01  -5.378296325395e-01
2
Properties=species:S:1:pos:R:3:forces:R:3 energy=-7.565421986873e+01 dipole="3.2538726851e-02 -4.8712951254e-02 -6.6528238238e-01" quadrupole="-4.7608999855e+00 5.1285751971e-01 -9.8828558054e-02 5.1285751971e-01 -4.6471346909e+00 1.0847278092e-01 -9.8828558054e-02 1.0847278092e-01 -3.5883102867e+00" polarizability="7.0490382254e+00 -6.7929675586e-01 -3.3115506001e-02 -6.7929675586e-01 6.9111252958e+00 1.0091650922e-01 -3.3115506001e-02 1.0091650922e-01 8.7340749141e+00" charge=0 multiplicity=2 method=wB97M-V basis=def2-svpd config_type=oh_radical sample_index=152 temperature=300.0 units=atomic
O        -0.0027913370       0.0041896923       0.1103170719   9.361093357324e-05  -1.393018049594e-04  -1.906491092200e-03
H         0.0448211546      -0.0670886531      -0.8631507201  -9.372601391434e-05   1.401415588800e-04   1.907278479507e-03
2
Properties=species:S:1:pos:R:3:forces:R:3 energy=-7.565244404936e+01 dipole="-1.8869529793e-02 2.8249930719e-02 -6.5454258424e-01" quadrupole="-5.1097834971e+00 2.7702675639e-01 5.6213249125e-02 2.7702675639e-01 -4.2321059227e+00 -3.6352233687e-02 5.6213249125e-02 -3.6352233687e-02 -3.6438606149e+00" polarizability="7.4343383919e+00 -3.5458165552e-01 5.8670781002e-03 -3.5458165552e-01 6.3246704182e+00 -6.9363086815e-02 5.8670781002e-03 -6.9363086815e-02 8.1654838482e+00" charge=0 multiplicity=2 method=wB97M-V basis=def2-svpd config_type=oh_radical sample_index=153 temperature=300.0 units=atomic
O         0.0015748531      -0.0023637955       0.1078653045   1.349242640036e-03  -2.019261653809e-03   4.682008864093e-02
H        -0.0252877863       0.0378509554      -0.8239246889  -1.349135977200e-03   2.020161791507e-03  -4.681908575243e-02
2
Properties=species:S:1:pos:R:3:forces:R:3 energy=-7.565353109843e+01 dipole="6.8032153552e-03 -1.0184507757e-02 -6.7504567967e-01" quadrupole="-4.2681618380e+00 -2.4131882878e-01 -4.4444178446e-03 -2.4131882878e-01 -5.1972641360e+00 2.3687481875e-02 -4.4444178446e-03 2.3687481875e-02 -3.5341761174e+00" polarizability="6.4234514895e+00 3.1753300942e-01 -3.1855984344e-02 3.1753300942e-01 7.6487185450e+00 2.5228307644e-02 -3.1855984344e-02 2.5228307644e-02 9.1081268348e+00" charge=0 multiplicity=2 method=wB97M-V basis=def2-svpd config_type=oh_radical sample_index=154 temperature=300.0 units=atomic
O        -0.0005929573       0.0008900066       0.1120899095   2.504274046376e-04  -3.743255701807e-04  -2.485134951659e-02
H         0.0095212542      -0.0142514874      -0.8915144984  -2.504178346604e-04   3.750944464169e-04   2.485179440384e-02
2
Properties=species:S:1:pos:R:3:forces:R:3 energy=-7.565346883634e+01 dipole="-3.3547252227e-02 5.0223308736e-02 -6.5669727280e-01" quadrupole="-5.0458528633e+00 3.6390185645e-01 1.0406019472e-01 3.6390185645e-01 -4.3124558143e+00 -7.6604780298e-02 1.0406019472e-01 -7.6604780298e-02 -3.6314756559e+00" polarizability="7.3782001309e+00 -4.7690672258e-01 1.3126274145e-02 -4.7690672258e-01 6.4498180383e+00 -1.2089505111e-01 1.3126274145e-02 -1.2089505111e-01 8.3392529742e+00" charge=0 multiplicity=2 method=wB97M-V basis=def2-svpd config_type=oh_radical sample_index=155 temperature=300.0 units=atomic
O         0.0028251635      -0.0042404646       0.1085429534   1.501266762813e-03  -2.247909058308e-03   2.940460778230e-02
H        -0.0453643145       0.0679016592      -0.8347664515  -1.501276376901e-03   2.248028628684e-03  -2.940170570523e-02
2
Properties=species:S:1:pos:R:3:forces:R:3 energy=-7.565412312067e+01 dipole="1.5273108034e-01 -2.2864730276e-01 -6.1124789049e-01" quadrupole="-4.3720787969e+00 3.1662224718e-01 -3.3914990205e-01 3.1662224718e-01 -4.7593265653e+00 5.5431434303e-01 -3.3914990205e-01 5.5431434303e-01 -3.8547936167e+00" polarizability="6.7274582006e+00 -6.8984287068e-01 -2.7489324542e-01 -6.8984287068e-01 7.4624174799e+00 3.5058214350e-01 -2.7489324542e-01 3.5058214350e-01 8.6605720256e+00" charge=0 multiplicity=2 method=wB97M-V basis=def2-svpd config_type=oh_radical sample_index=156 temperature=300.0 units=atomic
O        -0.0131706273       0.0197686183       0.1059416396   2.246082934114e-03  -3.361606349633e-03  -8.981420016202e-03
H         0.2114838610      -0.3165506898      -0.7931478138  -2.243617616062e-03   3.360012690919e-03   8.982004025035e-03
2
Properties=species:S:1:pos:R:3:forces:R:3 energy=-7.565055236559e+01 dipole="1.2366111766e-01 -1.8512879759e-01 -6.4882561589e-01" quadrupole="-5.2117135619e+00 2.7253629916e-02 -3.5414613102e-01 2.7253629916e-02 -4.1792781751e+00 2.2908692897e-01 -3.5414613102e-01 2.2908692897e-01 -3.6002224635e+00" polarizability="7.8730334673e+00 -2.5502379805e-01 -2.7401466432e-01 -2.5502379805e-01 6.6693446502e+00 8.1398402207e-01 -2.7401466432e-01 8.1398402207e-01 9.4080129556e+00" charge=0 multiplicity=2 method=wB97M-V basis=def2-svpd config_type=oh_radical sample_index=157 temperature=300.0 units=atomic
O        -0.0110329320       0.0165600177       0.1111365434   9.441380887961e-03  -1.413780097728e-02  -4.954315022534e-02
H         0.1771583847      -0.2651720495      -0.8762615144  -9.441970202484e-03   1.413713552076e-02   4.954431590678e-02
2
Properties=species:S:1:pos:R:3:forces:R:3 energy=-7.565400064891e+01 dipole="-9.9573087204e-02 1.4906613719e-01 -6.4735205555e-01" quadrupole="-4.1824706548e+00 -1.2672134317e-02 1.0455837361e-01 -1.2672134317e-02 -5.1532614482e+00 -3.8244598315e-01 1.0455837361e-01 -3.8244598315e-01 -3.6580260498e+00" polarizability="6.3794705975e+00 -1.0297064678e-01 3.6914462417e-01 -1.0297064678e-01 7.7505494126e+00 -2.5655973786e-01 3.6914462417e-01 -2.5655973786e-01 8.8177029925e+00" charge=0 multiplicity=2 method=wB97M-V basis=def2-svpd config_type=oh_radical sample_index=158 temperature=300.0 units=atomic
O         0.0086140899      -0.0129294263       0.1092452703  -2.149607620868e-03   3.222377795290e-03  -1.398677098763e-02
H        -0.1383184681       0.2070361601      -0.8460028770   2.151084536005e-03  -3.220159945009e-03   1.398446533008e-02
2
Properties=species:S:1:pos:R:3:forces:R:3 energy=-7.564815821959e+01 dipole="-1.0909245988e-01 1.6331738918e-01 -6.6319716673e-01" quadrupole="-5.1082162865e+00 -4.2651939532e-01 1.8301231123e-01 -4.2651939532e-01 -4.3773894230e+00 -1.8103646346e-01 1.8301231123e-01 -1.8103646346e-01 -3.5044018894e+00" polarizability="7.7409067686e+00 3.9566450449e-01 4.7283450929e-01 3.9566450449e-01 6.9028376966e+00 -8.3345443928e-01 4.7283450929e-01 -8.3345443928e-01 9.7400113905e+00" charge=0 multiplicity=2 method=wB97M-V basis=def2-svpd config_type=oh_radical sample_index=159 temperature=300.0 units=atomic
O         0.0098531045      -0.0147891409       0.1131552712  -1.013215879604e-02   1.517299114672e-02  -6.161129219478e-02
H        -0.1582136176       0.2368153748      -0.9085593087   1.013347730722e-02  -1.517250337767e-02   6.161041981959e-02
2
Properties=species:S:1:pos:R:3:forces:R:3 energy=-7.565326249914e+01 dipole="4.4341514607e-02 -6.6380211682e-02 -6.5363309176e-01" quadrupole="-4.8958181047e+00 4.5863396821e-01 -1.3729254052e-01 4.5863396821e-01 -4.4456339037e+00 1.2118583915e-01 -1.3729254052e-01 1.2118583915e-01 -3.6469241422e+00" polarizability="7.1875789109e+00 -6.0516219608e-01 -1.4346506052e-02 -6.0516219608e-01 6.6294753704e+00 1.2910414956e-01 -1.4346506052e-02 1.2910414956e-01 8.2908635584e+00" charge=0 multiplicity=2 method=wB97M-V basis=def2-svpd config_type=oh_radical sample_index=160 temperature=300.0 units=atomic
O        -0.0037260177       0.0055926130       0.1081642403  -2.260340301804e-03   3.385820507402e-03   3.333881898904e-02
H         0.0598295425      -0.0895533250      -0.8287073885   2.261264121358e-03  -3.384387325981e-03  -3.333823251470e-02
2
Properties=species:S:1:pos:R:3:forces:R:3 energy=-7.564882969681e+01 dipole="-1.3111703609e-01 1.9628902642e-01 -6.4856478085e-01" quadrupole="-5.2320785313e+00 -1.0265977121e-01 3.4621403925e-01 -1.0265977121e-01 -4.1783334246e+00 -2.2508190156e-01 3.4621403925e-01 -2.2508190156e-01 -3.5778776475e+00" polarizability="7.9506790635e+00 -1.1880495035e-01 3.6534358399e-01 -1.1880495035e-01 6.7421481942e+00 -9.4250891841e-01 3.6534358399e-01 -9.4250891841e-01 9.5765786431e+00" charge=0 multiplicity=2 method=wB97M-V basis=def2-svpd config_type=oh_radical sample_index=161 temperature=300.0 units=atomic
O         0.0118047257      -0.0177184511       0.1116426054  -1.164807872052e-02   1.744415930828e-02  -5.763348839094e-02
H        -0.1895512577       0.2837217984      -0.8843580425   1.165114744068e-02  -1.744452188332e-02   5.763490801860e-02
2
Properties=species:S:1:pos:R:3:forces:R:3 energy=-7.565276127172e+01 dipole="1.1670461988e-01 -1.7471263971e-01 -6.4550727962e-01" quadrupole="-5.1359698532e+00 1.8239271201e-01 -3.5598127358e-01 1.8239271201e-01 -4.2153644686e+00 2.4277410326e-01 -3.5598127358e-01 2.4277410326e-01 -3.6419405190e+00" polarizability="7.7064373903e+00 -4.2115943297e-01 -1.7447373410e-01 -4.2115943297e-01 6.6338215905e+00 6.4600189517e-01 -1.7447373410e-01 6.4600189517e-01 9.0955506691e+00" charge=0 multiplicity=2 method=wB97M-V basis=def2-svpd config_type=oh_radical sample_index=162 temperature=300.0 units=atomic
O        -0.0102535718       0.0153902272       0.1099589450   6.021286347137e-03  -9.021530954924e-03  -3.332350906110e-02
H         0.1646440148      -0.2464404433      -0.8574210189  -6.023794541047e-03   9.020107946183e-03   3.332263161013e-02
2
Properties=species:S:1:pos:R:3:forces:R:3 energy=-7.565398311364e+01 dipole="5.2810300344e-02 -7.9059571881e-02 -6.5598096338e-01" quadrupole="-4.1994697958e+00 -1.7999871567e-01 -3.1770669171e-02 -1.7999871567e-01 -5.1653071647e+00 1.8192938273e-01 -3.1770669171e-02 1.8192938273e-01 -3.6272331346e+00" polarizability="6.3167699909e+00 2.0193452905e-01 -2.0042290690e-01 2.0193452905e-01 7.5855392159e+00 1.2695583049e-01 -2.0042290690e-01 1.2695583049e-01 8.4725705378e+00" charge=0 multiplicity=2 method=wB97M-V basis=def2-svpd config_type=oh_radical sample_index=163 temperature=300.0 units=atomic
O        -0.0044805430       0.0067251273       0.1088966476  -1.290136281968e-03   1.932762157189e-03   1.603811463311e-02
H         0.0719451335      -0.1076880361      -0.8404252343   1.290442001966e-03  -1.932008873289e-03  -1.603629114998e-02
2
Properties=species:S:1:pos:R:3:forces:R:3 energy=-7.565385129830e+01 dipole="8.5494619205e-03 -1.2799630377e-02 -6.6158153769e-01" quadrupole="-5.0673552126e+00 3.6082339043e-01 -2.6696021318e-02 3.6082339043e-01 -4.3159530464e+00 1.9635808464e-02 -2.6696021318e-02 1.9635808464e-02 -3.6091335610e+00" polarizability="7.4098076564e+00 -4.6446298128e-01 -4.5091591880e-03 -4.6446298128e-01 6.4448411081e+00 3.2872518537e-02 -4.5091591880e-03 3.2872518537e-02 8.4534406809e+00" charge=0 multiplicity=2 method=wB97M-V basis=def2-svpd config_type=oh_radical sample_index=164 temperature=300.0 units=atomic
O        -0.0007236642       0.0010861929       0.1092399991  -2.623080894882e-04   3.926734315628e-04   2.034716508742e-02
H         0.0116200466      -0.0173929762      -0.8459185424   2.626343157727e-04  -3.933847753647e-04  -2.034415279767e-02
2
Properties=species:S:1:pos:R:3:forces:R:3 energy=-7.564305898641e+01 dipole="3.9162347638e-02 -5.8628753745e-02 -6.3517938039e-01" quadrupole="-5.0797115207e+00 2.1887346955e-01 -1.0833098852e-01 2.1887346955e-01 -4.1519516006e+00 5.9777757955e-02 -1.0833098852e-01 5.9777757955e-02 -3.7272114534e+00" polarizability="7.3216593631e+00 -2.7754098235e-01 1.4898990583e-02 -2.7754098235e-01 6.2021342613e+00 1.0226760454e-01 1.4898990583e-02 1.0226760454e-01 7.4869720055e+00" charge=0 multiplicity=2 method=wB97M-V basis=def2-svpd config_type=oh_radical sample_index=165 temperature=300.0 units=atomic
O        -0.0031491827       0.0047268053       0.1043031427  -8.245655835794e-03   1.234401571535e-02   1.337317719274e-01
H         0.0505671681      -0.0756893310      -0.7669333657   8.244244959539e-03  -1.234241892279e-02  -1.337301863272e-01
2
Properties=species:S:1:pos:R:3:forces:R:3 energy=-7.565417635230e+01 dipole="8.0169431952e-02 -1.2001745873e-01 -6.5356850199e-01" quadrupole="-4.2061397730e+00 -1.7229231423e-01 -5.5169634896e-02 -1.7229231423e-01 -5.1619195666e+00 2.8429957893e-01 -5.5169634896e-02 2.8429957893e-01 -3.6264058847e+00" polarizability="6.3736872501e+00 1.4959210483e-01 -3.2685436539e-01 1.4959210483e-01 7.6827945043e+00 2.2615480066e-01 -3.2685436539e-01 2.2615480066e-01 8.7327687169e+00" charge=0 multiplicity=2 method=wB97M-V basis=def2-svpd config_type=oh_radical sample_index=166 temperature=300.0 units=atomic
O        -0.0068992616       0.0103555333       0.1094885677   8.128546315049e-04  -1.223365611637e-03  -6.647938815634e-03
H         0.1107830672      -0.1658209576      -0.8498954122  -8.158077199825e-04   1.220748037864e-03   6.646871839021e-03
2
Properties=species:S:1:pos:R:3:forces:R:3 energy=-7.565397767085e+01 dipole="4.5273134552e-02 -6.7777070339e-02 -6.5775381289e-01" quadrupole="-4.7606138051e+00 5.0345777496e-01 -1.3618079999e-01 5.0345777496e-01 -4.6044174568e+00 1.4474485116e-01 -1.3618079999e-01 1.4474485116e-01 -3.6273022393e+00" polarizability="7.0339678565e+00 -6.7033166600e-01 -3.1946753877e-02 -6.7033166600e-01 6.8510461565e+00 1.2394836282e-01 -3.1946753877e-02 1.2394836282e-01 8.4866926672e+00" charge=0 multiplicity=2 method=wB97M-V basis=def2-svpd config_type=oh_radical sample_index=167 temperature=300.0 units=atomic
O        -0.0038406819       0.0057647197       0.1090413594  -1.119021639661e-03   1.677588130722e-03   1.627356050798e-02
H         0.0616707328      -0.0923092331      -0.8427404904   1.119425758012e-03  -1.675936767857e-03  -1.627174514727e-02
2
Properties=species:S:1:pos:R:3:forces:R:3 energy=-7.564934394540e+01 dipole="4.1795681314e-02 -6.2568936215e-02 -6.4370168413e-01" quadrupole="-4.9074182591e+00 4.3519376864e-01 -1.2654217750e-01 4.3519376864e-01 -4.3736979107e+00 1.0247824563e-01 -1.2654217750e-01 1.0247824563e-01 -3.6938065522e+00" polarizability="7.1534551024e+00 -5.5715352096e-01 8.5632701202e-03 -5.5715352096e-01 6.5009722974e+00 9.5499478356e-02 8.5632701202e-03 9.5499478356e-02 7.8469086845e+00" charge=0 multiplicity=2 method=wB97M-V basis=def2-svpd config_type=oh_radical sample_index=168 temperature=300.0 units=atomic
O        -0.0034310590       0.0051498910       0.1060745502  -5.319746574672e-03   7.965173505128e-03   8.195084145869e-02
H         0.0550933208      -0.0824641116      -0.7952742609   5.320631177224e-03  -7.964251369173e-03  -8.195188795406e-02
2
Properties=species:S:1:pos:R:3:forces:R:3 energy=-7.565319814891e+01 dipole="1.5165706315e-01 -2.2703864808e-01 -5.9890760289e-01" quadrupole="-4.3106356247e+00 3.0159316089e-01 -3.0578884398e-01 3.0159316089e-01 -4.7596427355e+00 5.3313643541e-01 -3.0578884398e-01 5.3313643541e-01 -3.9068474849e+00" polarizability="6.5809364431e+00 -6.1563393946e-01 -1.9991255059e-01 -6.1563393946e-01 7.3452133164e+00 2.0313597797e-01 -1.9991255059e-01 2.0313597797e-01 8.1646042194e+00" charge=0 multiplicity=2 method=wB97M-V basis=def2-svpd config_type=oh_radical sample_index=169 temperature=300.0 units=atomic
O        -0.0127358089       0.0191159722       0.1035180520  -8.013399046699e-03   1.199752064893e-02   3.164980161668e-02
H         0.2045018802      -0.3061000065      -0.7543726335   8.013798450057e-03  -1.199600604738e-02  -3.164395384531e-02
2
Properties=species:S:1:pos:R:3:forces:R:3 energy=-7.565006403255e+01 dipole="-1.2441045942e-01 1.8625070516e-01 -6.4970809554e-01" quadrupole="-5.2196482207e+00 5.0969313172e-03 3.5258511895e-01 5.0969313172e-03 -4.1789088677e+00 -2.2822269447e-01 3.5258511895e-01 -2.2822269447e-01 -3.5920683254e+00" polarizability="7.8948360001e+00 -2.3113461187e-01 2.9182908000e-01 -2.3113461187e-01 6.6822453937e+00 -8.3942083624e-01 2.9182908000e-01 -8.3942083624e-01 9.4683265930e+00" charge=0 multiplicity=2 method=wB97M-V basis=def2-svpd config_type=oh_radical sample_index=170 temperature=300.0 units=atomic
O         0.0111302173      -0.0167060392       0.1113749959  -9.987376907153e-03   1.495544202881e-02  -5.216326691287e-02
H        -0.1787205171       0.2675102616      -0.8800765346   9.987933091142e-03  -1.495464750887e-02   5.216417841822e-02
2
Properties=species:S:1:pos:R:3:forces:R:3 energy=-7.564274990456e+01 dipole="1.6976613114e-01 -2.5414920636e-01 -6.3169420379e-01" quadrupole="-4.9889998276e+00 -5.6385659267e-01 -2.3200248050e-01 -5.6385659267e-01 -4.4351292450e+00 3.1247195972e-01 -2.3200248050e-01 3.1247195972e-01 -3.5481096688e+00" polarizability="7.8405281645e+00 2.8515922376e-01 -8.6895505159e-01 2.8515922376e-01 7.4857758021e+00 1.3484881444e+00 -8.6895505159e-01 1.3484881444e+00 9.8709282412e+00" charge=0 multiplicity=2 method=wB97M-V basis=def2-svpd config_type=oh_radical sample_index=171 temperature=300.0 units=atomic
O        -0.0156669980       0.0235155772       0.1115470286   1.968794669305e-02  -2.947425234013e-02  -7.325821098281e-02
H         0.2515686731      -0.3765499487      -0.8828289003  -1.968872976142e-02   2.947510110627e-02   7.326218959512e-02
2
Properties=species:S:1:pos:R:3:forces:R:3 energy=-7.564411123900e+01 dipole="-3.2922372639e-02 4.9287177229e-02 -6.3758186347e-01" quadrupole="-5.1024811974e+00 1.8358497638e-01 8.9446066164e-02 1.8358497638e-01 -4.1410258717e+00 -4.7802254733e-02 8.9446066164e-02 -4.7802254733e-02 -3.7180880277e+00" polarizability="7.3534935699e+00 -2.3227440876e-01 -8.1186361656e-03 -2.3227440876e-01 6.1863765984e+00 -9.2958952257e-02 -8.1186361656e-03 -9.2958952257e-02 7.5372503696e+00" charge=0 multiplicity=2 method=wB97M-V basis=def2-svpd config_type=oh_radical sample_index=172 temperature=300.0 units=atomic
O         0.0026550923      -0.0039851941       0.1046462435   6.514642156948e-03  -9.753624062463e-03   1.261779131708e-01
H        -0.0426334416       0.0638140674      -0.7724226632  -6.514363973529e-03   9.752848978715e-03  -1.261752788975e-01
2
Properties=species:S:1:pos:R:3:forces:R:3 energy=-7.565422323360e+01 dipole="-2.3900188280e-02 3.5779974105e-02 -6.6609250129e-01" quadrupole="-4.8052025390e+00 5.0937340162e-01 7.3824049514e-02 5.0937340162e-01 -4.6067581212e+00 -7.7163283073e-02 7.3824049514e-02 -7.7163283073e-02 -3.5844058331e+00" polarizability="7.1012700227e+00 -6.6864693453e-01 2.2339037485e-02 -6.6864693453e-01 6.8487192060e+00 -7.6787633726e-02 2.2339037485e-02 -7.6787633726e-02 8.7199241524e+00" charge=0 multiplicity=2 method=wB97M-V basis=def2-svpd config_type=oh_radical sample_index=173 temperature=300.0 units=atomic
O         0.0020485675      -0.0030748231       0.1103396325  -2.198929145243e-05   3.259730438970e-05  -6.260520461887e-04
H        -0.0328943299       0.0492364891      -0.8635116699   2.292578903212e-05  -3.420074726418e-05   6.269294412902e-04
2
Properties=species:S:1:pos:R:3:forces:R:3 energy=-7.563329149670e+01 dipole="1.9050350180e-01 -2.8519656748e-01 -6.2799152038e-01" quadrupole="-4.9053701836e+00 -6.3895147498e-01 -2.3512018481e-01 -6.3895147498e-01 -4.5240655519e+00 4.1929179335e-01 -2.3512018481e-01 4.1929179335e-01 -3.5175476593e+00" polarizability="7.9514445578e+00 1.8638279733e-01 -1.1893251040e+00 1.8638279733e-01 8.0028298886e+00 1.6869496045e+00 -1.1893251040e+00 1.6869496045e+00 1.0466046416e+01" charge=0 multiplicity=2 method=wB97M-V basis=def2-svpd config_type=oh_radical sample_index=174 temperature=300.0 units=atomic
O        -0.0181059407       0.0271763388       0.1129407813   2.614219443709e-02  -3.913734320945e-02  -8.618050771965e-02
H         0.2907313490      -0.4351689469      -0.9051276670  -2.614214839160e-02   3.913861080810e-02   8.618068224654e-02
2
Properties=species:S:1:pos:R:3:forces:R:3 energy=-7.562085785777e+01 dipole="-1.6685378258e-01 2.4978855469e-01 -6.6589556470e-01" quadrupole="-5.0316987118e+00 -5.9732317711e-01 2.7263681802e-01 -5.9732317711e-01 -4.5333056769e+00 -4.0686604023e-01 2.7263681802e-01 -4.0686604023e-01 -3.3510185850e+00" polarizability="8.1731496993e+00 2.2328951772e-01 1.2327711959e+00 2.2328951772e-01 7.9835148794e+00 -1.8472029656e+00 1.2327711959e+00 -1.8472029656e+00 1.1756894130e+01" charge=0 multiplicity=2 method=wB97M-V basis=def2-svpd config_type=oh_radical sample_index=175 temperature=300.0 units=atomic
O         0.0163765399      -0.0245805730       0.1186319044  -2.502179622863e-02   3.746023892584e-02  -9.986186500713e-02
H        -0.2629619540       0.3936035002      -0.9961804214   2.502352852308e-02  -3.745961974233e-02   9.986399158030e-02
2
Properties=species:S:1:pos:R:3:forces:R:3 energy=-7.565152290503e+01 dipole="-5.0991079392e-02 7.6334580682e-02 -6.4630285769e-01" quadrupole="-4.2316253447e+00 2.8399614418e-01 8.4383499786e-02 2.8399614418e-01 -5.0662245795e+00 -1.9707526389e-01 8.4383499786e-02 -1.9707526389e-01 -3.6834526746e+00" polarizability="6.3285880245e+00 -3.8189088811e-01 9.1037244064e-02 -3.8189088811e-01 7.4000773798e+00 -4.7128411060e-02 9.1037244064e-02 -4.7128411060e-02 8.0414352166e+00" charge=0 multiplicity=2 method=wB97M-V basis=def2-svpd config_type=oh_radical sample_index=176 temperature=300.0 units=atomic
O         0.0042305442      -0.0063498884       0.1068569304   4.610101632991e-03  -6.902767670438e-03   5.844313322984e-02
H        -0.0679308434       0.1016794154      -0.8077916280  -4.610472422672e-03   6.901593240190e-03  -5.844309039643e-02
2
Properties=species:S:1:pos:R:3:forces:R:3 energy=-7.564547169337e+01 dipole="1.7289884041e-01 -2.5883932067e-01 -6.2363545795e-01" quadrupole="-4.8323970927e+00 -6.1018710160e-01 -1.6729716364e-01 -6.1018710160e-01 -4.5598994127e+00 3.4723201795e-01 -1.6729716364e-01 3.4723201795e-01 -3.5843735187e+00" polarizability="7.5964012463e+00 3.4965282810e-01 -9.0761032460e-01 3.4965282810e-01 7.6241706984e+00 1.2268830739e+00 -9.0761032460e-01 1.2268830739e+00 9.5857818056e+00" charge=0 multiplicity=2 method=wB97M-V basis=def2-svpd config_type=oh_radical sample_index=177 temperature=300.0 units=atomic
O        -0.0157953074       0.0237081648       0.1102185752   1.832770860429e-02  -2.743831612535e-02  -6.611077453795e-02
H         0.2536289670      -0.3796338126      -0.8615748637  -1.832936668746e-02   2.744066199443e-02   6.611335096349e-02
2
Properties=species:S:1:pos:R:3:forces:R:3 energy=-7.565379074227e+01 dipole="-4.5310292190e-02 6.7830787348e-02 -6.6852220738e-01" quadrupole="-4.3222239321e+00 3.2696575862e-01 9.0572699535e-02 3.2696575862e-01 -5.1072263681e+00 -1.8772164724e-01 9.0572699535e-02 -1.8772164724e-01 -3.5687852192e+00" polarizability="6.5055342696e+00 -4.5508330442e-01 1.2444425231e-01 -4.5508330442e-01 7.5583332827e+00 -1.1775171955e-01 1.2444425231e-01 -1.1775171955e-01 9.0024625081e+00" charge=0 multiplicity=2 method=wB97M-V basis=def2-svpd config_type=oh_radical sample_index=178 temperature=300.0 units=atomic
O         0.0039348711      -0.0059060941       0.1113066042  -1.340455100339e-03   2.007742806383e-03  -1.977244508232e-02
H        -0.0631831506       0.0945730318      -0.8789823306   1.339907033072e-03  -2.006800538964e-03   1.977301142956e-02
2
Properties=species:S:1:pos:R:3:forces:R:3 energy=-7.564631141852e+01 dipole="9.9384821298e-02 -1.4878502239e-01 -6.7200691827e-01" quadrupole="-5.1504080699e+00 -3.9498740111e-01 -1.8152539534e-01 -3.9498740111e-01 -4.3688970384e+00 1.7117998507e-01 -1.8152539534e-01 1.7117998507e-01 -3.4688522620e+00" polarizability="7.8031562722e+00 3.8033240320e-01 -4.4594434504e-01 3.8033240320e-01 6.8709139957e+00 8.0419038493e-01 -4.4594434504e-01 8.0419038493e-01 1.0005088339e+01" charge=0 multiplicity=2 method=wB97M-V basis=def2-svpd config_type=oh_radical sample_index=179 temperature=300.0 units=atomic
O        -0.0090487341       0.0135818110       0.1144447870   1.017043027761e-02  -1.522737522686e-02  -6.877600565146e-02
H         0.1452976521      -0.2174826570      -0.9291903796  -1.017021309755e-02   1.522710621606e-02   6.877504436948e-02
2
Properties=species:S:1:pos:R:3:forces:R:3 energy=-7.562529500287e+01 dipole="-1.5171522981e-01 2.2712588388e-01 -6.7205833458e-01" quadrupole="-4.4554866129e+00 -4.5432294918e-01 1.5362052504e-01 -4.5432294918e-01 -5.0763014744e+00 -5.6699497998e-01 1.5362052504e-01 -5.6699497998e-01 -3.3999870540e+00" polarizability="7.2447912687e+00 1.4932115632e-01 1.2019759453e+00 1.4932115632e-01 8.5158384851e+00 -1.3280278220e+00 1.2019759453e+00 -1.3280278220e+00 1.1625553894e+01" charge=0 multiplicity=2 method=wB97M-V basis=def2-svpd config_type=oh_radical sample_index=180 temperature=300.0 units=atomic
O         0.0147283774      -0.0221067429       0.1185172532  -2.225235342505e-02   3.331487017142e-02  -9.856860504034e-02
H        -0.2364970213       0.3539905829      -0.9943461070   2.225311159682e-02  -3.331367003192e-02   9.857104688743e-02
2
Properties=species:S:1:pos:R:3:forces:R:3 energy=-7.565374248420e+01 dipole="1.1668481570e-01 -1.7468246075e-01 -6.4024111803e-01" quadrupole="-5.0579583512e+00 2.6528763853e-01 -3.6171149510e-01 2.6528763853e-01 -4.2553152647e+00 2.6244983885e-01 -3.6171149510e-01 2.6244983885e-01 -3.6792934631e+00" polarizability="7.5700381590e+00 -5.1749261021e-01 -1.2677950001e-01 -5.1749261021e-01 6.6541111918e+00 5.5673491023e-01 -1.2677950001e-01 5.5673491023e-01 8.8653223042e+00" charge=0 multiplicity=2 method=wB97M-V basis=def2-svpd config_type=oh_radical sample_index=181 temperature=300.0 units=atomic
O        -0.0101408599       0.0152210509       0.1088837882   3.622804804664e-03  -5.432363158371e-03  -1.990184012948e-02
H         0.1628341727      -0.2437314576      -0.8402194944  -3.626228392136e-03   5.430118047652e-03   1.990039462200e-02
2
Properties=species:S:1:pos:R:3:forces:R:3 energy=-7.565348267270e+01 dipole="-1.0409769904e-01 1.5583984632e-01 -6.3235183130e-01" quadrupole="-4.4033727367e+00 3.9840799376e-01 2.3853005915e-01 3.9840799376e-01 -4.8285065402e+00 -3.8041460886e-01 2.3853005915e-01 -3.8041460886e-01 -3.7530651638e+00" polarizability="6.6231689761e+00 -6.2057199666e-01 1.3172626025e-01 -6.2057199666e-01 7.2589498289e+00 -1.6731304151e-01 1.3172626025e-01 -1.6731304151e-01 8.2894410383e+00" charge=0 multiplicity=2 method=wB97M-V basis=def2-svpd config_type=oh_radical sample_index=182 temperature=300.0 units=atomic
O         0.0087678230      -0.0131601740       0.1064940969   4.614883924269e-03  -6.904589436824e-03   2.803184604965e-02
H        -0.1407869971       0.2107310735      -0.8019866239  -4.614547518075e-03   6.908977825393e-03  -2.803168680810e-02
2
Properties=species:S:1:pos:R:3:forces:R:3 energy=-7.565230186996e+01 dipole="1.5848231797e-02 -2.3726897020e-02 -6.5435376808e-01" quadrupole="-5.1006363411e+00 2.8998547845e-01 -4.7419760645e-02 2.8998547845e-01 -4.2394728303e+00 3.1038798418e-02 -4.7419760645e-02 3.1038798418e-02 -3.6451534176e+00" polarizability="7.4198412864e+00 -3.6960891688e-01 -4.2597078911e-03 -3.6960891688e-01 6.3313575473e+00 5.6955436153e-02 -4.2597078911e-03 5.6955436153e-02 8.1468409523e+00" charge=0 multiplicity=2 method=wB97M-V basis=def2-svpd config_type=oh_radical sample_index=183 temperature=300.0 units=atomic
O        -0.0013213795       0.0019833411       0.1077946511  -1.182585562743e-03   1.770047586009e-03   4.885462622484e-02
H         0.0212177007      -0.0317588197      -0.8227942997   1.182692765822e-03  -1.770968827192e-03  -4.885370066201e-02
2
Properties=species:S:1:pos:R:3:forces:R:3 energy=-7.564866405193e+01 dipole="-9.0914703167e-02 1.3610346630e-01 -6.7088061607e-01" quadrupole="-4.9811692766e+00 -5.0336255863e-01 1.1682234525e-01 -5.0336255863e-01 -4.5245490048e+00 -1.6687392560e-01 1.1682234525e-01 -1.6687392560e-01 -3.4867684395e+00" polarizability="7.5252331134e+00 5.5535962587e-01 4.4227979169e-01 5.5535962587e-01 7.0117237288e+00 -6.7288412268e-01 4.4227979169e-01 -6.7288412268e-01 9.7610657499e+00" charge=0 multiplicity=2 method=wB97M-V basis=def2-svpd config_type=oh_radical sample_index=184 temperature=300.0 units=atomic
O         0.0081917778      -0.0122955516       0.1137070608  -8.170492244221e-03   1.223528305721e-02  -6.030946699033e-02
H        -0.1315373028       0.1968860590      -0.9173874368   8.172123138215e-03  -1.223494930279e-02   6.030908415190e-02
2
Properties=species:S:1:pos:R:3:forces:R:3 energy=-7.565385794342e+01 dipole="4.6123913297e-02 -6.9051363011e-02 -6.5658078825e-01" quadrupole="-4.6948027406e+00 5.0807766128e-01 -1.3448716667e-01 5.0807766128e-01 -4.6629151911e+00 1.5365806597e-01 -1.3448716667e-01 1.5365806597e-01 -3.6337533988e+00" polarizability="6.9457661047e+00 -6.7549851127e-01 -3.5085398068e-02 -6.7549851127e-01 6.9234257805e+00 1.1377835290e-01 -3.5085398068e-02 1.1377835290e-01 8.4420379969e+00" charge=0 multiplicity=2 method=wB97M-V basis=def2-svpd config_type=oh_radical sample_index=185 temperature=300.0 units=atomic
O        -0.0039045056       0.0058605166       0.1088215140  -1.402058651892e-03   2.102333824943e-03   1.999508985610e-02
H         0.0626955646      -0.0938432092      -0.8392231645   1.403798021124e-03  -2.102100830346e-03  -1.999318083263e-02
2
Properties=species:S:1:pos:R:3:forces:R:3 energy=-7.564400547732e+01 dipole="8.5598538737e-02 -1.2814433198e-01 -6.8243890475e-01" quadrupole="-5.3016600341e+00 -8.0329279466e-02 -2.3568484775e-01 -8.0329279466e-02 -4.2480627469e+00 1.6745849852e-01 -2.3568484775e-01 1.6745849852e-01 -3.4355855687e+00" polarizability="8.0109789726e+00 -1.1421849253e-02 -3.1142700830e-01 -1.1421849253e-02 6.6725506298e+00 7.1933069290e-01 -3.1142700830e-01 7.1933069290e-01 1.0336865912e+01" charge=0 multiplicity=2 method=wB97M-V basis=def2-svpd config_type=oh_radical sample_index=186 temperature=300.0 units=atomic
O        -0.0078637702       0.0118032246       0.1159602646   9.559683083590e-03  -1.431456829898e-02  -7.622945463405e-02
H         0.1262704089      -0.1890025312      -0.9534366323  -9.560870149511e-03   1.431433224361e-02   7.623002142354e-02
2
Properties=species:S:1:pos:R:3:forces:R:3 energy=-7.565366994264e+01 dipole="-1.3473562672e-01 2.0170695006e-01 -6.2916703986e-01" quadrupole="-5.0921014340e+00 1.7060231126e-01 4.0284361912e-01 1.7060231126e-01 -4.1871395478e+00 -2.6754687765e-01 4.0284361912e-01 -2.6754687765e-01 -3.7111215554e+00" polarizability="7.6559004862e+00 -4.5069318267e-01 1.5729662290e-01 -4.5069318267e-01 6.6520991667e+00 -6.7707760440e-01 1.5729662290e-01 -6.7707760440e-01 8.8143562275e+00" charge=0 multiplicity=2 method=wB97M-V basis=def2-svpd config_type=oh_radical sample_index=187 temperature=300.0 units=atomic
O         0.0117220235      -0.0175943182       0.1079758574  -4.471486285430e-03   6.695951351282e-03  -2.087870958784e-02
H        -0.1882232883       0.2817340834      -0.8256934343   4.470640446796e-03  -6.694324738075e-03   2.087986316993e-02
2
Properties=species:S:1:pos:R:3:forces:R:3 energy=-7.564753557768e+01 dipole="1.1146212143e-01 -1.6686441203e-01 -6.6329091203e-01" quadrupole="-5.1898999068e+00 -3.3130765664e-01 -2.2617263296e-01 -3.3130765664e-01 -4.2942142776e+00 1.8231222564e-01 -2.2617263296e-01 1.8231222564e-01 -3.5047290772e+00" polarizability="7.8660867035e+00 2.5709207061e-01 -4.4029496006e-01 2.5709207061e-01 6.8118018811e+00 8.7075340484e-01 -4.4029496006e-01 8.7075340484e-01 9.8082835817e+00" charge=0 multiplicity=2 method=wB97M-V basis=def2-svpd config_type=oh_radical sample_index=188 temperature=300.0 units=atomic
O        -0.0100954523       0.0151528958       0.1133330403   1.073266289703e-02  -1.607401075969e-02  -6.389220197286e-02
H         0.1621050526      -0.2426401050      -0.9114034506  -1.073553459361e-02   1.607390086915e-02   6.389221201737e-02
2
Properties=species:S:1:pos:R:3:forces:R:3 energy=-7.564906011990e+01 dipole="2.6998480763e-02 -4.0416893503e-02 -6.8794323164e-01" quadrupole="-4.2588371776e+00 9.4973787612e-02 -4.0325386673e-02 9.4973787612e-02 -5.2863757714e+00 1.1610268384e-01 -4.0325386673e-02 1.1610268384e-01 -3.4514144247e+00" polarizability="6.4706798163e+00 -1.3890696282e-01 -1.2661758002e-01 -1.3890696282e-01 7.8652103023e+00 1.1437993543e-01 -1.2661758002e-01 1.1437993543e-01 9.8931694179e+00" charge=0 multiplicity=2 method=wB97M-V basis=def2-svpd config_type=oh_radical sample_index=189 temperature=300.0 units=atomic
O        -0.0024279381       0.0036442442       0.1151298550   2.359279739665e-03  -3.531430686917e-03  -6.011667182463e-02
H         0.0389859735      -0.0583545086      -0.9401508402  -2.358670637921e-03   3.531868602197e-03   6.011813096450e-02
2
Properties=species:S:1:pos:R:3:forces:R:3 energy=-7.565326286891e+01 dipole="-1.3869565705e-01 2.0763471747e-01 -6.0931222624e-01" quadrupole="-4.4169449446e+00 3.7136945244e-01 3.2295764085e-01 3.7136945244e-01 -4.7013173889e+00 -4.7540900688e-01 3.2295764085e-01 -4.7540900688e-01 -3.8611966981e+00" polarizability="6.6927301133e+00 -6.6795841505e-01 1.3935571301e-01 -6.6795841505e-01 7.2165058104e+00 -2.1889739504e-01 1.3935571301e-01 -2.1889739504e-01 8.1986769708e+00" charge=0 multiplicity=2 method=wB97M-V basis=def2-svpd config_type=oh_radical sample_index=190 temperature=300.0 units=atomic
O         0.0116547157      -0.0174932918       0.1044272628   7.074362334400e-03  -1.058765488581e-02   3.107764681744e-02
H        -0.1871425126       0.2801163700      -0.7689191730  -7.074273020623e-03   1.058945271430e-02  -3.107388973686e-02
2
Properties=species:S:1:pos:R:3:forces:R:3 energy=-7.565228189514e+01 dipole="-1.0521039411e-01 1.5750405267e-01 -6.5378315317e-01" quadrupole="-4.3013704583e+00 2.6029365956e-01 2.0304123265e-01 2.6029365956e-01 -5.0553761095e+00 -4.3358278259e-01 2.0304123265e-01 -4.3358278259e-01 -3.6377433021e+00" polarizability="6.5856029428e+00 -4.9514677019e-01 3.3362887489e-01 -4.9514677019e-01 7.7121293265e+00 -3.2694459538e-01 3.3362887489e-01 -3.2694459538e-01 9.2675322512e+00" charge=0 multiplicity=2 method=wB97M-V basis=def2-svpd config_type=oh_radical sample_index=191 temperature=300.0 units=atomic
O         0.0092802684      -0.0139293353       0.1109166687  -6.146674116327e-03   9.208800668914e-03  -3.820945965158e-02
H        -0.1490154532       0.2230474907      -0.8727437194   6.147444378202e-03  -9.205593412054e-03   3.820946449249e-02
2
Properties=species:S:1:pos:R:3:forces:R:3 energy=-7.565421933889e+01 dipole="-9.9380490272e-02 1.4877710458e-01 -6.4348857949e-01" quadrupole="-4.1768153472e+00 4.4444350510e-02 1.1393345717e-01 4.4444350510e-02 -5.1335799032e+00 -3.8320865894e-01 1.1393345717e-01 -3.8320865894e-01 -3.6815808071e+00" polarizability="6.3569624417e+00 -1.7121531861e-01 3.2923828152e-01 -1.7121531861e-01 7.6957010411e+00 -2.1619149165e-01 3.2923828152e-01 -2.1619149165e-01 8.6442774017e+00" charge=0 multiplicity=2 method=wB97M-V basis=def2-svpd config_type=oh_radical sample_index=192 temperature=300.0 units=atomic
O         0.0085260660      -0.0127973058       0.1084461440  -3.049720709913e-04   4.633429347137e-04  -1.982274390995e-03
H        -0.1369050483       0.2049205423      -0.8332175887   3.060787167161e-04  -4.579169144272e-04   1.982042634765e-03
2
Properties=species:S:1:pos:R:3:forces:R:3 energy=-7.565411918989e+01 dipole="-1.2107682085e-01 1.8125757583e-01 -6.3387376384e-01" quadrupole="-5.0476615392e+00 2.5337701543e-01 3.6984911034e-01 2.5337701543e-01 -4.2356999675e+00 -2.6137946469e-01 3.6984911034e-01 -2.6137946469e-01 -3.7074020556e+00" polarizability="7.5421713270e+00 -5.0476708892e-01 1.0802508375e-01 -5.0476708892e-01 6.6249468285e+00 -5.4364715808e-01 1.0802508375e-01 -5.4364715808e-01 8.6872173452e+00" charge=0 multiplicity=2 method=wB97M-V basis=def2-svpd config_type=oh_radical sample_index=193 temperature=300.0 units=atomic
O         0.0104422227      -0.0156733852       0.1079064237  -1.810121238118e-03   2.716570084668e-03  -9.492397983798e-03
H        -0.1676732268       0.2509745914      -0.8245825594   1.812570152864e-03  -2.714686815620e-03   9.492528149503e-03
2
Properties=species:S:1:pos:R:3:forces:R:3 energy=-7.564953178684e+01 dipole="-1.1994697490e-01 1.7956849699e-01 -6.5380766250e-01" quadrupole="-5.2300967723e+00 2.6010217856e-03 3.4058364937e-01 2.6010217856e-03 -4.1863545533e+00 -2.2256069574e-01 3.4058364937e-01 -2.2256069574e-01 -3.5741191977e+00" polarizability="7.9079340809e+00 -2.1503276483e-01 2.9547129181e-01 -2.1503276483e-01 6.6781068849e+00 -8.2906212600e-01 2.9547129181e-01 -8.2906212600e-01 9.5584611078e+00" charge=0 multiplicity=2 method=wB97M-V basis=def2-svpd config_type=oh_radical sample_index=194 temperature=300.0 units=atomic
O         0.0107612417      -0.0161522207       0.1119089999  -1.009737734670e-02   1.512112334834e-02  -5.504842917572e-02
H        -0.1727957894       0.2586420830      -0.8886201094   1.009828974040e-02  -1.512014060200e-02   5.504890876428e-02
2
Properties=species:S:1:pos:R:3:forces:R:3 energy=-7.565421790556e+01 dipole="9.9210481931e-02 -1.4852262153e-01 -6.4367269513e-01" quadrupole="-4.1763655814e+00 3.8877303972e-02 -1.1243410449e-01 3.8877303972e-02 -5.1353272850e+00 3.8211114750e-01 -1.1243410449e-01 3.8211114750e-01 -3.6803543129e+00" polarizability="6.3564803582e+00 -1.6373524021e-01 -3.3109626854e-01 -1.6373524021e-01 7.6980990705e+00 2.1742982426e-01 -3.3109626854e-01 2.1742982426e-01 8.6485503763e+00" charge=0 multiplicity=2 method=wB97M-V basis=def2-svpd config_type=oh_radical sample_index=195 temperature=300.0 units=atomic
O        -0.0085132601       0.0127780845       0.1084735824   3.527587627615e-04  -5.346100729277e-04  -2.295745433746e-03
H         0.1366994195      -0.2046127555      -0.8336565787  -3.538196183944e-04   5.293196141167e-04   2.295407587728e-03
2
Properties=species:S:1:pos:R:3:forces:R:3 energy=-7.565282927695e+01 dipole="-2.6519013201e-02 3.9702013255e-02 -6.5500679620e-01" quadrupole="-5.1076394493e+00 2.8272711365e-01 7.9478857127e-02 2.8272711365e-01 -4.2389897350e+00 -5.2112273025e-02 7.9478857127e-02 -5.2112273025e-02 -3.6404818860e+00" polarizability="7.4405402258e+00 -3.6635506325e-01 9.6349271860e-03 -3.6635506325e-01 6.3419317761e+00 -9.9423935559e-02 9.6349271860e-03 -9.9423935559e-02 8.2205350028e+00" charge=0 multiplicity=2 method=wB97M-V basis=def2-svpd config_type=oh_radical sample_index=196 temperature=300.0 units=atomic
O         0.0022198106      -0.0033318526       0.1080660437   1.656886420285e-03  -2.479970014067e-03   4.093866802006e-02
H        -0.0356440210       0.0533522482      -0.8271363319  -1.656725756761e-03   2.480753630762e-03  -4.093715098871e-02
2
Properties=species:S:1:pos:R:3:forces:R:3 energy=-7.565382219899e+01 dipole="6.5549453751e-02 -9.8131490847e-02 -6.6282485041e-01" quadrupole="-4.2824582691e+00 -2.9686252896e-01 -3.5789146255e-02 -2.9686252896e-01 -5.1341229573e+00 2.1607625664e-01 -3.5789146255e-02 2.1607625664e-01 -3.5804872072e+00" polarizability="6.4708518552e+00 3.3722561257e-01 -3.0113112184e-01 3.3722561257e-01 7.6336297394e+00 2.3728084641e-01 -3.0113112184e-01 2.3728084641e-01 8.9461209242e+00" charge=0 multiplicity=2 method=wB97M-V basis=def2-svpd config_type=oh_radical sample_index=197 temperature=300.0 units=atomic
O        -0.0056896850       0.0085400040       0.1107809878   1.871495927540e-03  -2.802766015438e-03  -1.892487590488e-02
H         0.0913606099      -0.1367492723      -0.8705729499  -1.871654562862e-03   2.802071563978e-03   1.892378785618e-02
2
Properties=species:S:1:pos:R:3:forces:R:3 energy=-7.565079889822e+01 dipole="1.9164187982e-01 -2.8689859140e-01 -5.9210046210e-01" quadrupole="-4.6576621138e+00 -6.2185962806e-01 -1.0796816996e-01 -6.2185962806e-01 -4.6233870712e+00 3.9474245619e-01 -1.0796816996e-01 3.9474245619e-01 -3.6991206933e+00" polarizability="7.3287364478e+00 3.1250444509e-01 -9.0425130828e-01 3.1250444509e-01 7.7144639202e+00 1.0412613408e+00 -9.0425130828e-01 1.0412613408e+00 8.8574593852e+00" charge=0 multiplicity=2 method=wB97M-V basis=def2-svpd config_type=oh_radical sample_index=198 temperature=300.0 units=atomic
O        -0.0170733737       0.0256264945       0.1059817307   1.422340148528e-02  -2.129454583026e-02  -4.394918574796e-02
H         0.2741511783      -0.4103516183      -0.7937892341  -1.422511263977e-02   2.129767081130e-02   4.395343986141e-02
2
Properties=species:S:1:pos:R:3:forces:R:3 energy=-7.565304496644e+01 dipole="4.4305167103e-02 -6.6327280967e-02 -6.7291266765e-01" quadrupole="-4.4595390111e+00 4.3519358098e-01 -1.0933940840e-01 4.3519358098e-01 -4.9953516363e+00 1.8091505241e-01 -1.0933940840e-01 1.8091505241e-01 -3.5441034438e+00" polarizability="6.7017033959e+00 -6.0158239923e-01 -1.0766192136e-01 -6.0158239923e-01 7.4321509718e+00 1.3834260369e-01 -1.0766192136e-01 1.3834260369e-01 9.2167712881e+00" charge=0 multiplicity=2 method=wB97M-V basis=def2-svpd config_type=oh_radical sample_index=199 temperature=300.0 units=atomic
O        -0.0038823911       0.0058273237       0.1122190508   2.078491850435e-03  -3.110463268291e-03  -3.155696041525e-02
H         0.0623404680      -0.0933116980      -0.8935806408  -2.077812663333e-03   3.110515118771e-03   3.155512745309e-02
2
Properties=species:S:1:pos:R:3:forces:R:3 energy=-7.565241550280e+01 dipole="-4.3810209274e-02 6.5586287503e-02 -6.7559347969e-01" quadrupole="-4.4327157160e+00 4.1265060822e-01 1.0478536488e-01 4.1265060822e-01 -5.0382861636e+00 -1.8242477865e-01 1.0478536488e-01 -1.8242477865e-01 -3.5280116729e+00" polarizability="6.6761575797e+00 -5.7421588816e-01 1.1918243670e-01 -5.7421588816e-01 7.5024707265e+00 -1.4442769705e-01 1.1918243670e-01 -1.4442769705e-01 9.3520258509e+00" charge=0 multiplicity=2 method=wB97M-V basis=def2-svpd config_type=oh_radical sample_index=200 temperature=300.0 units=atomic
O         0.0038603037      -0.0057941712       0.1127844249  -2.482730472279e-03   3.715380418113e-03  -3.828265847091e-02
H        -0.0619858043       0.0927808345      -0.9026261074   2.482475498346e-03  -3.716642895897e-03   3.828195708078e-02
2
Properties=species:S:1:pos:R:3:forces:R:3 energy=-7.562211769449e+01 dipole="-1.5745331975e-01 2.3571610174e-01 -6.7173992085e-01" quadrupole="-4.4183226987e+00 -4.1612066719e-01 1.7174891169e-01 -4.1612066719e-01 -5.1034633821e+00 -6.1850379696e-01 1.7174891169e-01 -6.1850379696e-01 -3.3996073187e+00" polarizability="7.2535078933e+00 4.2623774275e-02 1.2778749331e+00 4.2623774275e-02 8.6620716665e+00 -1.4063725024e+00 1.2778749331e+00 -1.4063725024e+00 1.1848453809e+01" charge=0 multiplicity=2 method=wB97M-V basis=def2-svpd config_type=oh_radical sample_index=201 temperature=300.0 units=atomic
O         0.0154065354      -0.0231246327       0.1190047504  -2.348312759447e-02   3.515623845235e-02  -1.001825681925e-01
H        -0.2473863640       0.3702898359      -1.0021456153   2.348422594212e-02  -3.515616383181e-02   1.001858721541e-01
2
Properties=species:S:1:pos:R:3:forces:R:3 energy=-7.563889650679e+01 dipole="-1.5376478144e-01 2.3019420478e-01 -6.5137074109e-01" quadrupole="-5.0007262052e+00 -5.5868285814e-01 2.1867684337e-01 -5.5868285814e-01 -4.4894086074e+00 -3.1028071566e-01 2.1867684337e-01 -3.1028071566e-01 -3.4766663195e+00" polarizability="7.8502154590e+00 3.4602494344e-01 8.7648798490e-01 3.4602494344e-01 7.4969777187e+00 -1.3356003658e+00 8.7648798490e-01 -1.3356003658e+00 1.0366229047e+01" charge=0 multiplicity=2 method=wB97M-V basis=def2-svpd config_type=oh_radical sample_index=202 temperature=300.0 units=atomic
O         0.0143732568      -0.0215737201       0.1141468757  -1.945697738132e-02   2.912725488556e-02  -8.242090016971e-02
H        -0.2307947657       0.3454554023      -0.9244240717   1.945753964907e-02  -2.912845131193e-02   8.242361515021e-02
2
Properties=species:S:1:pos:R:3:forces:R:3 energy=-7.564078298725e+01 dipole="-1.2923668296e-01 1.9347524545e-01 -6.6539116686e-01" quadrupole="-4.7484671189e+00 -5.7866030756e-01 1.2058740510e-01 -5.7866030756e-01 -4.7710303427e+00 -3.2651957724e-01 1.2058740510e-01 -3.2651957724e-01 -3.4548348993e+00" polarizability="7.3978538456e+00 5.0383227241e-01 8.1763559327e-01 5.0383227241e-01 7.6701562256e+00 -1.0234029758e+00 8.1763559327e-01 -1.0234029758e+00 1.0396880104e+01" charge=0 multiplicity=2 method=wB97M-V basis=def2-svpd config_type=oh_radical sample_index=203 temperature=300.0 units=atomic
O         0.0120071911      -0.0180223441       0.1150831068  -1.574013655526e-02   2.356365632358e-02  -8.103590795973e-02
H        -0.1928022916       0.2885879712      -0.9394029115   1.573822500810e-02  -2.356373220800e-02   8.103617613677e-02
2
Properties=species:S:1:pos:R:3:forces:R:3 energy=-7.565391015652e+01 dipole="-4.7549654026e-02 7.1182961125e-02 -6.6707361773e-01" quadrupole="-4.2078488299e+00 9.4955592854e-02 6.1954657566e-02 9.4955592854e-02 -5.2160811254e+00 -1.9192027631e-01 6.1954657566e-02 -1.9192027631e-01 -3.5739211378e+00" polarizability="6.3537763879e+00 -1.5215723991e-01 1.7063653947e-01 -1.5215723991e-01 7.6996790898e+00 -1.2528181423e-01 1.7063653947e-01 -1.2528181423e-01 8.9498105436e+00" charge=0 multiplicity=2 method=wB97M-V basis=def2-svpd config_type=oh_radical sample_index=204 temperature=300.0 units=atomic
O         0.0041209186      -0.0061853444       0.1110620360  -1.208383163101e-03   1.809732158549e-03  -1.694057237789e-02
H        -0.0661705587       0.0990446075      -0.8750694629   1.207316579487e-03  -1.808163493587e-03   1.694038417211e-02
2
Properties=species:S:1:pos:R:3:forces:R:3 energy=-7.564980366431e+01 dipole="6.3771496832e-03 -9.5467166600e-03 -6.8778809000e-01" quadrupole="-4.2807055678e+00 1.8768660560e-01 -1.0905521673e-02 1.8768660560e-01 -5.2619931291e+00 2.7784668894e-02 -1.0905521673e-02 2.7784668894e-02 -3.4551648588e+00" polarizability="6.4862551207e+00 -2.5303581649e-01 -2.7233872838e-02 -2.5303581649e-01 7.8065679327e+00 2.5353674842e-02 -2.7233872838e-02 2.5353674842e-02 9.8015742737e+00" charge=0 multiplicity=2 method=wB97M-V basis=def2-svpd config_type=oh_radical sample_index=205 temperature=300.0 units=atomic
O        -0.0005713101       0.0008575150       0.1148799224   5.243344458585e-04  -7.844288075858e-04  -5.656635578611e-02
H         0.0091736601      -0.0137312058      -0.9361521471  -5.243565966312e-04   7.851768649074e-04   5.656804448139e-02
2
Properties=species:S:1:pos:R:3:forces:R:3 energy=-7.559651375563e+01 dipole="-4.6025768227e-02 6.8902556200e-02 -6.0398922621e-01" quadrupole="-5.0308643939e+00 -3.7744424693e-02 9.2907929809e-02 -3.7744424693e-02 -4.0183917250e+00 -2.7140764599e-02 9.2907929809e-02 -2.7140764599e-02 -3.8271769387e+00" polarizability="7.1165346708e+00 3.4510617967e-02 -4.5043544448e-02 3.4510617967e-02 6.0050790246e+00 -5.6095019186e-02 -4.5043544448e-02 -5.6095019186e-02 6.4708122319e+00" charge=0 multiplicity=2 method=wB97M-V basis=def2-svpd config_type=oh_radical sample_index=206 temperature=300.0 units=atomic
O         0.0034437638      -0.0051689604       0.0983982670   2.971083326183e-02  -4.447095440354e-02   3.898528950046e-01
H        -0.0552973251       0.0827694667      -0.6724607656  -2.970721939509e-02   4.447287177258e-02  -3.898580367499e-01
2
Properties=species:S:1:pos:R:3:forces:R:3 energy=-7.565264841165e+01 dipole="-9.2559853670e-02 1.3856640349e-01 -6.5853716880e-01" quadrupole="-4.2428156659e+00 -2.1462675092e-01 6.7890199745e-02 -2.1462675092e-01 -5.1643764000e+00 -3.3294399965e-01 6.7890199745e-02 -3.3294399965e-01 -3.5886091622e+00" polarizability="6.4792171251e+00 1.7157844705e-01 4.3623461770e-01 1.7157844705e-01 7.7965058189e+00 -3.4596721439e-01 4.3623461770e-01 -3.4596721439e-01 9.1919768559e+00" charge=0 multiplicity=2 method=wB97M-V basis=def2-svpd config_type=oh_radical sample_index=207 temperature=300.0 units=atomic
O         0.0081402074      -0.0122181464       0.1111644990  -4.934736236422e-03   7.394066192089e-03  -3.512814580031e-02
H        -0.1307092250       0.1956465856      -0.8767087784   4.937303408889e-03  -7.391762881021e-03   3.512876027343e-02
2
Properties=species:S:1:pos:R:3:forces:R:3 energy=-7.565108084023e+01 dipole="-5.3042119339e-02 7.9406324659e-02 -6.7779886238e-01" quadrupole="-4.5984798521e+00 -5.0804903074e-01 3.3722750475e-02 -5.0804903074e-01 -4.9042656933e+00 -1.3562986283e-01 3.3722750475e-02 -1.3562986283e-01 -3.4950752152e+00" polarizability="6.9244677847e+00 6.4040243286e-01 2.8519050259e-01 6.4040243286e-01 7.3664789183e+00 -3.1296756665e-01 2.8519050259e-01 -3.1296756665e-01 9.5511453627e+00" charge=0 multiplicity=2 method=wB97M-V basis=def2-svpd config_type=oh_radical sample_index=208 temperature=300.0 units=atomic
O         0.0047174016      -0.0070806431       0.1135391878  -3.800472668576e-03   5.691367232759e-03  -4.856812280314e-02
H        -0.0757484269       0.1133808351      -0.9147016227   3.800875001950e-03  -5.690244639595e-03   4.856947454852e-02
2
Properties=species:S:1:pos:R:3:forces:R:3 energy=-7.565249642652e+01 dipole="1.2348992155e-01 -1.8487096319e-01 -6.4250229602e-01" quadrupole="-5.1722164792e+00 9.2772788978e-02 -3.6093875504e-01 9.2772788978e-02 -4.1784602672e+00 2.3221642206e-01 -3.6093875504e-01 2.3221642206e-01 -3.6417584768e+00" polarizability="7.7761582999e+00 -3.2643645921e-01 -2.1000639187e-01 -3.2643645921e-01 6.6241441706e+00 7.2374568879e-01 -2.1000639187e-01 7.2374568879e-01 9.1088966812e+00" charge=0 multiplicity=2 method=wB97M-V basis=def2-svpd config_type=oh_radical sample_index=209 temperature=300.0 units=atomic
O        -0.0108741224       0.0163216504       0.1098214514   6.855469887039e-03  -1.026965168540e-02  -3.568573959551e-02
H         0.1746083414      -0.2613551250      -0.8552212477  -6.858304416149e-03   1.026868099369e-02   3.568606558778e-02
2
Properties=species:S:1:pos:R:3:forces:R:3 energy=-7.563001134005e+01 dipole="-1.6636268147e-01 2.4905469237e-01 -6.5446456231e-01" quadrupole="-5.1353403161e+00 -5.0503228467e-01 3.1458411865e-01 -5.0503228467e-01 -4.3761899588e+00 -3.4130241482e-01 3.1458411865e-01 -3.4130241482e-01 -3.4312431462e+00" polarizability="8.2018432461e+00 1.4814195978e-01 9.9750174488e-01 1.4814195978e-01 7.6048754597e+00 -1.6737350101e+00 9.9750174488e-01 -1.6737350101e+00 1.1013660869e+01" charge=0 multiplicity=2 method=wB97M-V basis=def2-svpd config_type=oh_radical sample_index=210 temperature=300.0 units=atomic
O         0.0159540585      -0.0239464443       0.1160282770  -2.358380499383e-02   3.530477934715e-02  -9.277345735616e-02
H        -0.2561780714       0.3834493319      -0.9545247691   2.358354851808e-02  -3.530470375376e-02   9.277518247230e-02
2
Properties=species:S:1:pos:R:3:forces:R:3 energy=-7.565265548875e+01 dipole="1.3190195267e-01 -1.9746502286e-01 -6.3640418059e-01" quadrupole="-5.1725188433e+00 4.8873306620e-02 -3.7498467844e-01 4.8873306620e-02 -4.1590291479e+00 2.3426833446e-01 -3.7498467844e-01 2.3426833446e-01 -3.6598069561e+00" polarizability="7.7912177696e+00 -2.9499650239e-01 -2.2627583946e-01 -2.9499650239e-01 6.6366406729e+00 7.7288525279e-01 -2.2627583946e-01 7.7288525279e-01 9.0378736698e+00" charge=0 multiplicity=2 method=wB97M-V basis=def2-svpd config_type=oh_radical sample_index=211 temperature=300.0 units=atomic
O        -0.0115994713       0.0174103719       0.1092079579   7.020495561807e-03  -1.051392678221e-02  -3.387937724681e-02
H         0.1862554390      -0.2787885913      -0.8454059140  -7.021547967503e-03   1.051270860919e-02   3.388061651683e-02
2
Properties=species:S:1:pos:R:3:forces:R:3 energy=-7.563005692037e+01 dipole="2.3548313203e-01 -3.5252798046e-01 -5.8156560527e-01" quadrupole="-4.8469170987e+00 -7.1628393114e-01 -2.5904227874e-01 -7.1628393114e-01 -4.4460678868e+00 5.0463629167e-01 -2.5904227874e-01 5.0463629167e-01 -3.6352549579e+00" polarizability="8.1716075463e+00 -1.1425164861e-01 -1.4403385978e+00 -1.1425164861e-01 8.5349646468e+00 1.9934340151e+00 -1.4403385978e+00 1.9934340151e+00 1.0108282348e+01" charge=0 multiplicity=2 method=wB97M-V basis=def2-svpd config_type=oh_radical sample_index=212 temperature=300.0 units=atomic
O        -0.0225797071       0.0338912947       0.1090066560   3.337100196269e-02  -4.995218150244e-02  -8.240829391770e-02
H         0.3625676695      -0.5426941108      -0.8421852666  -3.336965442047e-02   4.995302216237e-02   8.240881388708e-02
2
Properties=species:S:1:pos:R:3:forces:R:3 energy=-7.565143712815e+01 dipole="-1.3724375042e-01 2.0546174697e-01 -6.3721429581e-01" quadrupole="-5.2030596065e+00 -7.5411586393e-02 3.6192493201e-01 -7.5411586393e-02 -4.1535365982e+00 -2.2351089273e-01 3.6192493201e-01 -2.2351089273e-01 -3.6335448211e+00" polarizability="7.8759601057e+00 -1.6076005717e-01 3.0909269015e-01 -1.6076005717e-01 6.6903943326e+00 -8.8796652889e-01 3.0909269015e-01 -8.8796652889e-01 9.1988052742e+00" charge=0 multiplicity=2 method=wB97M-V basis=def2-svpd config_type=oh_radical sample_index=213 temperature=300.0 units=atomic
O         0.0121785189      -0.0182795007       0.1097886267  -9.353199542017e-03   1.400586596683e-02  -4.343197380826e-02
H        -0.1955533431       0.2927057665      -0.8546960826   9.354402586050e-03  -1.400560484534e-02   4.343451796761e-02
2
Properties=species:S:1:pos:R:3:forces:R:3 energy=-7.565421994489e+01 dipole="1.3456624404e-01 -2.0145429750e-01 -6.2236168175e-01" quadrupole="-4.9210608289e+00 3.2117569154e-01 -4.1040469831e-01 3.2117569154e-01 -4.2965128136e+00 3.2598307750e-01 -4.1040469831e-01 3.2598307750e-01 -3.7701345065e+00" polarizability="7.3880856929e+00 -6.2554654058e-01 -9.0486673648e-02 -6.2554654058e-01 6.7478193834e+00 5.1051434426e-01 -9.0486673648e-02 5.1051434426e-01 8.5580381170e+00" charge=0 multiplicity=2 method=wB97M-V basis=def2-svpd config_type=oh_radical sample_index=214 temperature=300.0 units=atomic
O        -0.0115435675       0.0173264625       0.1066219619   3.805628743191e-04  -5.753152889170e-04  -1.766179873496e-03
H         0.1853577795      -0.2774449675      -0.8040323470  -3.814934258762e-04   5.724280423913e-04   1.768497967122e-03
2
Properties=species:S:1:pos:R:3:forces:R:3 energy=-7.564090207169e+01 dipole="2.2501719934e-01 -3.3685982229e-01 -5.7663957622e-01" quadrupole="-4.7595439857e+00 -6.8721369744e-01 -1.8612160280e-01 -6.8721369744e-01 -4.5116409415e+00 4.6651219079e-01 -1.8612160280e-01 4.6651219079e-01 -3.6855801894e+00" polarizability="7.8059839531e+00 6.3057266258e-02 -1.2211425848e+00 6.3057266258e-02 8.1956586245e+00 1.5699477292e+00 -1.2211425848e+00 1.5699477292e+00 9.4473365865e+00" charge=0 multiplicity=2 method=wB97M-V basis=def2-svpd config_type=oh_radical sample_index=215 temperature=300.0 units=atomic
O        -0.0208975634       0.0313664600       0.1067877834   2.733062574729e-02  -4.091504725157e-02  -7.003898795328e-02
H         0.3355570924      -0.5022644686      -0.8066853399  -2.733213406283e-02   4.091519323280e-02   7.004038915546e-02
2
Properties=species:S:1:pos:R:3:forces:R:3 energy=-7.564879106610e+01 dipole="1.1351465314e-01 -1.6993666641e-01 -6.5932795811e-01" quadrupole="-5.2495643593e+00 -1.1135285762e-01 -2.9552762305e-01 -1.1135285762e-01 -4.2004231970e+00 1.9575405820e-01 -2.9552762305e-01 1.9575405820e-01 -3.5403996063e+00" polarizability="7.9318566891e+00 -4.2786121257e-02 -3.3483671787e-01 -4.2786121257e-02 6.6760831788e+00 8.3408753408e-01 -3.3483671787e-01 8.3408753408e-01 9.6681615960e+00" charge=0 multiplicity=2 method=wB97M-V basis=def2-svpd config_type=oh_radical sample_index=216 temperature=300.0 units=atomic
O        -0.0102218346       0.0153425909       0.1126261210   1.010992593300e-02  -1.514294202334e-02  -5.875082831641e-02
H         0.1641344034      -0.2456776529      -0.9000933904  -1.011406408585e-02   1.514353663408e-02   5.875125246761e-02
2
Properties=species:S:1:pos:R:3:forces:R:3 energy=-7.564983739562e+01 dipole="-1.8420504870e-02 2.7575971780e-02 -6.8700059094e-01" quadrupole="-4.2819098363e+00 1.9185737978e-01 3.1723791691e-02 1.9185737978e-01 -5.2565571793e+00 -8.0222987573e-02 3.1723791691e-02 -8.0222987573e-02 -3.4592931334e+00" polarizability="6.4904553747e+00 -2.6296827200e-01 7.8115412497e-02 -2.6296827200e-01 7.8052885294e+00 -7.2910844387e-02 7.8115412497e-02 -7.2910844387e-02 9.7923703429e+00" charge=0 multiplicity=2 method=wB97M-V basis=def2-svpd config_type=oh_radical sample_index=217 temperature=300.0 units=atomic
O         0.0016499466      -0.0024765080       0.1147980752  -1.509956644763e-03   2.259369307013e-03  -5.633053534447e-02
H        -0.0264935807       0.0396557978      -0.9348426663   1.510036536906e-03  -2.261156779994e-03   5.633266161601e-02
2
Properties=species:S:1:pos:R:3:forces:R:3 energy=-7.563006328465e+01 dipole="-1.6752010174e-01 2.5078694051e-01 -6.5343562006e-01" quadrupole="-5.1538216790e+00 -4.8684529369e-01 3.2887619252e-01 -4.8684529369e-01 -4.3523226804e+00 -3.3955081982e-01 3.2887619252e-01 -3.3955081982e-01 -3.4365778061e+00" polarizability="8.2321005515e+00 1.1536876542e-01 9.8443250595e-01 1.1536876542e-01 7.5823508712e+00 -1.6863931352e+00 9.8443250595e-01 -1.6863931352e+00 1.0999650645e+01" charge=0 multiplicity=2 method=wB97M-V basis=def2-svpd config_type=oh_radical sample_index=218 temperature=300.0 units=atomic
O         0.0160628011      -0.0241096628       0.1159205310  -2.373612006631e-02   3.553460472167e-02  -9.258599858607e-02
H        -0.2579241762       0.3860629152      -0.9528009314   2.373682358543e-02  -3.553418732462e-02   9.258764447882e-02
2
Properties=species:S:1:pos:R:3:forces:R:3 energy=-7.565286115105e+01 dipole="-8.1461036966e-03 1.2195567403e-02 -6.5669767642e-01" quadrupole="-5.1310775521e+00 2.5302388200e-01 2.4095812284e-02 2.5302388200e-01 -4.2223763413e+00 -1.5297658969e-02 2.4095812284e-02 -1.5297658969e-02 -3.6341036547e+00" polarizability="7.4667311043e+00 -3.2240182244e-01 3.5081175505e-03 -3.2240182244e-01 6.3117468631e+00 -3.1664921616e-02 3.5081175505e-03 -3.1664921616e-02 8.2315166659e+00" charge=0 multiplicity=2 method=wB97M-V basis=def2-svpd config_type=oh_radical sample_index=219 temperature=300.0 units=atomic
O         0.0006820541      -0.0010237376       0.1082224253   5.026026785459e-04  -7.518291248558e-04   4.052970231107e-02
H        -0.0109519029       0.0163928935      -0.8296382953  -5.024284118615e-04   7.523492615574e-04  -4.052727839423e-02
2
Properties=species:S:1:pos:R:3:forces:R:3 energy=-7.564673816991e+01 dipole="8.8283413412e-02 -1.3216379841e-01 -6.7615940253e-01" quadrupole="-5.2359972515e+00 -2.6646183456e-01 -1.9573063081e-01 -2.6646183456e-01 -4.2889805835e+00 1.5105151216e-01 -1.9573063081e-01 1.5105151216e-01 -3.4648809817e+00" polarizability="7.8917233603e+00 2.3936436523e-01 -3.4796089397e-01 2.3936436523e-01 6.7077568447e+00 7.1354550788e-01 -3.4796089397e-01 7.1354550788e-01 1.0013515191e+01" charge=0 multiplicity=2 method=wB97M-V basis=def2-svpd config_type=oh_radical sample_index=220 temperature=300.0 units=atomic
O        -0.0080236321       0.0120431713       0.1147144742   8.856151195422e-03  -1.326326980057e-02  -6.784804997121e-02
H         0.1288373484      -0.1928447463      -0.9335051273  -8.857954629043e-03   1.326179043838e-02   6.784792349637e-02
2
Properties=species:S:1:pos:R:3:forces:R:3 energy=-7.563666676745e+01 dipole="8.7596570168e-02 -1.3113831133e-01 -6.9324975781e-01" quadrupole="-5.3271754889e+00 4.3400600167e-02 -2.7483276970e-01 4.3400600167e-02 -4.2780060407e+00 2.0612666588e-01 -2.7483276970e-01 2.0612666588e-01 -3.3642289224e+00" polarizability="8.1328359908e+00 -2.0181347514e-01 -3.5776918763e-01 -2.0181347514e-01 6.8003129163e+00 8.1929754719e-01 -3.5776918763e-01 8.1929754719e-01 1.1066110197e+01" charge=0 multiplicity=2 method=wB97M-V basis=def2-svpd config_type=oh_radical sample_index=221 temperature=300.0 units=atomic
O        -0.0082444865       0.0123746655       0.1185213954   1.150554264172e-02  -1.722293563765e-02  -9.104188199643e-02
H         0.1323836596      -0.1981528924      -0.9944123781  -1.150298723620e-02   1.722266709124e-02   9.104278761439e-02
2
Properties=species:S:1:pos:R:3:forces:R:3 energy=-7.564007215227e+01 dipole="1.2428934449e-01 -1.8606929246e-01 -6.6959175867e-01" quadrupole="-4.7040517914e+00 -5.6837762293e-01 -1.1132634041e-01 -5.6837762293e-01 -4.8281230182e+00 3.3202455245e-01 -1.1132634041e-01 3.3202455245e-01 -3.4412508956e+00" polarizability="7.3302548710e+00 5.0954074853e-01 -8.0907193913e-01 5.0954074853e-01 7.7264778464e+00 9.8371730785e-01 -8.0907193913e-01 9.8371730785e-01 1.0502622454e+01" charge=0 multiplicity=2 method=wB97M-V basis=def2-svpd config_type=oh_radical sample_index=222 temperature=300.0 units=atomic
O        -0.0115745446       0.0173729580       0.1156204472   1.537037405212e-02  -2.301024931659e-02  -8.280286681540e-02
H         0.1858551860      -0.2781894895      -0.9479998651  -1.536855095077e-02   2.301073610202e-02   8.280348075824e-02
2
Properties=species:S:1:pos:R:3:forces:R:3 energy=-7.565375880468e+01 dipole="-6.6545318098e-02 9.9622319826e-02 -6.6297184485e-01" quadrupole="-4.2864119008e+00 -3.0154377052e-01 3.6295540607e-02 -3.0154377052e-01 -5.1319060302e+00 -2.1892233603e-01 3.6295540607e-02 -2.1892233603e-01 -3.5788154002e+00" polarizability="6.4788517818e+00 3.4177089713e-01 3.0787574422e-01 3.4177089713e-01 7.6360341231e+00 -2.4445720244e-01 3.0787574422e-01 -2.4445720244e-01 8.9668786662e+00" charge=0 multiplicity=2 method=wB97M-V basis=def2-svpd config_type=oh_radical sample_index=223 temperature=300.0 units=atomic
O         0.0057819270      -0.0086784558       0.1108517604  -2.035228949819e-03   3.048252425727e-03  -2.027824541121e-02
H        -0.0928417614       0.1389662713      -0.8717052471   2.035499443859e-03  -3.047341690021e-03   2.027706829348e-02
2
Properties=species:S:1:pos:R:3:forces:R:3 energy=-7.565399383927e+01 dipole="6.9686963842e-02 -1.0432596771e-01 -6.5996212421e-01" quadrupole="-4.2526878666e+00 -2.5644418397e-01 -4.0565199647e-02 -2.5644418397e-01 -5.1486136169e+00 2.3593142883e-01 -4.0565199647e-02 2.3593142883e-01 -3.5950055605e+00" polarizability="6.4309693303e+00 2.7742897674e-01 -3.0846421948e-01 2.7742897674e-01 7.6535769553e+00 2.3216098830e-01 -3.0846421948e-01 2.3216098830e-01 8.8676586679e+00" charge=0 multiplicity=2 method=wB97M-V basis=def2-svpd config_type=oh_radical sample_index=224 temperature=300.0 units=atomic
O        -0.0060295270       0.0090500941       0.1103482818   1.526947343433e-03  -2.285598364200e-03  -1.446188618552e-02
H         0.0968175330      -0.1449172373      -0.8636500507  -1.527389072584e-03   2.286481890112e-03   1.446113808994e-02
2
Properties=species:S:1:pos:R:3:forces:R:3 energy=-7.565324035666e+01 dipole="3.6939420954e-02 -5.5300468510e-02 -6.7342884482e-01" quadrupole="-4.6708127307e+00 5.1175738699e-01 -1.0865266479e-01 5.1175738699e-01 -4.7865669473e+00 1.3730490490e-01 -1.0865266479e-01 1.3730490490e-01 -3.5418208145e+00" polarizability="6.9721223026e+00 -6.9392316384e-01 -6.4625895281e-02 -6.9392316384e-01 7.1396634472e+00 1.3024445542e-01 -6.4625895281e-02 1.3024445542e-01 9.1750040950e+00" charge=0 multiplicity=2 method=wB97M-V basis=def2-svpd config_type=oh_radical sample_index=225 temperature=300.0 units=atomic
O        -0.0032305045       0.0048488663       0.1121465810   1.595997714445e-03  -2.389559674845e-03  -2.910307971538e-02
H         0.0518729710      -0.0776438668      -0.8924211899  -1.596536968894e-03   2.389951020992e-03   2.910206580153e-02
2
Properties=species:S:1:pos:R:3:forces:R:3 energy=-7.565335880554e+01 dipole="1.0352459358e-01 -1.5498151946e-01 -6.4990907378e-01" quadrupole="-4.2209530083e+00 1.3473513843e-01 -1.5374045172e-01 1.3473513843e-01 -5.1211040974e+00 4.1813246856e-01 -1.5374045172e-01 4.1813246856e-01 -3.6524546472e+00" polarizability="6.4550331706e+00 -3.1437623467e-01 -3.5558529939e-01 -3.1437623467e-01 7.7567447446e+00 2.8406208797e-01 -3.5558529939e-01 2.8406208797e-01 9.0335704997e+00" charge=0 multiplicity=2 method=wB97M-V basis=def2-svpd config_type=oh_radical sample_index=226 temperature=300.0 units=atomic
O        -0.0090418276       0.0135714446       0.1100084860   4.216254295383e-03  -6.318699609910e-03  -2.649533324445e-02
H         0.1451867534      -0.2173166630      -0.8582136297  -4.219178035467e-03   6.318081482414e-03   2.649368684351e-02
2
Properties=species:S:1:pos:R:3:forces:R:3 energy=-7.565168981802e+01 dipole="-4.5109659374e-02 6.7532488915e-02 -6.4815741083e-01" quadrupole="-4.7227328532e+00 5.0306779396e-01 1.3158575649e-01 5.0306779396e-01 -4.5843612384e+00 -1.3909796736e-01 1.3158575649e-01 -1.3909796736e-01 -3.6750650460e+00" polarizability="6.9455670906e+00 -6.5344531208e-01 1.0376983722e-02 -6.5344531208e-01 6.7868068798e+00 -8.8530093353e-02 1.0376983722e-02 -8.8530093353e-02 8.0630065619e+00" charge=0 multiplicity=2 method=wB97M-V basis=def2-svpd config_type=oh_radical sample_index=227 temperature=300.0 units=atomic
O         0.0037463394      -0.0056231151       0.1070641467   3.933475692166e-03  -5.890313929885e-03   5.652842770510e-02
H        -0.0601558523       0.0900417481      -0.8111068988  -3.933440847296e-03   5.888880902900e-03  -5.652970864694e-02
2
Properties=species:S:1:pos:R:3:forces:R:3 energy=-7.564406172460e+01 dipole="-1.0397949480e-01 1.5566243488e-01 -6.7401144646e-01" quadrupole="-5.2269924761e+00 -3.0613544918e-01 2.2622574012e-01 -3.0613544918e-01 -4.3040098776e+00 -1.8407657332e-01 2.2622574012e-01 -1.8407657332e-01 -3.4527361322e+00" polarizability="7.9467835416e+00 2.3947953460e-01 4.4993205274e-01 2.3947953460e-01 6.8344679573e+00 -8.8460814996e-01 4.4993205274e-01 -8.8460814996e-01 1.0231103610e+01" charge=0 multiplicity=2 method=wB97M-V basis=def2-svpd config_type=oh_radical sample_index=228 temperature=300.0 units=atomic
O         0.0095504271      -0.0143348334       0.1151704929  -1.159011333026e-02   1.735655110860e-02  -7.515172303656e-02
H        -0.1533534547       0.2295406450      -0.9408010094   1.159227651368e-02  -1.735640075791e-02   7.515160192834e-02
2
Properties=species:S:1:pos:R:3:forces:R:3 energy=-7.565183392208e+01 dipole="-1.0229061618e-02 1.5312883578e-02 -6.8194575136e-01" quadrupole="-4.2352810889e+00 -7.8272830809e-02 1.0434363750e-02 -7.8272830809e-02 -5.2722720844e+00 -4.0360807049e-02 1.0434363750e-02 -4.0360807049e-02 -3.4920962767e+00" polarizability="6.4046095235e+00 1.0294749933e-01 4.8490917395e-02 1.0294749933e-01 7.7887586034e+00 -3.9589509594e-02 4.8490917395e-02 -3.9589509594e-02 9.4814382081e+00" charge=0 multiplicity=2 method=wB97M-V basis=def2-svpd config_type=oh_radical sample_index=229 temperature=300.0 units=atomic
O         0.0009052227      -0.0013587053       0.1136085659  -6.532526148497e-04   9.774616814671e-04  -4.356471611364e-02
H        -0.0145353732       0.0217566598      -0.9158116076   6.532399345339e-04  -9.783689049611e-04   4.356723090337e-02
2
Properties=species:S:1:pos:R:3:forces:R:3 energy=-7.565325433735e+01 dipole="-1.6536637709e-01 2.4756270894e-01 -5.8730457785e-01" quadrupole="-4.3859355542e+00 3.2391339486e-01 3.7132231251e-01 3.2391339486e-01 -4.6285082553e+00 -5.4486537574e-01 3.7132231251e-01 -5.4486537574e-01 -3.9605572232e+00" polarizability="6.7075785831e+00 -6.8898891558e-01 1.5885711861e-01 -6.8898891558e-01 7.2456481847e+00 -2.5184646079e-01 1.5885711861e-01 -2.5184646079e-01 8.1524021536e+00" charge=0 multiplicity=2 method=wB97M-V basis=def2-svpd config_type=oh_radical sample_index=230 temperature=300.0 units=atomic
O         0.0138947288      -0.0208554675       0.1025674468   8.477132946947e-03  -1.268466401606e-02   3.009912204477e-02
H        -0.2231109291       0.3339541759      -0.7391638208  -8.475278116510e-03   1.268535238553e-02  -3.009529828780e-02
2
Properties=species:S:1:pos:R:3:forces:R:3 energy=-7.564203976133e+01 dipole="-1.2144756934e-01 1.8181472547e-01 -6.6803587212e-01" quadrupole="-4.8566427119e+00 -5.6977376178e-01 1.3217760796e-01 -5.6977376178e-01 -4.6710958022e+00 -2.7588394463e-01 1.3217760796e-01 -2.7588394463e-01 -3.4501487715e+00" polarizability="7.5090330287e+00 5.2899428691e-01 7.2814267406e-01 5.2899428691e-01 7.4636104216e+00 -9.8307380975e-01 7.2814267406e-01 -9.8307380975e-01 1.0322386447e+01" charge=0 multiplicity=2 method=wB97M-V basis=def2-svpd config_type=oh_radical sample_index=231 temperature=300.0 units=atomic
O         0.0112357364      -0.0168644194       0.1150658629  -1.435422196263e-02   2.148930752765e-02  -7.895525479406e-02
H        -0.1804148620       0.2700463702      -0.9391270241   1.435222296805e-02  -2.148916429280e-02   7.895441909244e-02
2
Properties=species:S:1:pos:R:3:forces:R:3 energy=-7.564903871152e+01 dipole="1.2718558698e-01 -1.9040410931e-01 -6.5059027569e-01" quadrupole="-5.2332267304e+00 -6.0995854227e-02 -3.4652747971e-01 -6.0995854227e-02 -4.1793255818e+00 2.2507341644e-01 -3.4652747971e-01 2.2507341644e-01 -3.5765162292e+00" polarizability="7.9384547799e+00 -1.5862535892e-01 -3.3857076281e-01 -1.5862535892e-01 6.7170030245e+00 9.0281131148e-01 -3.3857076281e-01 9.0281131148e-01 9.5773705786e+00" charge=0 multiplicity=2 method=wB97M-V basis=def2-svpd config_type=oh_radical sample_index=232 temperature=300.0 units=atomic
O        -0.0114390781       0.0171696278       0.1117654607   1.112912035349e-02  -1.666728918471e-02  -5.694417100700e-02
H         0.1836799681      -0.2749336065      -0.8863236145  -1.113153789013e-02   1.666689389832e-02   5.694481162585e-02
2
Properties=species:S:1:pos:R:3:forces:R:3 energy=-7.565363040736e+01 dipole="-9.8695331506e-02 1.4775302266e-01 -6.5073832314e-01" quadrupole="-4.1927693032e+00 -7.4492315966e-02 9.3160502519e-02 -7.4492315966e-02 -5.1654572167e+00 -3.7429681291e-01 9.3160502519e-02 -3.7429681291e-01 -3.6364792548e+00" polarizability="6.4030943069e+00 -2.3614770133e-02 4.0034305251e-01 -2.3614770133e-02 7.7849106043e+00 -2.9003087622e-01 4.0034305251e-01 -2.9003087622e-01 8.9515019875e+00" charge=0 multiplicity=2 method=wB97M-V basis=def2-svpd config_type=oh_radical sample_index=233 temperature=300.0 units=atomic
O         0.0085912188      -0.0128950977       0.1098902041  -3.379335101424e-03   5.063666807785e-03  -2.230656718807e-02
H        -0.1379512216       0.2064864627      -0.8563212265   3.382254634996e-03  -5.064256941542e-03   2.230366339987e-02
2
Properties=species:S:1:pos:R:3:forces:R:3 energy=-7.565389109182e+01 dipole="-3.7651607099e-02 5.6365833438e-02 -6.5858209622e-01" quadrupole="-4.9761991156e+00 4.2477410744e-01 1.1847050161e-01 4.2477410744e-01 -4.3939046521e+00 -9.7366260227e-02 1.1847050161e-01 -9.7366260227e-02 -3.6219348730e+00" polarizability="7.3036102782e+00 -5.6125554776e-01 1.8534454193e-02 -5.6125554776e-01 6.5672872753e+00 -1.3059035054e-01 1.8534454193e-02 -1.3059035054e-01 8.4558140544e+00" charge=0 multiplicity=2 method=wB97M-V basis=def2-svpd config_type=oh_radical sample_index=234 temperature=300.0 units=atomic
O         0.0031890060      -0.0047865786       0.1090224658   1.090113310613e-03  -1.632173152844e-03   1.908033202904e-02
H        -0.0512066199       0.0766464673      -0.8424382103  -1.090353873069e-03   1.631687811957e-03  -1.907790142372e-02
2
Properties=species:S:1:pos:R:3:forces:R:3 energy=-7.561891549838e+01 dipole="-2.7218656583e-01 4.0747942055e-01 -5.4467389725e-01" quadrupole="-4.6449541565e+00 -9.1069310214e-03 8.0633060517e-01 -9.1069310214e-03 -4.1115826726e+00 -8.1354578256e-01 8.0633060517e-01 -8.1354578256e-01 -4.1284917996e+00" polarizability="8.3486254885e+00 -1.6539028385e+00 1.0568829387e+00 -1.6539028385e+00 8.9810813213e+00 -2.1348915439e+00 1.0568829387e+00 -2.1348915439e+00 1.0814228511e+01" charge=0 multiplicity=2 method=wB97M-V basis=def2-svpd config_type=oh_radical sample_index=235 temperature=300.0 units=atomic
O         0.0268399346      -0.0402857365       0.1069441753  -4.112457824852e-02   6.156065728093e-02  -8.228737636571e-02
H        -0.4309751435       0.6450869505      -0.8091874657   4.112319458059e-02  -6.156447519164e-02   8.229142743537e-02
2
Properties=species:S:1:pos:R:3:forces:R:3 energy=-7.564611190685e+01 dipole="-2.2344737830e-02 3.3450918066e-02 -6.9463740364e-01" quadrupole="-4.3058334478e+00 -1.9755632139e-01 2.1835520590e-02 -1.9755632139e-01 -5.2801633861e+00 -8.7486753514e-02 2.1835520590e-02 -8.7486753514e-02 -3.4063036489e+00" polarizability="6.5581790886e+00 2.6061555337e-01 1.3203393872e-01 2.6061555337e-01 7.8891939859e+00 -1.2315342649e-01 1.3203393872e-01 -1.2315342649e-01 1.0262340984e+01" charge=0 multiplicity=2 method=wB97M-V basis=def2-svpd config_type=oh_radical sample_index=236 temperature=300.0 units=atomic
O         0.0020360605      -0.0030560505       0.1165641551  -2.306376594958e-03   3.451769556324e-03  -7.171848797542e-02
H        -0.0326935023       0.0489358888      -0.9630983270   2.306391822272e-03  -3.453426815566e-03   7.171852967703e-02
2
Properties=species:S:1:pos:R:3:forces:R:3 energy=-7.564722962602e+01 dipole="1.8982335833e-02 -2.8416800991e-02 -6.9276374879e-01" quadrupole="-4.2743859987e+00 -1.1508013861e-01 -2.0699635151e-02 -1.1508013861e-01 -5.2995923562e+00 7.6949404768e-02 -2.0699635151e-02 7.6949404768e-02 -3.4202030925e+00" polarizability="6.5044320716e+00 1.5040442793e-01 -1.0576239186e-01 1.5040442793e-01 7.8988172762e+00 9.6012007767e-02 -1.0576239186e-01 9.6012007767e-02 1.0132111036e+01" charge=0 multiplicity=2 method=wB97M-V basis=def2-svpd config_type=oh_radical sample_index=237 temperature=300.0 units=atomic
O        -0.0017215535       0.0025839873       0.1160960330   1.857732781884e-03  -2.780836077577e-03  -6.783035487952e-02
H         0.0276433888      -0.0413768397      -0.9556088022  -1.857966542140e-03   2.782180948473e-03   6.783062506263e-02
2
Properties=species:S:1:pos:R:3:forces:R:3 energy=-7.565415364865e+01 dipole="-4.9477049022e-02 7.4068982167e-02 -6.5888249223e-01" quadrupole="-4.1758451144e+00 -9.2492513438e-05 4.8909954721e-02 -9.2492513438e-05 -5.2012044133e+00 -1.8847837997e-01 4.8909954721e-02 -1.8847837997e-01 -3.6166971453e+00" polarizability="6.2897719367e+00 -2.6882338701e-02 1.7045941945e-01 -2.6882338701e-02 7.6381908733e+00 -1.0609550055e-01 1.7045941945e-01 -1.0609550055e-01 8.5752540669e+00" charge=0 multiplicity=2 method=wB97M-V basis=def2-svpd config_type=oh_radical sample_index=238 temperature=300.0 units=atomic
O         0.0042165895      -0.0063289429       0.1093963686   6.378923468176e-04  -9.595220686492e-04   8.519359994422e-03
H        -0.0677067690       0.1013440190      -0.8484203118  -6.394955279315e-04   9.567084682585e-04  -8.517657694567e-03
2
Properties=species:S:1:pos:R:3:forces:R:3 energy=-7.553638920216e+01 dipole="-3.2305031541e-01 4.8362267054e-01 -4.5673167522e-01" quadrupole="-4.4336939351e+00 -1.0581243758e+00 3.4711306618e-01 -1.0581243758e+00 -4.1983918304e+00 -1.1990504315e+00 3.4711306618e-01 -1.1990504315e+00 -3.9945227399e+00" polarizability="1.1344090932e+01 -3.8805180415e+00 4.5417020837e+00 -3.8805180415e+00 1.5469377339e+01 -5.8375401515e+00 4.5417020837e+00 -5.8375401515e+00 1.4180707016e+01" charge=0 multiplicity=2 method=wB97M-V basis=def2-svpd config_type=oh_radical sample_index=239 temperature=300.0 units=atomic
O         0.0417626925      -0.0626842373       0.1122974049  -3.885021433562e-02   5.814788240868e-02  -5.490934992534e-02
H        -0.6705933788       1.0037493908      -0.8948342334   3.883991302320e-02  -5.814793145826e-02   5.491541084653e-02
2
Properties=species:S:1:pos:R:3:forces:R:3 energy=-7.564170255838e+01 dipole="6.3261807080e-02 -9.4705233476e-02 -6.9416828251e-01" quadrupole="-5.3285634444e+00 -4.3666428927e-02 -1.8117509600e-01 -4.3666428927e-02 -4.2723388649e+00 1.3203680512e-01 -1.8117509600e-01 1.3203680512e-01 -3.3814404661e+00" polarizability="8.0369210038e+00 -8.8648141972e-03 -2.4674210178e-01 -8.8648141972e-03 6.6452454639e+00 5.6025944537e-01 -2.4674210178e-01 5.6025944537e-01 1.0658825757e+01" charge=0 multiplicity=2 method=wB97M-V basis=def2-svpd config_type=oh_radical sample_index=240 temperature=300.0 units=atomic
O        -0.0058593785       0.0087947077       0.1175662474   7.538238705894e-03  -1.128969593991e-02  -8.274133753022e-02
H         0.0940854192      -0.1408277880      -0.9791308846  -7.540038869378e-03   1.128892827556e-02   8.273970340473e-02
2
Properties=species:S:1:pos:R:3:forces:R:3 energy=-7.565389543042e+01 dipole="-6.0135977320e-02 9.0026746329e-02 -6.6389909716e-01" quadrupole="-4.2911999165e+00 -3.0878878739e-01 3.1629891376e-02 -3.0878878739e-01 -5.1283320144e+00 -1.9555856053e-01 3.1629891376e-02 -1.9555856053e-01 -3.5776936011e+00" polarizability="6.4746322741e+00 3.6115998175e-01 2.7605737583e-01 3.6115998175e-01 7.6099939920e+00 -2.1871872228e-01 2.7605737583e-01 -2.1871872228e-01 8.9269768873e+00" charge=0 multiplicity=2 method=wB97M-V basis=def2-svpd config_type=oh_radical sample_index=241 temperature=300.0 units=atomic
O         0.0052131983      -0.0078248154       0.1108016434  -1.561302608519e-03   2.338834835865e-03  -1.723451807137e-02
H        -0.0837095517       0.1252971088      -0.8709034210   1.561182703201e-03  -2.337290836930e-03   1.723354646588e-02
2
Properties=species:S:1:pos:R:3:forces:R:3 energy=-7.565152245589e+01 dipole="-9.1074465175e-02 1.3634253996e-01 -6.3186085741e-01" quadrupole="-4.1550116878e+00 1.2733561084e-01 1.0952653632e-01 1.2733561084e-01 -5.0804635713e+00 -3.4084529505e-01 1.0952653632e-01 -3.4084529505e-01 -3.7429186529e+00" polarizability="6.2672356796e+00 -2.3722023121e-01 2.0636827863e-01 -2.3722023121e-01 7.4969024460e+00 -8.6043738655e-02 2.0636827863e-01 -8.6043738655e-02 8.0057890465e+00" charge=0 multiplicity=2 method=wB97M-V basis=def2-svpd config_type=oh_radical sample_index=242 temperature=300.0 units=atomic
O         0.0075561837      -0.0113415488       0.1056544205   8.238739283305e-03  -1.232949924973e-02   5.714321215970e-02
H        -0.1213314198       0.1816098139      -0.7885525708  -8.236553108769e-03   1.233103364959e-02  -5.714509191761e-02
2
Properties=species:S:1:pos:R:3:forces:R:3 energy=-7.565420374910e+01 dipole="-8.8883785766e-02 1.3306422088e-01 -6.4917531165e-01" quadrupole="-4.1846141092e+00 -1.0602454220e-01 7.1712034876e-02 -1.0602454220e-01 -5.1608083960e+00 -3.2543007599e-01 7.1712034876e-02 -3.2543007599e-01 -3.6479391420e+00" polarizability="6.3545344155e+00 4.6548804458e-02 3.4158399937e-01 4.6548804458e-02 7.7021227852e+00 -2.2722315364e-01 3.4158399937e-01 -2.2722315364e-01 8.6862796504e+00" charge=0 multiplicity=2 method=wB97M-V basis=def2-svpd config_type=oh_radical sample_index=243 temperature=300.0 units=atomic
O         0.0076373654      -0.0114633995       0.1090223638  -5.880034155479e-04   8.862842806364e-04  -4.322207609383e-03
H        -0.1226349736       0.1835609833      -0.8424365782   5.913856652422e-04  -8.855552762431e-04   4.320271665612e-03
2
Properties=species:S:1:pos:R:3:forces:R:3 energy=-7.564730538678e+01 dipole="1.6011455964e-01 -2.3970002927e-01 -6.3070174543e-01" quadrupole="-4.9959791652e+00 -5.3539908061e-01 -2.1655978821e-01 -5.3539908061e-01 -4.4100832061e+00 2.7014730446e-01 -2.1655978821e-01 2.7014730446e-01 -3.5757766221e+00" polarizability="7.7435118140e+00 3.2817684840e-01 -7.3049127070e-01 3.2817684840e-01 7.2789181592e+00 1.1667606066e+00 -7.3049127070e-01 1.1667606066e+00 9.5008122341e+00" charge=0 multiplicity=2 method=wB97M-V basis=def2-svpd config_type=oh_radical sample_index=244 temperature=300.0 units=atomic
O        -0.0145167016       0.0217890254       0.1104291272   1.561577975113e-02  -2.337645028578e-02  -6.150694432842e-02
H         0.2330980926      -0.3489030399      -0.8649435024  -1.561526585274e-02   2.337672532293e-02   6.150980158903e-02
2
Properties=species:S:1:pos:R:3:forces:R:3 energy=-7.565266750777e+01 dipole="-9.6287983871e-02 1.4414736671e-01 -6.5672403265e-01" quadrupole="-4.2261087131e+00 -1.7325045305e-01 7.7407914011e-02 -1.7325045305e-01 -5.1706594052e+00 -3.5469203581e-01 7.7407914011e-02 -3.5469203581e-01 -3.5986858399e+00" polarizability="6.4629150071e+00 1.0740371495e-01 4.4277550626e-01 1.0740371495e-01 7.8182446915e+00 -3.4582998484e-01 4.4277550626e-01 -3.4582998484e-01 9.1812133181e+00" charge=0 multiplicity=2 method=wB97M-V basis=def2-svpd config_type=oh_radical sample_index=245 temperature=300.0 units=atomic
O         0.0084667118      -0.0127082172       0.1109950016  -5.104629493547e-03   7.652242431033e-03  -3.484410470104e-02
H        -0.1359519825       0.2034939860      -0.8739969745   5.108295284982e-03  -7.648113498083e-03   3.484406854004e-02
2
Properties=species:S:1:pos:R:3:forces:R:3 energy=-7.565229496398e+01 dipole="2.7949249748e-02 -4.1842800425e-02 -6.5301834759e-01" quadrupole="-5.1139094175e+00 2.6246767031e-01 -8.2602883908e-02 2.6246767031e-01 -4.2211782093e+00 5.2502533658e-02 -8.2602883908e-02 5.2502533658e-02 -3.6498835395e+00" polarizability="7.4399122995e+00 -3.3981822110e-01 -8.5368821500e-03 -3.3981822110e-01 6.3157175420e+00 1.0286516663e-01 -8.5368821500e-03 1.0286516663e-01 8.1411090887e+00" charge=0 multiplicity=2 method=wB97M-V basis=def2-svpd config_type=oh_radical sample_index=246 temperature=300.0 units=atomic
O        -0.0023301828       0.0034975172       0.1076803316  -2.090738998641e-03   3.129039956898e-03   4.885193510262e-02
H         0.0374162941      -0.0560050004      -0.8209652919   2.090131559800e-03  -3.129537330214e-03  -4.885179805016e-02
2
Properties=species:S:1:pos:R:3:forces:R:3 energy=-7.565165467626e+01 dipole="1.4746166486e-01 -2.2075786280e-01 -5.9674362342e-01" quadrupole="-4.3032252423e+00 3.1070496564e-01 -2.9354001165e-01 3.1070496564e-01 -4.7545252883e+00 5.1103543603e-01 -2.9354001165e-01 5.1103543603e-01 -3.9139657080e+00" polarizability="6.5387125049e+00 -5.9415350264e-01 -1.5829154656e-01 -5.9415350264e-01 7.2756718627e+00 1.4667026842e-01 -1.5829154656e-01 1.4667026842e-01 7.9755833071e+00" charge=0 multiplicity=2 method=wB97M-V basis=def2-svpd config_type=oh_radical sample_index=247 temperature=300.0 units=atomic
O        -0.0122439987       0.0183777834       0.1027692953  -1.296077595414e-02   1.940398961824e-02   5.245399161913e-02
H         0.1966047669      -0.2942795460      -0.7423932120   1.296235135435e-02  -1.940455986304e-02  -5.245237058054e-02
2
Properties=species:S:1:pos:R:3:forces:R:3 energy=-7.565233225822e+01 dipole="-2.5938456014e-02 3.8831188258e-02 -6.7888235750e-01" quadrupole="-4.4358203240e+00 4.1835834876e-01 6.2245438331e-02 4.1835834876e-01 -5.0535471405e+00 -1.0866699525e-01 6.2245438331e-02 -1.0866699525e-01 -3.5102233011e+00" polarizability="6.6703658613e+00 -5.6544213600e-01 7.1573168072e-02 -5.6544213600e-01 7.4994431520e+00 -8.6544126204e-02 7.1573168072e-02 -8.6544126204e-02 9.3825217182e+00" charge=0 multiplicity=2 method=wB97M-V basis=def2-svpd config_type=oh_radical sample_index=248 temperature=300.0 units=atomic
O         0.0022870567      -0.0034327865       0.1131147613  -1.498648301923e-03   2.242078074566e-03  -3.922828644336e-02
H        -0.0367238077       0.0549684813      -0.9079111870   1.498791963335e-03  -2.243989328461e-03   3.922855727818e-02
2
Properties=species:S:1:pos:R:3:forces:R:3 energy=-7.564453683912e+01 dipole="-1.5634371522e-01 2.3405572550e-01 -6.3948824247e-01" quadrupole="-5.0720825650e+00 -4.9299293071e-01 2.5161992741e-01 -4.9299293071e-01 -4.3647280893e+00 -2.6730891564e-01 2.5161992741e-01 -2.6730891564e-01 -3.5410301464e+00" polarizability="7.8784832126e+00 2.7227184361e-01 7.2888538666e-01 2.7227184361e-01 7.2453404296e+00 -1.2402944447e+00 7.2888538666e-01 -1.2402944447e+00 9.8200535489e+00" charge=0 multiplicity=2 method=wB97M-V basis=def2-svpd config_type=oh_radical sample_index=249 temperature=300.0 units=atomic
O         0.0143345731      -0.0215156573       0.1118838294  -1.715819365802e-02   2.568322484204e-02  -7.017154872251e-02
H        -0.2301736123       0.3445256551      -0.8882174042   1.715674394725e-02  -2.568440969084e-02   7.017464740711e-02
2
Properties=species:S:1:pos:R:3:forces:R:3 energy=-7.564454938528e+01 dipole="1.5103147154e-01 -2.2610254306e-01 -6.4358868661e-01" quadrupole="-5.1042515128e+00 -4.6180303264e-01 -2.5989350607e-01 -4.6180303264e-01 -4.3418727827e+00 2.5566991497e-01 -2.5989350607e-01 2.5566991497e-01 -3.5325699312e+00" polarizability="7.9043238113e+00 2.5653673984e-01 -6.8771247047e-01 2.5653673984e-01 7.1739041046e+00 1.2114241563e+00 -6.8771247047e-01 1.2114241563e+00 9.8638283010e+00" charge=0 multiplicity=2 method=wB97M-V basis=def2-svpd config_type=oh_radical sample_index=250 temperature=300.0 units=atomic
O        -0.0138468467       0.0207835983       0.1122582700   1.656718569581e-02  -2.480045512171e-02  -7.059173719279e-02
H         0.2223420750      -0.3328033491      -0.8942081109  -1.656654918806e-02   2.480115682716e-02   7.059371030200e-02
2
Properties=species:S:1:pos:R:3:forces:R:3 energy=-7.564641376928e+01 dipole="-1.9889885469e-01 2.9776289931e-01 -5.9591192977e-01" quadrupole="-4.6599126089e+00 -6.3731662805e-01 1.2696438977e-01 -6.3731662805e-01 -4.6414973835e+00 -4.4478338389e-01 1.2696438977e-01 -4.4478338389e-01 -3.6716429523e+00" polarizability="7.4487231621e+00 2.4081269171e-01 1.0509990592e+00 2.4081269171e-01 7.9416925494e+00 -1.2273026600e+00 1.0509990592e+00 -1.2273026600e+00 9.2729842811e+00" charge=0 multiplicity=2 method=wB97M-V basis=def2-svpd config_type=oh_radical sample_index=251 temperature=300.0 units=atomic
O         0.0181015635      -0.0271697688       0.1074697974  -2.026079565265e-02   3.033338612256e-02  -6.070601142906e-02
H        -0.2906610634       0.4350637429      -0.8175969378   2.026164168281e-02  -3.033438638767e-02   6.070765108995e-02
2
Properties=species:S:1:pos:R:3:forces:R:3 energy=-7.564696103543e+01 dipole="1.4535211467e-01 -2.1760052767e-01 -6.4293341495e-01" quadrupole="-5.1783438770e+00 -3.4061325639e-01 -3.0083358741e-01 -3.4061325639e-01 -4.2461216171e+00 2.3035841559e-01 -3.0083358741e-01 2.3035841559e-01 -3.5591522909e+00" polarizability="7.9496146033e+00 1.3208366658e-01 -5.4705030472e-01 1.3208366658e-01 6.9585918345e+00 1.1173030269e+00 -5.4705030472e-01 1.1173030269e+00 9.6698007885e+00" charge=0 multiplicity=2 method=wB97M-V basis=def2-svpd config_type=oh_radical sample_index=252 temperature=300.0 units=atomic
O        -0.0131979333       0.0198096036       0.1116289075   1.442806002632e-02  -2.159896955776e-02  -6.381517372175e-02
H         0.2119223207      -0.3172069797      -0.8841388884  -1.442742320847e-02   2.159954149388e-02   6.381687843538e-02
2
Properties=species:S:1:pos:R:3:forces:R:3 energy=-7.565344186012e+01 dipole="-1.2101675169e-03 1.8115934310e-03 -6.7565589199e-01" quadrupole="-4.3073650107e+00 -3.0298194373e-01 7.0003146030e-04 -3.0298194373e-01 -5.1615349051e+00 -4.0114566076e-03 7.0003146030e-04 -4.0114566076e-03 -3.5308159629e+00" polarizability="6.4764719109e+00 3.9974226058e-01 5.8346442064e-03 3.9974226058e-01 7.6035017963e+00 -4.8222971009e-03 5.8346442064e-03 -4.8222971009e-03 9.1348043459e+00" charge=0 multiplicity=2 method=wB97M-V basis=def2-svpd config_type=oh_radical sample_index=253 temperature=300.0 units=atomic
O         0.0001055889      -0.0001584850       0.1122077436  -4.709425991567e-05   7.043634827622e-05  -2.629656697954e-02
H        -0.0016954665       0.0025377874      -0.8933997347   4.708151465833e-05  -7.052960683879e-05   2.629768122041e-02
2
Properties=species:S:1:pos:R:3:forces:R:3 energy=-7.565388429819e+01 dipole="9.1186891109e-02 -1.3651096422e-01 -6.4133009952e-01" quadrupole="-4.1613634340e+00 3.4950497697e-02 -9.6013107557e-02 3.4950497697e-02 -5.1330492271e+00 3.4435763542e-01 -9.6013107557e-02 3.4435763542e-01 -3.6941197012e+00" polarizability="6.3044887545e+00 -1.3309956364e-01 -2.7893594050e-01 -1.3309956364e-01 7.6269532398e+00 1.5957717337e-01 -2.7893594050e-01 1.5957717337e-01 8.3919285105e+00" charge=0 multiplicity=2 method=wB97M-V basis=def2-svpd config_type=oh_radical sample_index=254 temperature=300.0 units=atomic
O        -0.0077224131       0.0115910529       0.1075497350  -2.670995329574e-03   3.995260434803e-03   1.878389688348e-02
H         0.1240006045      -0.1856050703      -0.8188758662   2.670004614519e-03  -3.998088323825e-03  -1.878169392913e-02
2
Properties=species:S:1:pos:R:3:forces:R:3 energy=-7.565404025078e+01 dipole="-3.5984340611e-02 5.3870438622e-02 -6.6816383171e-01" quadrupole="-4.5952944780e+00 5.0091700728e-01 1.0000283742e-01 5.0091700728e-01 -4.8301163910e+00 -1.3514394528e-01 1.0000283742e-01 -1.3514394528e-01 -3.5724611794e+00" polarizability="6.8492389120e+00 -6.7134715825e-01 5.7000229920e-02 -6.7134715825e-01 7.1695471993e+00 -1.0438242832e-01 5.7000229920e-02 -1.0438242832e-01 8.9011985185e+00" charge=0 multiplicity=2 method=wB97M-V basis=def2-svpd config_type=oh_radical sample_index=255 temperature=300.0 units=atomic
O         0.0031101764      -0.0046682582       0.1109991983  -7.069361163206e-04   1.059005141694e-03  -1.314089130244e-02
H        -0.0499408334       0.0747518283      -0.8740641187   7.078977976283e-04  -1.059996842038e-03   1.314053442729e-02
2
Properties=species:S:1:pos:R:3:forces:R:3 energy=-7.565417696828e+01 dipole="-6.7697344683e-02 1.0134712507e-01 -6.5811294987e-01" quadrupole="-4.2324565964e+00 -2.2790596901e-01 4.0353474691e-02 -2.2790596901e-01 -5.1556122321e+00 -2.3163965832e-01 4.0353474691e-02 -2.3163965832e-01 -3.6073053501e+00" polarizability="6.3935776112e+00 2.4370390169e-01 2.8648326134e-01 2.4370390169e-01 7.6421752326e+00 -2.0549184692e-01 2.8648326134e-01 -2.0549184692e-01 8.7526695652e+00" charge=0 multiplicity=2 method=wB97M-V basis=def2-svpd config_type=oh_radical sample_index=256 temperature=300.0 units=atomic
O         0.0058257713      -0.0087442645       0.1098794717  -6.844062201316e-04   1.024263050334e-03  -6.653232715966e-03
H        -0.0935457798       0.1400200516      -0.8561495179   6.850277579077e-04  -1.025143976284e-03   6.653365596413e-03
2
Properties=species:S:1:pos:R:3:forces:R:3 energy=-7.565352772458e+01 dipole="1.5947117328e-01 -2.3873700573e-01 -6.1109538563e-01" quadrupole="-4.1811490180e+00 -1.9249108911e-01 -1.1317822096e-01 -1.9249108911e-01 -5.0227670930e+00 5.6050238468e-01 -1.1317822096e-01 5.6050238468e-01 -3.7828202368e+00" polarizability="6.5223070940e+00 -6.6423872068e-02 -6.4928665444e-01 -6.6423872068e-02 7.8972168363e+00 4.5638799924e-01 -6.4928665444e-01 4.5638799924e-01 8.7620575580e+00" charge=0 multiplicity=2 method=wB97M-V basis=def2-svpd config_type=oh_radical sample_index=257 temperature=300.0 units=atomic
O        -0.0139001685       0.0208636324       0.1064989287   5.879384280185e-03  -8.805443128476e-03  -2.254194878504e-02
H         0.2231982765      -0.3340849182      -0.8020639287  -5.882598649343e-03   8.808307719207e-03   2.254571196416e-02
2
Properties=species:S:1:pos:R:3:forces:R:3 energy=-7.561014741847e+01 dipole="2.0504017568e-01 -3.0695814406e-01 -6.4352634867e-01" quadrupole="-5.0531666825e+00 1.1042565850e-01 -7.2566299907e-01 1.1042565850e-01 -4.2478389942e+00 6.5843132461e-01 -7.2566299907e-01 6.5843132461e-01 -3.5723369916e+00" polarizability="8.5652456404e+00 -1.1795225130e+00 -1.0932949386e+00 -1.1795225130e+00 8.2775768084e+00 2.2403572839e+00 -1.0932949386e+00 2.2403572839e+00 1.2345368443e+01" charge=0 multiplicity=2 method=wB97M-V basis=def2-svpd config_type=oh_radical sample_index=258 temperature=300.0 units=atomic
O        -0.0206345012       0.0309716134       0.1180345551   3.160858580091e-02  -4.732390781029e-02  -9.920983808588e-02
H         0.3313330400      -0.4959418740      -0.9866233786  -3.161093443008e-02   4.732522822019e-02   9.921368576826e-02
2
Properties=species:S:1:pos:R:3:forces:R:3 energy=-7.564064684178e+01 dipole="-1.9742634947e-01 2.9555906623e-01 -6.0897221055e-01" quadrupole="-4.6174282346e+00 -6.3122053583e-01 1.3565288601e-01 -6.3122053583e-01 -4.7192882653e+00 -5.0640008560e-01 1.3565288601e-01 -5.0640008560e-01 -3.6259292048e+00" polarizability="7.4792708048e+00 1.8660678594e-01 1.1889592421e+00 1.8660678594e-01 8.1835206213e+00 -1.3630444298e+00 1.1889592421e+00 -1.3630444298e+00 9.8202950141e+00" charge=0 multiplicity=2 method=wB97M-V basis=def2-svpd config_type=oh_radical sample_index=259 temperature=300.0 units=atomic
O         0.0183508862      -0.0275439929       0.1098487964  -2.411563696994e-02   3.610381476316e-02  -7.438745360206e-02
H        -0.2946644968       0.4410561132      -0.8556587421   2.411566094283e-02  -3.610462957493e-02   7.438937625701e-02
2
Properties=species:S:1:pos:R:3:forces:R:3 energy=-7.565213151699e+01 dipole="4.4071583274e-02 -6.5976120406e-02 -6.4963440558e-01" quadrupole="-4.8541217817e+00 4.7084020291e-01 -1.3431620324e-01 4.7084020291e-01 -4.4627930124e+00 1.2167640582e-01 -1.3431620324e-01 1.2167640582e-01 -3.6668706558e+00" polarizability="7.1162118625e+00 -6.1399196373e-01 -6.1913728395e-03 -6.1399196373e-01 6.6365308989e+00 1.0967614379e-01 -6.1913728395e-03 1.0967614379e-01 8.1149980799e+00" charge=0 multiplicity=2 method=wB97M-V basis=def2-svpd config_type=oh_radical sample_index=260 temperature=300.0 units=atomic
O        -0.0036702167       0.0055088578       0.1073374064  -3.449514295511e-03   5.165906474947e-03   5.085919521854e-02
H         0.0589335326      -0.0882121704      -0.8154788037   3.449819520615e-03  -5.164012648176e-03  -5.086026767315e-02
2
Properties=species:S:1:pos:R:3:forces:R:3 energy=-7.565404817854e+01 dipole="-9.1846677861e-02 1.3749921498e-01 -6.5052231875e-01" quadrupole="-4.1963036705e+00 -1.3477184975e-01 7.1651560009e-02 -1.3477184975e-01 -5.1604153109e+00 -3.3462485379e-01 7.1651560009e-02 -3.3462485379e-01 -3.6375884829e+00" polarizability="6.3837326021e+00 7.5362397502e-02 3.7236305664e-01 7.5362397502e-02 7.7295936477e+00 -2.5979289468e-01 3.7236305664e-01 -2.5979289468e-01 8.8007701818e+00" charge=0 multiplicity=2 method=wB97M-V basis=def2-svpd config_type=oh_radical sample_index=261 temperature=300.0 units=atomic
O         0.0079369505      -0.0119130654       0.1094582485  -1.763978083084e-03   2.650285283427e-03  -1.252634436294e-02
H        -0.1274454812       0.1907613886      -0.8494103337   1.768013638706e-03  -2.647029890718e-03   1.252378436022e-02
2
Properties=species:S:1:pos:R:3:forces:R:3 energy=-7.565420687645e+01 dipole="9.2640328439e-02 -1.3868772999e-01 -6.4488643292e-01" quadrupole="-4.1691750739e+00 -1.9091796755e-02 -8.9724941578e-02 -1.9091796755e-02 -5.1492869253e+00 3.4846443551e-01 -8.9724941578e-02 3.4846443551e-01 -3.6730620803e+00" polarizability="6.3306544752e+00 -7.1486952041e-02 -3.1902998951e-01 -7.1486952041e-02 7.6810405298e+00 1.9992180317e-01 -3.1902998951e-01 1.9992180317e-01 8.5696756143e+00" charge=0 multiplicity=2 method=wB97M-V basis=def2-svpd config_type=oh_radical sample_index=262 temperature=300.0 units=atomic
O        -0.0079165757       0.0118824836       0.1083484364  -5.824288265122e-04   8.703292126465e-04   4.047598260062e-03
H         0.1271183179      -0.1902716879      -0.8316543571   5.811414541855e-04  -8.705450386400e-04  -4.047748860737e-03
2
Properties=species:S:1:pos:R:3:forces:R:3 energy=-7.563283212713e+01 dipole="2.0557923186e-01 -3.0776416040e-01 -6.1309162926e-01" quadrupole="-4.5312336126e+00 -6.1160068610e-01 -1.5031660687e-01 -6.1160068610e-01 -4.8008915581e+00 6.1481849662e-01 -1.5031660687e-01 6.1481849662e-01 -3.6105544123e+00" polarizability="7.5158023226e+00 2.9067163165e-02 -1.3964467335e+00 2.9067163165e-02 8.5701087990e+00 1.5492033037e+00 -1.3964467335e+00 1.5492033037e+00 1.0390891805e+01" charge=0 multiplicity=2 method=wB97M-V basis=def2-svpd config_type=oh_radical sample_index=263 temperature=300.0 units=atomic
O        -0.0195638372       0.0293645869       0.1115950309   2.835455355274e-02  -4.245046551385e-02  -8.456401893704e-02
H         0.3141411368      -0.4702088995      -0.8835968943  -2.835457060478e-02   4.245052650968e-02   8.456448664171e-02
2
Properties=species:S:1:pos:R:3:forces:R:3 energy=-7.564689843114e+01 dipole="-1.2095986008e-02 1.8107932729e-02 -6.9392924974e-01" quadrupole="-4.2868083643e+00 -1.5289491283e-01 1.2477807799e-02 -1.5289491283e-01 -5.2935393584e+00 -4.8253634827e-02 1.2477807799e-02 -4.8253634827e-02 -3.4134118836e+00" polarizability="6.5219068092e+00 2.0515442623e-01 6.9105366272e-02 2.0515442623e-01 7.8896625754e+00 -6.3320327228e-02 6.9105366272e-02 -6.3320327228e-02 1.0176278492e+01" charge=0 multiplicity=2 method=wB97M-V basis=def2-svpd config_type=oh_radical sample_index=264 temperature=300.0 units=atomic
O         0.0010985783      -0.0016489249       0.1162920155  -1.203861939666e-03   1.801555004603e-03  -6.909113358579e-02
H        -0.0176401300       0.0264038840      -0.9587443427   1.203990164332e-03  -1.802800927764e-03   6.909175099865e-02
2
Properties=species:S:1:pos:R:3:forces:R:3 energy=-7.565246410626e+01 dipole="7.6151683581e-02 -1.1400276227e-01 -6.6603732296e-01" quadrupole="-4.3527273008e+00 -3.7008409127e-01 -4.1610508947e-02 -3.7008409127e-01 -5.0936583252e+00 2.4159716651e-01 -4.1610508947e-02 2.4159716651e-01 -3.5507540745e+00" polarizability="6.6036982307e+00 4.1448407005e-01 -3.8654385165e-01 4.1448407005e-01 7.6525298642e+00 3.4034353888e-01 -3.8654385165e-01 3.4034353888e-01 9.2615766341e+00" charge=0 multiplicity=2 method=wB97M-V basis=def2-svpd config_type=oh_radical sample_index=265 temperature=300.0 units=atomic
O        -0.0067074533       0.0100676361       0.1119163761   4.262860632422e-03  -6.386162508087e-03  -3.729283425473e-02
H         0.1077031549      -0.1612109209      -0.8887381227  -4.264304794761e-03   6.383756314605e-03   3.729358146961e-02
2
Properties=species:S:1:pos:R:3:forces:R:3 energy=-7.564261379142e+01 dipole="-3.8411468825e-02 5.7503044819e-02 -6.9855657382e-01" quadrupole="-4.3052511035e+00 -1.5383140387e-01 4.3344116220e-02 -1.5383140387e-01 -5.3070848990e+00 -1.5783887349e-01 4.3344116220e-02 -1.5783887349e-01 -3.3730436250e+00" polarizability="6.5970344386e+00 1.8568097157e-01 2.3877971369e-01 1.8568097157e-01 7.9896230521e+00 -2.3015648941e-01 2.3877971369e-01 -2.3015648941e-01 1.0629433983e+01" charge=0 multiplicity=2 method=wB97M-V basis=def2-svpd config_type=oh_radical sample_index=266 temperature=300.0 units=atomic
O         0.0035465038      -0.0053231694       0.1177697462  -4.470415346938e-03   6.694929182647e-03  -8.132167018628e-02
H        -0.0569470459       0.0852387817      -0.9823866797   4.470540144235e-03  -6.693830515093e-03   8.132024971941e-02
2
Properties=species:S:1:pos:R:3:forces:R:3 energy=-7.565379213690e+01 dipole="1.0011953101e-01 -1.4988426347e-01 -6.4890360387e-01" quadrupole="-4.1870035475e+00 -1.7014887766e-02 -1.0617372278e-01 -1.7014887766e-02 -5.1579147477e+00 3.8642021257e-01 -1.0617372278e-01 3.8642021257e-01 -3.6493657761e+00" polarizability="6.3933944450e+00 -1.0122181416e-01 -3.8224861858e-01 -1.0122181416e-01 7.7719739443e+00 2.7319546308e-01 -3.8224861858e-01 2.7319546308e-01 8.9003395698e+00" charge=0 multiplicity=2 method=wB97M-V basis=def2-svpd config_type=oh_radical sample_index=267 temperature=300.0 units=atomic
O        -0.0086945854       0.0130502471       0.1095960213   2.955999435335e-03  -4.429490738832e-03  -1.917172010923e-02
H         0.1396110040      -0.2089708379      -0.8516145712  -2.957562830562e-03   4.427732572815e-03   1.916919574929e-02
2
Properties=species:S:1:pos:R:3:forces:R:3 energy=-7.563908836611e+01 dipole="-1.8081608280e-01 2.7069263379e-01 -6.2812914982e-01" quadrupole="-4.9512777421e+00 -6.0124533543e-01 2.3412770156e-01 -6.0124533543e-01 -4.4714312855e+00 -3.5843314604e-01 2.3412770156e-01 -3.5843314604e-01 -3.5399008209e+00" polarizability="7.8876457546e+00 2.4382187315e-01 1.0084586275e+00 2.4382187315e-01 7.7110933377e+00 -1.4986770073e+00 1.0084586275e+00 -1.4986770073e+00 1.0089686980e+01" charge=0 multiplicity=2 method=wB97M-V basis=def2-svpd config_type=oh_radical sample_index=268 temperature=300.0 units=atomic
O         0.0168917567      -0.0253538942       0.1119312244  -2.279756678302e-02   3.412989733948e-02  -7.919784239909e-02
H        -0.2712349114       0.4059865273      -0.8889756809   2.279798188944e-02  -3.413108232637e-02   7.919976805926e-02
2
Properties=species:S:1:pos:R:3:forces:R:3 energy=-7.565269168267e+01 dipole="-1.4650083070e-01 2.1931962473e-01 -6.0091920278e-01" quadrupole="-4.3246992559e+00 3.1973414148e-01 3.0191387865e-01 3.1973414148e-01 -4.7536474010e+00 -5.1171930215e-01 3.0191387865e-01 -5.1171930215e-01 -3.8974225233e+00" polarizability="6.5790121101e+00 -6.1547716021e-01 1.7177429903e-01 -6.1547716021e-01 7.2974827993e+00 -1.8125454121e-01 1.7177429903e-01 -1.8125454121e-01 8.0971344036e+00" charge=0 multiplicity=2 method=wB97M-V basis=def2-svpd config_type=oh_radical sample_index=269 temperature=300.0 units=atomic
O         0.0122494229      -0.0183859250       0.1034678064   9.643259408470e-03  -1.443740608137e-02   3.956098213900e-02
H        -0.1966918651       0.2944099151      -0.7535687498  -9.644575516862e-03   1.443779339459e-02  -3.955714220390e-02
2
Properties=species:S:1:pos:R:3:forces:R:3 energy=-7.565374463504e+01 dipole="-3.4401780020e-02 5.1501309467e-02 -6.7095640725e-01" quadrupole="-4.6269042195e+00 5.0698396017e-01 9.8048665875e-02 5.0698396017e-01 -4.8152315788e+00 -1.2896098883e-01 9.8048665875e-02 -1.2896098883e-01 -3.5566089910e+00" polarizability="6.9002070025e+00 -6.8140743285e-01 5.7386331141e-02 -6.8140743285e-01 7.1600387448e+00 -1.0933255531e-01 5.7386331141e-02 -1.0933255531e-01 9.0282669420e+00" charge=0 multiplicity=2 method=wB97M-V basis=def2-svpd config_type=oh_radical sample_index=270 temperature=300.0 units=atomic
O         0.0029897044      -0.0044874344       0.1115605804  -1.066282008096e-03   1.596954357391e-03  -2.081499862635e-02
H        -0.0480063877       0.0718563348      -0.8830457176   1.067394175329e-03  -1.598024648470e-03   2.081394950225e-02
2
Properties=species:S:1:pos:R:3:forces:R:3 energy=-7.564625547869e+01 dipole="1.5082524017e-01 -2.2579303713e-01 -6.4033403866e-01" quadrupole="-5.1316555546e+00 -4.1897838842e-01 -2.7716177621e-01 -4.1897838842e-01 -4.2954784505e+00 2.4248621305e-01 -2.7716177621e-01 2.4248621305e-01 -3.5545349360e+00" polarizability="7.9146702047e+00 2.0888104393e-01 -6.2506119452e-01 2.0888104393e-01 7.0771977622e+00 1.1699848855e+00 -6.2506119452e-01 1.1699848855e+00 9.6959034483e+00" charge=0 multiplicity=2 method=wB97M-V basis=def2-svpd config_type=oh_radical sample_index=271 temperature=300.0 units=atomic
O        -0.0137353365       0.0206162256       0.1115645539   1.547382509016e-02  -2.316636222645e-02  -6.569460710092e-02
H         0.2205515287      -0.3301232455      -0.8831092902  -1.547445386410e-02   2.316633363103e-02   6.569675255991e-02
2
Properties=species:S:1:pos:R:3:forces:R:3 energy=-7.565210492099e+01 dipole="1.0367538848e-01 -1.5520697340e-01 -6.2719999429e-01" quadrupole="-4.3124226671e+00 3.4889252939e-01 -2.0786475235e-01 3.4889252939e-01 -4.8917512166e+00 3.8292209637e-01 -2.0786475235e-01 3.8292209637e-01 -3.7750125230e+00" polarizability="6.4866230933e+00 -5.4316844935e-01 -1.3608640600e-01 -5.4316844935e-01 7.3037773296e+00 1.1296398725e-01 -1.3608640600e-01 1.1296398725e-01 8.0726687461e+00" charge=0 multiplicity=2 method=wB97M-V basis=def2-svpd config_type=oh_radical sample_index=272 temperature=300.0 units=atomic
O        -0.0086324455       0.0129569774       0.1054533562  -8.177132248247e-03   1.223841001771e-02   4.945699051726e-02
H         0.1386132087      -0.2074773301      -0.7853357276   8.174911272542e-03  -1.223912307726e-02  -4.945667063537e-02
2
Properties=species:S:1:pos:R:3:forces:R:3 energy=-7.565415803383e+01 dipole="-2.8018952210e-03 4.1946502663e-03 -6.6965643562e-01" quadrupole="-4.7044993962e+00 5.2244010250e-01 8.3208167723e-03 5.2244010250e-01 -4.7278335567e+00 -9.8882812498e-03 8.3208167723e-03 -9.8882812498e-03 -3.5654709254e+00" polarizability="6.9751444412e+00 -6.8205701573e-01 3.4972724889e-03 -6.8205701573e-01 7.0056839508e+00 -8.5870645306e-03 3.4972724889e-03 -8.5870645306e-03 8.8320884317e+00" charge=0 multiplicity=2 method=wB97M-V basis=def2-svpd config_type=oh_radical sample_index=273 temperature=300.0 units=atomic
O         0.0002413190      -0.0003622107       0.1109234236  -3.332632844673e-05   4.988669907765e-05  -7.992097690933e-03
H        -0.0038749153       0.0058000034      -0.8728517925   3.350678707650e-05  -5.013094806940e-05   7.991514311439e-03
2
Properties=species:S:1:pos:R:3:forces:R:3 energy=-7.565234304356e+01 dipole="1.0474299097e-01 -1.5680521641e-01 -6.5379691427e-01" quadrupole="-4.2567702004e+00 1.8992064906e-01 -1.7788827294e-01 1.8992064906e-01 -5.1037917886e+00 4.3164687427e-01 -1.7788827294e-01 4.3164687427e-01 -3.6339929173e+00" polarizability="6.5243465170e+00 -3.9972454508e-01 -3.6292801757e-01 -3.9972454508e-01 7.7728047311e+00 3.2335643087e-01 -3.6292801757e-01 3.2335643087e-01 9.2523944084e+00" charge=0 multiplicity=2 method=wB97M-V basis=def2-svpd config_type=oh_radical sample_index=274 temperature=300.0 units=atomic
O        -0.0092346314       0.0138608358       0.1108904003   6.034408511323e-03  -9.038391273784e-03  -3.768553876501e-02
H         0.1482826486      -0.2219506230      -0.8723234497  -6.036287996722e-03   9.038587557011e-03   3.768462626486e-02
2
Properties=species:S:1:pos:R:3:forces:R:3 energy=-7.565422078916e+01 dipole="1.0040378506e-01 -1.5030903642e-01 -6.4285288168e-01" quadrupole="-4.1808522809e+00 7.1328744231e-02 -1.2204137344e-01 7.1328744231e-02 -5.1247802210e+00 3.8953769155e-01 -1.2204137344e-01 3.8953769155e-01 -3.6861737014e+00" polarizability="6.3633390182e+00 -2.0834142609e-01 -3.2240244692e-01 -2.0834142609e-01 7.6869035690e+00 2.1357507775e-01 -3.2240244692e-01 2.1357507775e-01 8.6391749960e+00" charge=0 multiplicity=2 method=wB97M-V basis=def2-svpd config_type=oh_radical sample_index=275 temperature=300.0 units=atomic
O        -0.0086116621       0.0129257823       0.1083773431   2.479108168535e-04  -3.787972138866e-04  -1.599024192068e-03
H         0.1382794842      -0.2069778086      -0.8321168370  -2.494279989232e-04   3.735653087710e-04   1.599087794747e-03
2
Properties=species:S:1:pos:R:3:forces:R:3 energy=-7.565317171551e+01 dipole="4.3804958888e-02 -6.5578330142e-02 -6.7242675096e-01" quadrupole="-4.5021604160e+00 4.5957795993e-01 -1.1310272519e-01 4.5957795993e-01 -4.9496935672e+00 1.7578707333e-01 -1.1310272519e-01 1.7578707333e-01 -3.5471154491e+00" polarizability="6.7553263272e+00 -6.3253901442e-01 -9.8000605456e-02 -6.3253901442e-01 7.3677032188e+00 1.3813610435e-01 -9.8000605456e-02 1.3813610435e-01 9.1867240716e+00" charge=0 multiplicity=2 method=wB97M-V basis=def2-svpd config_type=oh_radical sample_index=276 temperature=300.0 units=atomic
O        -0.0038336866       0.0057542199       0.1121010474   1.952511772978e-03  -2.922993133434e-03  -2.995898355633e-02
H         0.0615584070      -0.0921411029      -0.8916926943  -1.951604870461e-03   2.921804535223e-03   2.995712762859e-02
2
Properties=species:S:1:pos:R:3:forces:R:3 energy=-7.564768016112e+01 dipole="-1.4787651992e-01 2.2137961988e-01 -6.3947705329e-01" quadrupole="-5.1684523890e+00 -3.4883462174e-01 3.0028197349e-01 -3.4883462174e-01 -4.2437988998e+00 -2.2948212254e-01 3.0028197349e-01 -2.2948212254e-01 -3.5720779500e+00" polarizability="7.9318861536e+00 1.3604913200e-01 5.4462413323e-01 1.3604913200e-01 6.9587322312e+00 -1.1131686422e+00 5.4462413323e-01 -1.1131686422e+00 9.5720701471e+00" charge=0 multiplicity=2 method=wB97M-V basis=def2-svpd config_type=oh_radical sample_index=277 temperature=300.0 units=atomic
O         0.0133850614      -0.0200904758       0.1111313823  -1.413105072052e-02   2.115389457250e-02  -6.110290905089e-02
H        -0.2149270799       0.3217045267      -0.8761789416   1.413026916329e-02  -2.115449283608e-02   6.110512337347e-02
2
Properties=species:S:1:pos:R:3:forces:R:3 energy=-7.563520141284e+01 dipole="-4.3442557979e-02 6.5035672419e-02 -6.2655438945e-01" quadrupole="-4.9153231214e+00 3.8836665588e-01 1.2585855677e-01 3.8836665588e-01 -4.2630571190e+00 -8.7274673707e-02 1.2585855677e-01 -8.7274673707e-02 -3.7633022870e+00" polarizability="7.0888317830e+00 -4.7399962702e-01 -4.0943811602e-02 -4.7399962702e-01 6.3224248380e+00 -5.9046405097e-02 -4.0943811602e-02 -5.9046405097e-02 7.2046716547e+00" charge=0 multiplicity=2 method=wB97M-V basis=def2-svpd config_type=oh_radical sample_index=278 temperature=300.0 units=atomic
O         0.0034310733      -0.0051499125       0.1027055266   1.288898149776e-02  -1.929483928803e-02   1.858897054948e-01
H        -0.0550935509       0.0824644559      -0.7413729717  -1.288795314154e-02   1.929376605911e-02  -1.858908602441e-01
2
Properties=species:S:1:pos:R:3:forces:R:3 energy=-7.565364630745e+01 dipole="1.1794412500e-01 -1.7656808444e-01 -6.4016196035e-01" quadrupole="-5.0837092341e+00 2.3423531765e-01 -3.6255096016e-01 2.3423531765e-01 -4.2337627577e+00 2.5471358349e-01 -3.6255096016e-01 2.5471358349e-01 -3.6751072635e+00" polarizability="7.6105447462e+00 -4.8202202653e-01 -1.3647352131e-01 -4.8202202653e-01 6.6353276745e+00 5.8350241815e-01 -1.3647352131e-01 5.8350241815e-01 8.8867740274e+00" charge=0 multiplicity=2 method=wB97M-V basis=def2-svpd config_type=oh_radical sample_index=279 temperature=300.0 units=atomic
O        -0.0102645075       0.0154066413       0.1089540529   3.988380048149e-03  -5.977707567690e-03  -2.166285487668e-02
H         0.1648196113      -0.2467032775      -0.8413436658  -3.990220138533e-03   5.975313895672e-03   2.166149979224e-02
2
Properties=species:S:1:pos:R:3:forces:R:3 energy=-7.565403814374e+01 dipole="-1.0561738414e-01 1.5811272191e-01 -6.4382931640e-01" quadrupole="-4.2832647986e+00 2.7098613427e-01 1.9737710052e-01 2.7098613427e-01 -5.0178701014e+00 -4.2067614298e-01 1.9737710052e-01 -4.2067614298e-01 -3.6918467633e+00" polarizability="6.5198234193e+00 -4.8866957993e-01 2.7272461874e-01 -4.8866957993e-01 7.5925994286e+00 -2.4430533439e-01 2.7272461874e-01 -2.4430533439e-01 8.8090846629e+00" charge=0 multiplicity=2 method=wB97M-V basis=def2-svpd config_type=oh_radical sample_index=280 temperature=300.0 units=atomic
O         0.0091290726      -0.0137023960       0.1088914227  -2.085490841678e-03   3.130959269803e-03  -1.273002372564e-02
H        -0.1465876657       0.2194135594      -0.8403416401   2.087201362383e-03  -3.126307708455e-03   1.272973550308e-02
2
Properties=species:S:1:pos:R:3:forces:R:3 energy=-7.564630631786e+01 dipole="1.6256539568e-02 -2.4336699301e-02 -6.9481289160e-01" quadrupole="-4.3099066583e+00 -2.0812185578e-01 -1.5544689251e-02 -2.0812185578e-01 -5.2762890357e+00 6.3157003469e-02 -1.5544689251e-02 6.3157003469e-02 -3.4065403782e+00" polarizability="6.5595725683e+00 2.7859291355e-01 -9.6098481633e-02 2.7859291355e-01 7.8760511638e+00 8.9656278910e-02 -9.6098481633e-02 8.9656278910e-02 1.0244305720e+01" charge=0 multiplicity=2 method=wB97M-V basis=def2-svpd config_type=oh_radical sample_index=281 temperature=300.0 units=atomic
O        -0.0014801212       0.0022216065       0.1165296422   1.663699198765e-03  -2.489289562029e-03  -7.112521586952e-02
H         0.0237666543      -0.0355741132      -0.9625461517  -1.663672514456e-03   2.491081599758e-03   7.112577026127e-02
2
Properties=species:S:1:pos:R:3:forces:R:3 energy=-7.565325237944e+01 dipole="-2.0323844140e-02 3.0425130002e-02 -6.7565428058e-01" quadrupole="-4.2375293983e+00 1.5739905045e-01 3.0571982024e-02 1.5739905045e-01 -5.2324496432e+00 -8.4687385054e-02 3.0571982024e-02 -8.4687385054e-02 -3.5296766008e+00" polarizability="6.3910880493e+00 -2.1332494986e-01 7.4472309629e-02 -2.1332494986e-01 7.7104107342e+00 -6.0034642060e-02 7.4472309629e-02 -6.0034642060e-02 9.1811645907e+00" charge=0 multiplicity=2 method=wB97M-V basis=def2-svpd config_type=oh_radical sample_index=282 temperature=300.0 units=atomic
O         0.0017771397      -0.0026674202       0.1123341821  -8.732890273869e-04   1.306442948843e-03  -2.903384391768e-02
H        -0.0285359510       0.0427128336      -0.8954226347   8.731597721837e-04  -1.307753168750e-03   2.903402488930e-02
2
Properties=species:S:1:pos:R:3:forces:R:3 energy=-7.564219582851e+01 dipole="1.5909794996e-01 -2.3817901377e-01 -6.4162563253e-01" quadrupole="-5.0537745234e+00 -5.1947572403e-01 -2.4802727032e-01 -5.1947572403e-01 -4.3976605744e+00 2.8754398681e-01 -2.4802727032e-01 2.8754398681e-01 -3.5215046275e+00" polarizability="7.8975901768e+00 2.8044203222e-01 -8.0044793377e-01 2.8044203222e-01 7.3561068453e+00 1.3130137267e+00 -8.0044793377e-01 1.3130137267e+00 1.0019987712e+01" charge=0 multiplicity=2 method=wB97M-V basis=def2-svpd config_type=oh_radical sample_index=283 temperature=300.0 units=atomic
O        -0.0147109949       0.0220806524       0.1125819104   1.872943973805e-02  -2.803557826048e-02  -7.552461971650e-02
H         0.2362179059      -0.3535728008      -0.8993860607  -1.872844536947e-02   2.803704531965e-02   7.552864840078e-02
2
Properties=species:S:1:pos:R:3:forces:R:3 energy=-7.565343278918e+01 dipole="1.3114377826e-01 -1.9632912953e-01 -6.3311962076e-01" quadrupole="-5.1258853872e+00 1.3463584024e-01 -3.8718812483e-01 1.3463584024e-01 -4.1765812026e+00 2.5059031540e-01 -3.8718812483e-01 2.5059031540e-01 -3.6886867689e+00" polarizability="7.7022832125e+00 -3.9560065729e-01 -1.7460323900e-01 -3.9560065729e-01 6.6303203492e+00 6.9550226578e-01 -1.7460323900e-01 6.9550226578e-01 8.8855956112e+00" charge=0 multiplicity=2 method=wB97M-V basis=def2-svpd config_type=oh_radical sample_index=284 temperature=300.0 units=atomic
O        -0.0114442908       0.0171774519       0.1084895299   5.129263006341e-03  -7.684301826315e-03  -2.477351999421e-02
H         0.1837636702      -0.2750588924      -0.8339117241  -5.131071200955e-03   7.682907424358e-03   2.477420928237e-02
2
Properties=species:S:1:pos:R:3:forces:R:3 energy=-7.565353019271e+01 dipole="9.4742318529e-02 -1.4183351269e-01 -6.5326194716e-01" quadrupole="-4.2128052968e+00 -1.6247298867e-01 -7.3382736231e-02 -1.6247298867e-01 -5.1629792584e+00 3.4535945068e-01 -7.3382736231e-02 3.4535945068e-01 -3.6194358561e+00" polarizability="6.4255590429e+00 1.0118922618e-01 -4.1116005370e-01 1.0118922618e-01 7.7718576013e+00 3.0501498680e-01 -4.1116005370e-01 3.0501498680e-01 8.9832245067e+00" charge=0 multiplicity=2 method=wB97M-V basis=def2-svpd config_type=oh_radical sample_index=285 temperature=300.0 units=atomic
O        -0.0082579157       0.0123948222       0.1101852699   3.485310587494e-03  -5.228894003393e-03  -2.406468644351e-02
H         0.1325992952      -0.1984756575      -0.8610420096  -3.489522788401e-03   5.224356426917e-03   2.406284448160e-02
2
Properties=species:S:1:pos:R:3:forces:R:3 energy=-7.565421693546e+01 dipole="1.3451880744e-01 -2.0138400676e-01 -6.2100745563e-01" quadrupole="-4.8698171582e+00 3.4925143576e-01 -4.0759263396e-01 3.4925143576e-01 -4.3346861171e+00 3.4269072485e-01 -4.0759263396e-01 3.4269072485e-01 -3.7824224183e+00" polarizability="7.3131316268e+00 -6.5730565280e-01 -8.3011350471e-02 -6.5730565280e-01 6.7879358999e+00 4.7130867010e-01 -8.3011350471e-02 4.7130867010e-01 8.5095414840e+00" charge=0 multiplicity=2 method=wB97M-V basis=def2-svpd config_type=oh_radical sample_index=286 temperature=300.0 units=atomic
O        -0.0115069129       0.0172714453       0.1063541250  -5.184338582003e-04   7.751491504628e-04   2.402411161859e-03
H         0.1847692073      -0.2765639881      -0.7997472022   5.203985576650e-04  -7.781956150212e-04  -2.398450219715e-03
2
Properties=species:S:1:pos:R:3:forces:R:3 energy=-7.564447791305e+01 dipole="-9.1040443442e-02 1.3629291129e-01 -6.7930140059e-01" quadrupole="-5.2857949412e+00 -1.5451878188e-01 2.3404993959e-01 -1.5451878188e-01 -4.2541813796e+00 -1.6906412371e-01 2.3404993959e-01 -1.6906412371e-01 -3.4457514727e+00" polarizability="7.9940947405e+00 7.4953313833e-02 3.4535230189e-01 7.4953313833e-02 6.6992286190e+00 -7.6434254561e-01 3.4535230189e-01 -7.6434254561e-01 1.0259103568e+01" charge=0 multiplicity=2 method=wB97M-V basis=def2-svpd config_type=oh_radical sample_index=287 temperature=300.0 units=atomic
O         0.0083490407      -0.0125315974       0.1155605843  -1.001112626964e-02   1.498614138462e-02  -7.469380568048e-02
H        -0.1340625108       0.2006658100      -0.9470421132   1.000972990312e-02  -1.498652654777e-02   7.469460420476e-02
2
Properties=species:S:1:pos:R:3:forces:R:3 energy=-7.565373831885e+01 dipole="-2.4853054165e-02 3.7207045217e-02 -6.5947443735e-01" quadrupole="-5.0316993119e+00 3.8693487571e-01 7.7830459233e-02 3.8693487571e-01 -4.3410653634e+00 -5.9440909790e-02 7.7830459233e-02 -5.9440909790e-02 -3.6187186036e+00" polarizability="7.3640443292e+00 -5.0289533540e-01 1.1369210247e-02 -5.0289533540e-01 6.4833115977e+00 -9.0235878001e-02 1.1369210247e-02 -9.0235878001e-02 8.4131287827e+00" charge=0 multiplicity=2 method=wB97M-V basis=def2-svpd config_type=oh_radical sample_index=288 temperature=300.0 units=atomic
O         0.0021000536      -0.0031521018       0.1089657946   8.784805995197e-04  -1.314950693188e-03   2.333056324963e-02
H        -0.0337210548       0.0504739373      -0.8415315227  -8.785750233786e-04   1.315469922169e-03  -2.332741905239e-02
2
Properties=species:S:1:pos:R:3:forces:R:3 energy=-7.565197444647e+01 dipole="9.9858445886e-03 -1.4950329557e-02 -6.5376002895e-01" quadrupole="-5.0737732143e+00 3.2385200190e-01 -3.0196073156e-02 3.2385200190e-01 -4.2618138741e+00 2.0491847275e-02 -3.0196073156e-02 2.0491847275e-02 -3.6485492463e+00" polarizability="7.3801260876e+00 -4.1012469040e-01 -1.7212825523e-03 -4.1012469040e-01 6.3550086323e+00 3.3796071360e-02 -1.7212825523e-03 3.3796071360e-02 8.1060047247e+00" charge=0 multiplicity=2 method=wB97M-V basis=def2-svpd config_type=oh_radical sample_index=289 temperature=300.0 units=atomic
O        -0.0008307983       0.0012469972       0.1076265852  -8.135722984920e-04   1.218062870739e-03   5.330918179192e-02
H         0.0133403244      -0.0199679014      -0.8201053994   8.138971253220e-04  -1.218765263420e-03  -5.330871403467e-02
2
Properties=species:S:1:pos:R:3:forces:R:3 energy=-7.565399927755e+01 dipole="1.6489031321e-01 -2.4684959135e-01 -6.0256977370e-01" quadrupole="-4.1560470430e+00 -1.3977215628e-02 -1.7949392644e-01 -1.3977215628e-02 -4.9755552189e+00 6.0910293600e-01 -1.7949392644e-01 6.0910293600e-01 -3.8531524570e+00" polarizability="6.4840776232e+00 -3.0963100898e-01 -5.4360383905e-01 -3.0963100898e-01 7.8296752682e+00 3.6771898810e-01 -5.4360383905e-01 3.6771898810e-01 8.6347033414e+00" charge=0 multiplicity=2 method=wB97M-V basis=def2-svpd config_type=oh_radical sample_index=290 temperature=300.0 units=atomic
O        -0.0142650530       0.0214113103       0.1053590348   3.567612852166e-03  -5.346148484804e-03  -1.304266285912e-02
H         0.2290573127      -0.3428547692      -0.7838266703  -3.569053929859e-03   5.344866511938e-03   1.304612138112e-02
2
Properties=species:S:1:pos:R:3:forces:R:3 energy=-7.565368327732e+01 dipole="-1.8542487473e-02 2.7759081082e-02 -6.7339404061e-01" quadrupole="-4.4329675081e+00 4.2974196951e-01 4.4194609058e-02 4.2974196951e-01 -5.0226761192e+00 -7.5775639569e-02 4.4194609058e-02 -7.5775639569e-02 -3.5436122792e+00" polarizability="6.6397107944e+00 -5.6986709824e-01 4.3170608993e-02 -5.6986709824e-01 7.4194027157e+00 -5.1967558718e-02 4.3170608993e-02 -5.1967558718e-02 9.0573649582e+00" charge=0 multiplicity=2 method=wB97M-V basis=def2-svpd config_type=oh_radical sample_index=291 temperature=300.0 units=atomic
O         0.0016129002      -0.0024209027       0.1118258873  -6.086585795301e-04   9.097311980278e-04  -2.210027027992e-02
H        -0.0258987172       0.0387654015      -0.8872903844   6.086755980589e-04  -9.112881092355e-04   2.209839004445e-02
2
Properties=species:S:1:pos:R:3:forces:R:3 energy=-7.565115009103e+01 dipole="-1.3510349491e-02 2.0226470848e-02 -6.5141058661e-01" quadrupole="-5.0170264383e+00 3.7674842629e-01 4.1247704706e-02 3.7674842629e-01 -4.3045076299e+00 -2.9921200269e-02 4.1247704706e-02 -2.9921200269e-02 -3.6597297117e+00" polarizability="7.2987861102e+00 -4.7529937920e-01 8.6333587249e-05 -4.7529937920e-01 6.4044217448e+00 -4.0137060264e-02 8.6333587249e-05 -4.0137060264e-02 8.0133236608e+00" charge=0 multiplicity=2 method=wB97M-V basis=def2-svpd config_type=oh_radical sample_index=292 temperature=300.0 units=atomic
O         0.0011186251      -0.0016790143       0.1071696027   1.314361322340e-03  -1.967955096052e-03   6.341464710494e-02
H        -0.0179620256       0.0268856998      -0.8127940978  -1.314816695455e-03   1.968562612900e-03  -6.341662880918e-02
2
Properties=species:S:1:pos:R:3:forces:R:3 energy=-7.565051059000e+01 dipole="-1.0421791735e-01 1.5601983652e-01 -6.5991699934e-01" quadrupole="-4.4245077808e+00 -4.4255431392e-01 5.7993418605e-02 -4.4255431392e-01 -5.0189316397e+00 -3.1405335686e-01 5.7993418605e-02 -3.1405335686e-01 -3.5499395003e+00" polarizability="6.7754804183e+00 4.3830763752e-01 5.6529825541e-01 4.3830763752e-01 7.7016435438e+00 -5.4139825541e-01 5.6529825541e-01 -5.4139825541e-01 9.4815568012e+00" charge=0 multiplicity=2 method=wB97M-V basis=def2-svpd config_type=oh_radical sample_index=293 temperature=300.0 units=atomic
O         0.0093004229      -0.0139595864       0.1121437030  -7.993028254260e-03   1.196877491234e-02  -5.062320997262e-02
H        -0.1493390779       0.2235318946      -0.8923751440   7.993735647065e-03  -1.196879826968e-02   5.062364449010e-02
2
Properties=species:S:1:pos:R:3:forces:R:3 energy=-7.564702764318e+01 dipole="-1.2158157253e-01 1.8201487093e-01 -6.5859188047e-01" quadrupole="-5.2403806531e+00 -2.0722493873e-01 2.9350485304e-01 -2.0722493873e-01 -4.2217277514e+00 -2.0529096254e-01 2.9350485304e-01 -2.0529096254e-01 -3.5247949592e+00" polarizability="7.9665879877e+00 5.0517873358e-02 4.1953713662e-01 5.0517873358e-02 6.7760994256e+00 -9.4551110059e-01 4.1953713662e-01 -9.4551110059e-01 9.8247846202e+00" charge=0 multiplicity=2 method=wB97M-V basis=def2-svpd config_type=oh_radical sample_index=294 temperature=300.0 units=atomic
O         0.0110364154      -0.0165652462       0.1130384962  -1.202541823112e-02   1.800689840382e-02  -6.515518370792e-02
H        -0.1772143191       0.2652557727      -0.9066910154   1.202693962930e-02  -1.800743033443e-02   6.515362265796e-02
2
Properties=species:S:1:pos:R:3:forces:R:3 energy=-7.564850854539e+01 dipole="-1.8102942448e-01 2.7101084035e-01 -6.0920455492e-01" quadrupole="-4.5800561891e+00 -5.9595715374e-01 9.8331437253e-02 -5.9595715374e-01 -4.7398697061e+00 -4.3801086000e-01 9.8331437253e-02 -4.3801086000e-01 -3.6598672212e+00" polarizability="7.2325611652e+00 3.1058977769e-01 9.5395358780e-01 3.1058977769e-01 7.8582384309e+00 -1.0352326782e+00 9.5395358780e-01 -1.0352326782e+00 9.2338495135e+00" charge=0 multiplicity=2 method=wB97M-V basis=def2-svpd config_type=oh_radical sample_index=295 temperature=300.0 units=atomic
O         0.0163235843      -0.0245010887       0.1081715862  -1.644354009460e-02   2.461869764899e-02  -5.533916823259e-02
H        -0.2621116339       0.3923307345      -0.8288249162   1.644412935365e-02  -2.461943952451e-02   5.534168036580e-02
2
Properties=species:S:1:pos:R:3:forces:R:3 energy=-7.564596409363e+01 dipole="4.7946735176e-03 -7.1782471130e-03 -6.4267374534e-01" quadrupole="-4.9950800987e+00 3.6972319756e-01 -1.4277976006e-02 3.6972319756e-01 -4.2718839327e+00 9.8713488367e-03 -1.4277976006e-02 9.8713488367e-03 -3.6997236659e+00" polarizability="7.2280890275e+00 -4.5448273941e-01 2.0151420056e-03 -4.5448273941e-01 6.3396055460e+00 1.1118820885e-02 2.0151420056e-03 1.1118820885e-02 7.6384015864e+00" charge=0 multiplicity=2 method=wB97M-V basis=def2-svpd config_type=oh_radical sample_index=296 temperature=300.0 units=atomic
O        -0.0003888364       0.0005836289       0.1053469233  -8.365749387249e-04   1.252804181969e-03   1.122396969577e-01
H         0.0062436381      -0.0093455262      -0.7836328978   8.371978908880e-04  -1.253428365033e-03  -1.122385960112e-01
2
Properties=species:S:1:pos:R:3:forces:R:3 energy=-7.565380451176e+01 dipole="8.0426345785e-02 -1.2040317275e-01 -6.5762973379e-01" quadrupole="-4.2480924754e+00 -2.4816603657e-01 -4.9134626064e-02 -2.4816603657e-01 -5.1472289412e+00 2.7580789749e-01 -4.9134626064e-02 2.7580789749e-01 -3.6007120157e+00" polarizability="6.4440635773e+00 2.4647621842e-01 -3.5988173102e-01 2.4647621842e-01 7.6916990344e+00 2.7292867708e-01 -3.5988173102e-01 2.7292867708e-01 8.9238081820e+00" charge=0 multiplicity=2 method=wB97M-V basis=def2-svpd config_type=oh_radical sample_index=297 temperature=300.0 units=atomic
O        -0.0069830173       0.0104812474       0.1103450544   2.342331345414e-03  -3.508273066916e-03  -1.916354257297e-02
H         0.1121279508      -0.1678339898      -0.8635984148  -2.343806571549e-03   3.508643410847e-03   1.916211879025e-02
2
Properties=species:S:1:pos:R:3:forces:R:3 energy=-7.565260590541e+01 dipole="-1.3279789309e-01 1.9880499094e-01 -6.1083748669e-01" quadrupole="-4.4587972486e+00 3.9515997267e-01 3.2238046721e-01 3.9515997267e-01 -4.6659540325e+00 -4.4335881519e-01 3.2238046721e-01 -4.4335881519e-01 -3.8527291537e+00" polarizability="6.7229935608e+00 -6.7283185777e-01 1.0039515714e-01 -6.7283185777e-01 7.1279364651e+00 -2.0009795800e-01 1.0039515714e-01 -2.0009795800e-01 8.1051881053e+00" charge=0 multiplicity=2 method=wB97M-V basis=def2-svpd config_type=oh_radical sample_index=298 temperature=300.0 units=atomic
O         0.0110963188      -0.0166551589       0.1042662093   9.011837857091e-03  -1.348693878148e-02   4.144442956882e-02
H        -0.1781762012       0.2666955253      -0.7663424649  -9.010274121803e-03   1.348808692001e-02  -4.144114880656e-02
2
Properties=species:S:1:pos:R:3:forces:R:3 energy=-7.564255490164e+01 dipole="-1.8156460112e-01 2.7181316877e-01 -6.2133202921e-01" quadrupole="-4.8456299641e+00 -6.2285774714e-01 1.8556413057e-01 -6.2285774714e-01 -4.5484226985e+00 -3.7359073541e-01 1.8556413057e-01 -3.7359073541e-01 -3.5756453921e+00" polarizability="7.6940148190e+00 2.9439954370e-01 9.9779550917e-01 2.9439954370e-01 7.7500325339e+00 -1.3624557943e+00 9.9779550917e-01 -1.3624557943e+00 9.7802041808e+00" charge=0 multiplicity=2 method=wB97M-V basis=def2-svpd config_type=oh_radical sample_index=299 temperature=300.0 units=atomic
O         0.0167674163      -0.0251672639       0.1106269367  -2.116819290669e-02   3.169082269641e-02  -7.244352518604e-02
H        -0.2692383484       0.4029980562      -0.8681082741   2.116951880464e-02  -3.169342943029e-02   7.244644811622e-02
2
Properties=species:S:1:pos:R:3:forces:R:3 energy=-7.565400121289e+01 dipole="-1.4597582052e-01 2.1853394010e-01 -6.0869321553e-01" quadrupole="-4.4007009367e+00 3.5016674587e-01 3.3460535608e-01 3.5016674587e-01 -4.7162647116e+00 -5.0992048982e-01 3.3460535608e-01 -5.0992048982e-01 -3.8656353360e+00" polarizability="6.7095038658e+00 -6.8023612696e-01 1.8802256877e-01 -6.8023612696e-01 7.3059711699e+00 -2.6982170064e-01 1.8802256877e-01 -2.6982170064e-01 8.3699162942e+00" charge=0 multiplicity=2 method=wB97M-V basis=def2-svpd config_type=oh_radical sample_index=300 temperature=300.0 units=atomic
O         0.0123896166      -0.0185963504       0.1048901937   3.426475732842e-03  -5.127739382044e-03   1.429027252990e-02
H        -0.1989429879       0.2977794134      -0.7763256431  -3.427286860096e-03   5.129480979090e-03  -1.428691474005e-02
2
Properties=species:S:1:pos:R:3:forces:R:3 energy=-7.563784296509e+01 dipole="-2.6406082632e-02 3.9531057635e-02 -7.0769485376e-01" quadrupole="-4.3287014501e+00 -1.5380390163e-01 3.2338593967e-02 -1.5380390163e-01 -5.3359879775e+00 -1.1179052146e-01 3.2338593967e-02 -1.1179052146e-01 -3.3107320577e+00" polarizability="6.6576766703e+00 1.9955791910e-01 1.7878321931e-01 1.9955791910e-01 8.0581627385e+00 -1.8017050474e-01 1.7878321931e-01 -1.8017050474e-01 1.1133538561e+01" charge=0 multiplicity=2 method=wB97M-V basis=def2-svpd config_type=oh_radical sample_index=301 temperature=300.0 units=atomic
O         0.0024764230      -0.0037170182       0.1196477323  -3.403501254608e-03   5.095157665487e-03  -9.122265111667e-02
H        -0.0397645067       0.0595198232      -1.0124327360   3.402726024872e-03  -5.095165131601e-03   9.122366672335e-02
2
Properties=species:S:1:pos:R:3:forces:R:3 energy=-7.565166561385e+01 dipole="3.3548672941e-02 -5.0224140339e-02 -6.8005712307e-01" quadrupole="-4.4446031905e+00 4.1872019063e-01 -8.1535045933e-02 4.1872019063e-01 -5.0523440895e+00 1.4129229835e-01 -8.1535045933e-02 1.4129229835e-01 -3.5021107801e+00" polarizability="6.6953124024e+00 -5.7437123826e-01 -9.6563499220e-02 -5.7437123826e-01 7.5193453124e+00 1.1887648726e-01 -9.6563499220e-02 1.1887648726e-01 9.4991275187e+00" charge=0 multiplicity=2 method=wB97M-V basis=def2-svpd config_type=oh_radical sample_index=302 temperature=300.0 units=atomic
O        -0.0029724491       0.0044615348       0.1135112235   2.206035707404e-03  -3.300959493685e-03  -4.471761012961e-02
H         0.0477293151      -0.0714416105      -0.9142542187  -2.205926598765e-03   3.302670848484e-03   4.471821381668e-02
2
Properties=species:S:1:pos:R:3:forces:R:3 energy=-7.565168998150e+01 dipole="2.5717513069e-02 -3.8499972504e-02 -6.8108521183e-01" quadrupole="-4.3841589689e+00 3.6894767678e-01 -5.7287807079e-02 3.6894767678e-01 -5.1186194157e+00 1.0998025647e-01 -5.7287807079e-02 1.0998025647e-01 -3.4965179896e+00" polarizability="6.6100848862e+00 -5.0148693894e-01 -8.1094638478e-02 -5.0148693894e-01 7.5978017376e+00 8.9064797358e-02 -8.1094638478e-02 8.9064797358e-02 9.5003354617e+00" charge=0 multiplicity=2 method=wB97M-V basis=def2-svpd config_type=oh_radical sample_index=303 temperature=300.0 units=atomic
O        -0.0022782073       0.0034195038       0.1135925125   1.683862806162e-03  -2.520203770215e-03  -4.460257616064e-02
H         0.0365817099      -0.0547557882      -0.9155547681  -1.683915896654e-03   2.521574238803e-03   4.460486446325e-02
2
Properties=species:S:1:pos:R:3:forces:R:3 energy=-7.565057715553e+01 dipole="-1.6125003138e-01 2.4139968975e-01 -6.2142943201e-01" quadrupole="-4.8453930605e+00 -5.8346379055e-01 1.5046090662e-01 -5.8346379055e-01 -4.5214826129e+00 -2.8725306251e-01 1.5046090662e-01 -2.8725306251e-01 -3.6188620370e+00" polarizability="7.4833643229e+00 4.1132010046e-01 7.3204636045e-01 4.1132010046e-01 7.3566350351e+00 -1.0126528023e+00 7.3204636045e-01 -1.0126528023e+00 9.1054192780e+00" charge=0 multiplicity=2 method=wB97M-V basis=def2-svpd config_type=oh_radical sample_index=304 temperature=300.0 units=atomic
O         0.0143844401      -0.0215905058       0.1086758959  -1.227837162230e-02   1.838112369513e-02  -4.731913328799e-02
H        -0.2309743389       0.3457241889      -0.8368934085   1.227951709934e-02  -1.838341080922e-02   4.732345412622e-02
2
Properties=species:S:1:pos:R:3:forces:R:3 energy=-7.565421764806e+01 dipole="3.2618036527e-02 -4.8831754981e-02 -6.6541944320e-01" quadrupole="-4.7532973076e+00 5.1364066279e-01 -9.8775423572e-02 5.1364066279e-01 -4.6555491307e+00 1.0943264101e-01 -9.8775423572e-02 1.0943264101e-01 -3.5875800476e+00" polarizability="7.0398383307e+00 -6.8059102391e-01 -3.3900992776e-02 -6.8059102391e-01 6.9227928467e+00 1.0075434171e-01 -3.3900992776e-02 1.0075434171e-01 8.7412786834e+00" charge=0 multiplicity=2 method=wB97M-V basis=def2-svpd config_type=oh_radical sample_index=305 temperature=300.0 units=atomic
O        -0.0027990599       0.0042012841       0.1103475745   1.187323574502e-04  -1.768563834737e-04  -2.412041384333e-03
H         0.0449451633      -0.0672742704      -0.8636387341  -1.187146324095e-04   1.775245708175e-04   2.412761401846e-03
2
Properties=species:S:1:pos:R:3:forces:R:3 energy=-7.565230449364e+01 dipole="-2.4661772229e-02 3.6921321752e-02 -6.5347693092e-01" quadrupole="-5.1113942519e+00 2.6896846952e-01 7.3112335999e-02 2.6896846952e-01 -4.2254572598e+00 -4.6787418142e-02 7.3112335999e-02 -4.6787418142e-02 -3.6482420544e+00" polarizability="7.4357739647e+00 -3.4642027286e-01 7.3593328634e-03 -3.4642027286e-01 6.3187366629e+00 -9.0355705950e-02 7.3593328634e-03 -9.0355705950e-02 8.1439729932e+00" charge=0 multiplicity=2 method=wB97M-V basis=def2-svpd config_type=oh_radical sample_index=306 temperature=300.0 units=atomic
O         0.0020562418      -0.0030863419       0.1077222900   1.839497882587e-03  -2.753056700517e-03   4.875143371766e-02
H        -0.0330175578       0.0494209375      -0.8216365891  -1.839142480062e-03   2.753783437366e-03  -4.875108028585e-02
2
Properties=species:S:1:pos:R:3:forces:R:3 energy=-7.565173861250e+01 dipole="-3.3311091256e-02 4.9869592395e-02 -6.5059767391e-01" quadrupole="-5.1132222411e+00 2.5038935257e-01 9.7451016129e-02 2.5038935257e-01 -4.2091524018e+00 -6.0663985794e-02 9.7451016129e-02 -6.0663985794e-02 -3.6604198449e+00" polarizability="7.4329822846e+00 -3.2624999293e-01 8.0502775752e-03 -3.2624999293e-01 6.3010152127e+00 -1.1955037335e-01 8.0502775752e-03 -1.1955037335e-01 8.0690154174e+00" charge=0 multiplicity=2 method=wB97M-V basis=def2-svpd config_type=oh_radical sample_index=307 temperature=300.0 units=atomic
O         0.0027672755      -0.0041535768       0.1072834115   2.873675804006e-03  -4.300971812393e-03   5.611991454804e-02
H        -0.0444347931       0.0665103443      -0.8146149353  -2.872623434230e-03   4.300973281266e-03  -5.612086647803e-02
2
Properties=species:S:1:pos:R:3:forces:R:3 energy=-7.562623386915e+01 dipole="-2.6781938714e-01 4.0093926306e-01 -5.4053989544e-01" quadrupole="-5.0814136275e+00 -4.2727993944e-01 6.6914940311e-01 -4.2727993944e-01 -3.9765494271e+00 -4.4480651462e-01 6.6914940311e-01 -4.4480651462e-01 -3.8503187468e+00" polarizability="8.7893881290e+00 -9.0256503310e-01 1.0491866731e+00 -9.0256503310e-01 8.4886483544e+00 -2.3487859648e+00 1.0491866731e+00 -2.3487859648e+00 9.9961356222e+00" charge=0 multiplicity=2 method=wB97M-V basis=def2-svpd config_type=oh_radical sample_index=308 temperature=300.0 units=atomic
O         0.0259377607      -0.0389316073       0.1055804728  -3.905285400584e-02   5.846334150647e-02  -7.881879072156e-02
H        -0.4164887249       0.6234035663      -0.7873694764   3.905344503929e-02  -5.846637673445e-02   7.882094118214e-02
2
Properties=species:S:1:pos:R:3:forces:R:3 energy=-7.564438919543e+01 dipole="5.5530738891e-02 -8.3132231407e-02 -6.9176555945e-01" quadrupole="-5.2422509668e+00 -2.9069229438e-01 -1.2031857905e-01 -2.9069229438e-01 -4.3446604101e+00 1.0119248239e-01 -1.2031857905e-01 1.0119248239e-01 -3.4011264466e+00" polarizability="7.8786823975e+00 3.4604365383e-01 -2.4949028015e-01 3.4604365383e-01 6.6958008271e+00 4.8117057405e-01 -2.4949028015e-01 4.8117057405e-01 1.0390759787e+01" charge=0 multiplicity=2 method=wB97M-V basis=def2-svpd config_type=oh_radical sample_index=309 temperature=300.0 units=atomic
O        -0.0050942290       0.0076462470       0.1167288541   6.123816956201e-03  -9.170834011798e-03  -7.629854475783e-02
H         0.0817992342      -0.1224377307      -0.9657333601  -6.124318063961e-03   9.169253322107e-03   7.629659880348e-02
2
Properties=species:S:1:pos:R:3:forces:R:3 energy=-7.563533137347e+01 dipole="2.0556135886e-01 -3.0773690835e-01 -6.0921376451e-01" quadrupole="-4.5580592451e+00 -6.2420195578e-01 -1.4497372058e-01 -6.2420195578e-01 -4.7686826130e+00 5.8472327081e-01 -1.4497372058e-01 5.8472327081e-01 -3.6221452583e+00" polarizability="7.5165690177e+00 6.9369256307e-02 -1.3442217556e+00 6.9369256307e-02 8.4670762217e+00 1.5031870384e+00 -1.3442217556e+00 1.5031870384e+00 1.0183630454e+01" charge=0 multiplicity=2 method=wB97M-V basis=def2-svpd config_type=oh_radical sample_index=310 temperature=300.0 units=atomic
O        -0.0194233905       0.0291537817       0.1108121679   2.751065262032e-02  -4.118748541583e-02  -8.153532015115e-02
H         0.3118859510      -0.4668333199      -0.8710718024  -2.751093097932e-02   4.118715070934e-02   8.153591581792e-02
2
Properties=species:S:1:pos:R:3:forces:R:3 energy=-7.564650496218e+01 dipole="1.0517396888e-01 -1.5745070393e-01 -6.6875649762e-01" quadrupole="-5.0984479601e+00 -4.4433619077e-01 -1.7287578462e-01 -4.4433619077e-01 -4.4122473008e+00 1.8392854417e-01 -1.7287578462e-01 1.8392854417e-01 -3.4772006079e+00" polarizability="7.7424455184e+00 4.2902573659e-01 -4.9162565709e-01 4.2902573659e-01 6.9551316600e+00 8.3760671216e-01 -4.9162565709e-01 8.3760671216e-01 9.9516972254e+00" charge=0 multiplicity=2 method=wB97M-V basis=def2-svpd config_type=oh_radical sample_index=311 temperature=300.0 units=atomic
O        -0.0095681124       0.0143613784       0.1140989477   1.066668245773e-02  -1.597412187831e-02  -6.784558395450e-02
H         0.1536374324      -0.2299657051      -0.9236572672  -1.066859093673e-02   1.597349892962e-02   6.784428509008e-02
2
Properties=species:S:1:pos:R:3:forces:R:3 energy=-7.564572886422e+01 dipole="-9.1491743498e-02 1.3696819811e-01 -6.2093509673e-01" quadrupole="-4.3647914623e+00 4.1227110983e-01 1.9860388225e-01 4.1227110983e-01 -4.7968107976e+00 -3.1718171672e-01 1.9860388225e-01 -3.1718171672e-01 -3.8001901512e+00" polarizability="6.4961764924e+00 -5.7139131838e-01 4.0403761369e-02 -5.7139131838e-01 7.0806625052e+00 -3.6054676355e-02 4.0403761369e-02 -3.6054676355e-02 7.6118590607e+00" charge=0 multiplicity=2 method=wB97M-V basis=def2-svpd config_type=oh_radical sample_index=312 temperature=300.0 units=atomic
O         0.0074140756      -0.0111282498       0.1035407604   1.625490597533e-02  -2.433363593176e-02   1.103248109241e-01
H        -0.1190495559       0.1781943022      -0.7547359462  -1.625487380202e-02   2.433643609377e-02  -1.103232715160e-01
2
Properties=species:S:1:pos:R:3:forces:R:3 energy=-7.563634074532e+01 dipole="4.1788219330e-03 -6.2560212776e-03 -6.3234552998e-01" quadrupole="-5.0658651617e+00 2.2229289553e-01 -1.1369578818e-02 2.2229289553e-01 -4.1371852459e+00 6.0079761817e-03 -1.1369578818e-02 6.0079761817e-03 -3.7419287723e+00" polarizability="7.2649091675e+00 -2.6541578695e-01 2.7669868295e-03 -2.6541578695e-01 6.1566415144e+00 9.0024370745e-03 2.7669868295e-03 9.0024370745e-03 7.2435183051e+00" charge=0 multiplicity=2 method=wB97M-V basis=def2-svpd config_type=oh_radical sample_index=313 temperature=300.0 units=atomic
O        -0.0003308023       0.0004965218       0.1032803986  -1.190330556269e-03   1.781915958395e-03   1.801373305624e-01
H         0.0053117701      -0.0079506989      -0.7505703960   1.190229920758e-03  -1.782012975147e-03  -1.801358740174e-01
2
Properties=species:S:1:pos:R:3:forces:R:3 energy=-7.565239900016e+01 dipole="-3.8881073923e-02 5.8206884658e-02 -6.7663143120e-01" quadrupole="-4.5754661331e+00 4.8784397789e-01 1.0753957635e-01 4.8784397789e-01 -4.9011637784e+00 -1.5420172203e-01 1.0753957635e-01 -1.5420172203e-01 -3.5225779086e+00" polarizability="6.8625619024e+00 -6.6882384861e-01 8.6953002603e-02 -6.6882384861e-01 7.3123504622e+00 -1.3918423075e-01 8.6953002603e-02 -1.3918423075e-01 9.3600690826e+00" charge=0 multiplicity=2 method=wB97M-V basis=def2-svpd config_type=oh_radical sample_index=314 temperature=300.0 units=atomic
O         0.0034264368      -0.0051429533       0.1128840257  -2.211295702376e-03   3.311617214140e-03  -3.849209712945e-02
H        -0.0550191015       0.0823530196      -0.9042196289   2.211599793670e-03  -3.311547451893e-03   3.849193994124e-02
2
Properties=species:S:1:pos:R:3:forces:R:3 energy=-7.564586291047e+01 dipole="-1.6673997395e-01 2.4961895504e-01 -6.2823966672e-01" quadrupole="-4.9122473295e+00 -5.8409081742e-01 1.9020334592e-01 -5.8409081742e-01 -4.4934287665e+00 -3.1065830518e-01 1.9020334592e-01 -3.1065830518e-01 -3.5727441600e+00" polarizability="7.6763626430e+00 3.5045601472e-01 8.3599475878e-01 3.5045601472e-01 7.4747608639e+00 -1.2161712399e+00 8.3599475878e-01 -1.2161712399e+00 9.5964284136e+00" charge=0 multiplicity=2 method=wB97M-V basis=def2-svpd config_type=oh_radical sample_index=315 temperature=300.0 units=atomic
O         0.0152089026      -0.0228279932       0.1105510152  -1.739762640496e-02   2.604450175886e-02  -6.555114756624e-02
H        -0.2442129275       0.3655398113      -0.8668935993   1.739822190447e-02  -2.604622371685e-02   6.555366589800e-02
2
Properties=species:S:1:pos:R:3:forces:R:3 energy=-7.564630071491e+01 dipole="1.4585829491e-01 -2.1835785425e-01 -6.4395892966e-01" quadrupole="-5.1649717265e+00 -3.7156873646e-01 -2.8992549426e-01 -3.7156873646e-01 -4.2681151691e+00 2.3430830043e-01 -2.8992549426e-01 2.3430830043e-01 -3.5494032021e+00" polarizability="7.9436205919e+00 1.6805234292e-01 -5.7946896317e-01 1.6805234292e-01 7.0042277885e+00 1.1387783316e+00 -5.7946896317e-01 1.1387783316e+00 9.7329759983e+00" charge=0 multiplicity=2 method=wB97M-V basis=def2-svpd config_type=oh_radical sample_index=316 temperature=300.0 units=atomic
O        -0.0132805577       0.0199336197       0.1118848776   1.493443633461e-02  -2.235847851848e-02  -6.593385192525e-02
H         0.2132490393      -0.3191928224      -0.8882341754  -1.493468113189e-02   2.235880312424e-02   6.593602771500e-02
2
Properties=species:S:1:pos:R:3:forces:R:3 energy=-7.564973779173e+01 dipole="6.2420078140e-02 -9.3445457763e-02 -6.7880805978e-01" quadrupole="-5.0954505907e+00 -4.1904510340e-01 -9.9743018855e-02 -4.1904510340e-01 -4.4232992406e+00 1.0458836709e-01 -9.9743018855e-02 1.0458836709e-01 -3.4771943209e+00" polarizability="7.6206181306e+00 5.0676897044e-01 -2.7122546491e-01 5.0676897044e-01 6.7636124448e+00 4.6618015248e-01 -2.7122546491e-01 4.6618015248e-01 9.7224089835e+00" charge=0 multiplicity=2 method=wB97M-V basis=def2-svpd config_type=oh_radical sample_index=317 temperature=300.0 units=atomic
O        -0.0055940501       0.0083964597       0.1140939338   5.162809435944e-03  -7.732244841428e-03  -5.615488683884e-02
H         0.0898249788      -0.1344507276      -0.9235770499  -5.163936781625e-03   7.730947130593e-03   5.615625066918e-02
2
Properties=species:S:1:pos:R:3:forces:R:3 energy=-7.563715787565e+01 dipole="1.9749054510e-01 -2.9565571174e-01 -6.1487296735e-01" quadrupole="-4.6362546358e+00 -6.3828192456e-01 -1.4968355689e-01 -6.3828192456e-01 -4.7232137846e+00 5.2024030627e-01 -1.4968355689e-01 5.2024030627e-01 -3.5954695567e+00" polarizability="7.5575693477e+00 1.6544895210e-01 -1.2552672345e+00 1.6544895210e-01 8.2713351815e+00 1.4700306270e+00 -1.2552672345e+00 1.4700306270e+00 1.0107999699e+01" charge=0 multiplicity=2 method=wB97M-V basis=def2-svpd config_type=oh_radical sample_index=318 temperature=300.0 units=atomic
O        -0.0185599837       0.0278578405       0.1110336753   2.574040479353e-02  -3.853625406503e-02  -8.014301691938e-02
H         0.2980220254      -0.4460816881      -0.8746157188  -2.574004678665e-02   3.853674472877e-02   8.014359616308e-02
2
Properties=species:S:1:pos:R:3:forces:R:3 energy=-7.564975324324e+01 dipole="1.4694245574e-01 -2.1998102460e-01 -6.3511597843e-01" quadrupole="-5.1812245963e+00 -2.8733027274e-01 -3.1738107567e-01 -2.8733027274e-01 -4.2025259313e+00 2.1858907130e-01 -3.1738107567e-01 2.1858907130e-01 -3.6034292799e+00" polarizability="7.9085708451e+00 7.0950685214e-02 -4.6434256157e-01 7.0950685214e-02 6.8535757857e+00 1.0401817053e+00 -4.6434256157e-01 1.0401817053e+00 9.3416262507e+00" charge=0 multiplicity=2 method=wB97M-V basis=def2-svpd config_type=oh_radical sample_index=319 temperature=300.0 units=atomic
O        -0.0131679182       0.0197645520       0.1101601773   1.214013135900e-02  -1.817302475471e-02  -5.246836941590e-02
H         0.2114403606      -0.3164855781      -0.8606405517  -1.213944212816e-02   1.817425742547e-02   5.247014776656e-02
2
Properties=species:S:1:pos:R:3:forces:R:3 energy=-7.565303806705e+01 dipole="-6.6748399048e-02 9.9926035281e-02 -6.6691592098e-01" quadrupole="-4.3700184385e+00 -3.8837940960e-01 3.3930152585e-02 -3.8837940960e-01 -5.0748154708e+00 -2.0461056241e-01 3.3930152585e-02 -2.0461056241e-01 -3.5529473333e+00" polarizability="6.6049403584e+00 4.5637192005e-01 3.3202119507e-01 4.5637192005e-01 7.5859141669e+00 -2.9339028926e-01 3.3202119507e-01 -2.9339028926e-01 9.1619743393e+00" charge=0 multiplicity=2 method=wB97M-V basis=def2-svpd config_type=oh_radical sample_index=320 temperature=300.0 units=atomic
O         0.0058494520      -0.0087798084       0.1116957014  -3.138515633744e-03   4.700458995096e-03  -3.135678078730e-02
H        -0.0939260272       0.1405892088      -0.8852075294   3.138843474254e-03  -4.698763681441e-03   3.135675504995e-02
2
Properties=species:S:1:pos:R:3:forces:R:3 energy=-7.565389980667e+01 dipole="-7.6593290004e-02 1.1466452886e-01 -6.4761059089e-01" quadrupole="-4.1697395118e+00 -9.8962078955e-02 5.7146977014e-02 -9.8962078955e-02 -5.1581711150e+00 -2.7505623794e-01 5.7146977014e-02 -2.7505623794e-01 -3.6619637959e+00" polarizability="6.2983052232e+00 6.4955785456e-02 2.6848519743e-01 6.4955785456e-02 7.6211715232e+00 -1.5817121182e-01 2.6848519743e-01 -1.5817121182e-01 8.4113689702e+00" charge=0 multiplicity=2 method=wB97M-V basis=def2-svpd config_type=oh_radical sample_index=321 temperature=300.0 units=atomic
O         0.0064882379      -0.0097386020       0.1080980651   2.190991528448e-03  -3.277890213994e-03   1.850756526639e-02
H        -0.1041831617       0.1559421676      -0.8276486449  -2.188410897057e-03   3.276270334650e-03  -1.850589214816e-02
2
Properties=species:S:1:pos:R:3:forces:R:3 energy=-7.563168011154e+01 dipole="-8.2965342514e-02 1.2420261225e-01 -6.1061557939e-01" quadrupole="-4.7223048821e+00 4.4793743441e-01 2.3124684941e-01 4.4793743441e-01 -4.3814068646e+00 -2.0127718377e-01 2.3124684941e-01 -2.0127718377e-01 -3.8283696200e+00" polarizability="6.8681348178e+00 -5.6902257356e-01 -8.3289027922e-02 -5.6902257356e-01 6.4996263882e+00 -4.6240614427e-02 -8.3289027922e-02 -4.6240614427e-02 7.1089323165e+00" charge=0 multiplicity=2 method=wB97M-V basis=def2-svpd config_type=oh_radical sample_index=322 temperature=300.0 units=atomic
O         0.0065088844      -0.0097695916       0.1011199810   2.756088228965e-02  -4.126255373568e-02   2.028449018123e-01
H        -0.1045146873       0.1564383977      -0.7160056952  -2.756020732978e-02   4.126067545828e-02  -2.028476241234e-01
2
Properties=species:S:1:pos:R:3:forces:R:3 energy=-7.564591981495e+01 dipole="1.3934454680e-02 -2.0862042950e-02 -6.4218142836e-01" quadrupole="-5.0291906374e+00 3.3089069849e-01 -4.1001096944e-02 3.3089069849e-01 -4.2357761622e+00 2.6686976508e-02 -4.1001096944e-02 2.6686976508e-02 -3.7015256292e+00" polarizability="7.2706424287e+00 -4.0805382303e-01 5.3250729749e-03 -4.0805382303e-01 6.2971159178e+00 3.4644064150e-02 5.3250729749e-03 3.4644064150e-02 7.6351012369e+00" charge=0 multiplicity=2 method=wB97M-V basis=def2-svpd config_type=oh_radical sample_index=323 temperature=300.0 units=atomic
O        -0.0011298963       0.0016959321       0.1052995865  -2.439497466617e-03   3.653309190585e-03   1.125215567420e-01
H         0.0181430110      -0.0271566001      -0.7828755531   2.441054710306e-03  -3.654845364642e-03  -1.125187335562e-01
2
Properties=species:S:1:pos:R:3:forces:R:3 energy=-7.564688558928e+01 dipole="-1.2648800369e-02 1.8935516890e-02 -6.9392284979e-01" quadrupole="-4.2874187527e+00 -1.5478695669e-01 1.3011012860e-02 -1.5478695669e-01 -5.2929407761e+00 -5.0413539731e-02 1.3011012860e-02 -5.0413539731e-02 -3.4133730278e+00" polarizability="6.5229881505e+00 2.0751366467e-01 7.2337153847e-02 2.0751366467e-01 7.8893249831e+00 -6.6309263308e-02 7.2337153847e-02 -6.6309263308e-02 1.0177555523e+01" charge=0 multiplicity=2 method=wB97M-V basis=def2-svpd config_type=oh_radical sample_index=324 temperature=300.0 units=atomic
O         0.0011488491      -0.0017243795       0.1162948885  -1.259684549705e-03   1.885100406298e-03  -6.913411138387e-02
H        -0.0184473409       0.0276121235      -0.9587903078   1.259812735875e-03  -1.886383749104e-03   6.913470724407e-02
2
Properties=species:S:1:pos:R:3:forces:R:3 energy=-7.565376995239e+01 dipole="-6.6006092034e-02 9.8814299879e-02 -6.5043086307e-01" quadrupole="-4.1845390433e+00 -1.5931235316e-01 4.0825837192e-02 -1.5931235316e-01 -5.1550320842e+00 -2.2859414767e-01 4.0825837192e-02 -2.2859414767e-01 -3.6502419254e+00" polarizability="6.3038319037e+00 1.5883448616e-01 2.3970362479e-01 1.5883448616e-01 7.5874452652e+00 -1.4384177272e-01 2.3970362479e-01 -1.4384177272e-01 8.3819423675e+00" charge=0 multiplicity=2 method=wB97M-V basis=def2-svpd config_type=oh_radical sample_index=325 temperature=300.0 units=atomic
O         0.0055798982      -0.0083752182       0.1082241517   2.253236532986e-03  -3.371582097185e-03   2.219855196384e-02
H        -0.0895977381       0.1341105921      -0.8296659154  -2.251765285950e-03   3.371609711663e-03  -2.219674103557e-02
2
Properties=species:S:1:pos:R:3:forces:R:3 energy=-7.564227224916e+01 dipole="1.5801975089e-01 -2.3656488269e-01 -6.4235277389e-01" quadrupole="-5.0556537358e+00 -5.1725023494e-01 -2.4710304741e-01 -5.1725023494e-01 -4.3975613366e+00 2.8541415986e-01 -2.4710304741e-01 2.8541415986e-01 -3.5200508003e+00" polarizability="7.8951804961e+00 2.8365033944e-01 -7.9391000103e-01 2.8365033944e-01 7.3458429193e+00 1.3042327553e+00 -7.9391000103e-01 1.3042327553e+00 1.0022169385e+01" charge=0 multiplicity=2 method=wB97M-V basis=def2-svpd config_type=oh_radical sample_index=326 temperature=300.0 units=atomic
O        -0.0146074296       0.0219252047       0.1126335897   1.856549075311e-02  -2.779009987322e-02  -7.545958377309e-02
H         0.2345549330      -0.3510836500      -0.9002128831  -1.856446691211e-02   2.779158150780e-02   7.546349943860e-02
2
Properties=species:S:1:pos:R:3:forces:R:3 energy=-7.565354218941e+01 dipole="1.2000875927e-01 -1.7965919139e-01 -6.3958570645e-01" quadrupole="-5.1087255064e+00 1.9692058473e-01 -3.6417630962e-01 1.9692058473e-01 -4.2116074031e+00 2.4727971404e-01 -3.6417630962e-01 2.4727971404e-01 -3.6721362921e+00" polarizability="7.6518281708e+00 -4.4070161958e-01 -1.4896453913e-01 -4.4070161958e-01 6.6194398869e+00 6.1562756890e-01 -1.4896453913e-01 6.1562756890e-01 8.9045873699e+00" charge=0 multiplicity=2 method=wB97M-V basis=def2-svpd config_type=oh_radical sample_index=327 temperature=300.0 units=atomic
O        -0.0104585766       0.0156979318       0.1089806617   4.382488418185e-03  -6.567620994050e-03  -2.337083281656e-02
H         0.1679358251      -0.2513676506      -0.8417693821  -4.384279347189e-03   6.565349888207e-03   2.336976960826e-02
2
Properties=species:S:1:pos:R:3:forces:R:3 energy=-7.565400660983e+01 dipole="9.4387363377e-02 -1.4130207860e-01 -6.4091071776e-01" quadrupole="-4.1677523154e+00 6.4321342298e-02 -1.0771494305e-01 6.4321342298e-02 -5.1243967095e+00 3.6037004697e-01 -1.0771494305e-01 3.6037004697e-01 -3.6969632910e+00" polarizability="6.3205028173e+00 -1.7871866013e-01 -2.8367300691e-01 -1.7871866013e-01 7.6326619331e+00 1.6805395662e-01 -2.8367300691e-01 1.6805395662e-01 8.4354304551e+00" charge=0 multiplicity=2 method=wB97M-V basis=def2-svpd config_type=oh_radical sample_index=328 temperature=300.0 units=atomic
O        -0.0080119493       0.0120256358       0.1076400725  -2.188864574012e-03   3.271443437266e-03   1.485734242745e-02
H         0.1286497548      -0.1925639546      -0.8203211840   2.187685016673e-03  -3.275543518607e-03  -1.485527136241e-02
2
Properties=species:S:1:pos:R:3:forces:R:3 energy=-7.565090031215e+01 dipole="-8.1315304271e-02 1.2173359539e-01 -6.6918032244e-01" quadrupole="-4.4681014065e+00 -4.5907018107e-01 4.5944421257e-02 -4.5907018107e-01 -5.0059383060e+00 -2.3582281183e-01 4.5944421257e-02 -2.3582281183e-01 -3.5217860625e+00" polarizability="6.7881226220e+00 5.2139673730e-01 4.4125724931e-01 5.2139673730e-01 7.5859513470e+00 -4.3679971442e-01 4.4125724931e-01 -4.3679971442e-01 9.5057335709e+00" charge=0 multiplicity=2 method=wB97M-V basis=def2-svpd config_type=oh_radical sample_index=329 temperature=300.0 units=atomic
O         0.0072399587      -0.0108669068       0.1128359216  -5.960191754432e-03   8.924470376497e-03  -4.906485429634e-02
H        -0.1162537198       0.1740094730      -0.9034500073   5.961864060048e-03  -8.926122261587e-03   4.906708469550e-02
2
Properties=species:S:1:pos:R:3:forces:R:3 energy=-7.565026947454e+01 dipole="-7.1715243103e-02 1.0736086028e-01 -6.7445895128e-01" quadrupole="-5.0114671396e+00 -4.7506992790e-01 9.6574441726e-02 -4.7506992790e-01 -4.4920106759e+00 -1.2455170889e-01 9.6574441726e-02 -1.2455170889e-01 -3.4924560721e+00" polarizability="7.5119627634e+00 5.6380792371e-01 3.2609937855e-01 5.6380792371e-01 6.8758598287e+00 -5.1504324883e-01 3.2609937855e-01 -5.1504324883e-01 9.6181252742e+00" charge=0 multiplicity=2 method=wB97M-V basis=def2-svpd config_type=oh_radical sample_index=330 temperature=300.0 units=atomic
O         0.0064085591      -0.0096190072       0.1135282391  -5.640829697358e-03   8.447154932870e-03  -5.306474084509e-02
H        -0.1029037418       0.1540271219      -0.9145264531   5.642297705355e-03  -8.446932358056e-03   5.306621282436e-02
2
Properties=species:S:1:pos:R:3:forces:R:3 energy=-7.563239544211e+01 dipole="2.6883995646e-01 -4.0246604674e-01 -5.2860452811e-01" quadrupole="-4.5625995177e+00 -7.4606780175e-01 -1.4825007522e-01 -7.4606780175e-01 -4.5274701461e+00 6.6595506045e-01 -1.4825007522e-01 6.6595506045e-01 -3.8343667684e+00" polarizability="7.9567529506e+00 -3.7349963221e-01 -1.6084173052e+00 -3.7349963221e-01 9.0767552488e+00 1.7909069094e+00 -1.6084173052e+00 1.7909069094e+00 9.4968417071e+00" charge=0 multiplicity=2 method=wB97M-V basis=def2-svpd config_type=oh_radical sample_index=331 temperature=300.0 units=atomic
O        -0.0256148713       0.0384469625       0.1035885180   3.725042542311e-02  -5.577071078764e-02  -7.325061018747e-02
H         0.4113040150      -0.6156430521      -0.7555000245  -3.725293164365e-02   5.577117196709e-02   7.325090295579e-02
2
Properties=species:S:1:pos:R:3:forces:R:3 energy=-7.564616812046e+01 dipole="-8.8430737914e-02 1.3238521223e-01 -6.7723248361e-01" quadrupole="-5.2553124092e+00 -2.2967572616e-01 2.0647118971e-01 -2.2967572616e-01 -4.2742633624e+00 -1.5450391808e-01 2.0647118971e-01 -1.5450391808e-01 -3.4593386099e+00" polarizability="7.9258163177e+00 1.8803638610e-01 3.4232150865e-01 1.8803638610e-01 6.6953144002e+00 -7.2253412858e-01 3.4232150865e-01 -7.2253412858e-01 1.0080000064e+01" charge=0 multiplicity=2 method=wB97M-V basis=def2-svpd config_type=oh_radical sample_index=332 temperature=300.0 units=atomic
O         0.0080560868      -0.0120918846       0.1149585728  -9.106645440986e-03   1.363600501327e-02  -6.975007954481e-02
H        -0.1293584816       0.1936247825      -0.9374104813   9.107023602699e-03  -1.363484505799e-02   6.975014296768e-02
2
Properties=species:S:1:pos:R:3:forces:R:3 energy=-7.564924592767e+01 dipole="-1.7293955658e-02 2.5889200749e-02 -6.8852204716e-01" quadrupole="-4.2672380413e+00 1.3494420301e-01 2.7447246728e-02 1.3494420301e-01 -5.2804530876e+00 -7.4975818699e-02 2.7447246728e-02 -7.4975818699e-02 -3.4493777201e+00" polarizability="6.4759959844e+00 -1.8628261425e-01 7.8491317953e-02 -1.8628261425e-01 7.8450628417e+00 -7.1826139828e-02 7.8491317953e-02 -7.1826139828e-02 9.8750169455e+00" charge=0 multiplicity=2 method=wB97M-V basis=def2-svpd config_type=oh_radical sample_index=333 temperature=300.0 units=atomic
O         0.0015537829      -0.0023321700       0.1151244610  -1.489722857844e-03   2.229519248255e-03  -5.932099462570e-02
H        -0.0249494583       0.0373445435      -0.9400645400   1.489575297675e-03  -2.230535951014e-03   5.932255515694e-02
2
Properties=species:S:1:pos:R:3:forces:R:3 energy=-7.564972891065e+01 dipole="-1.2070094686e-01 1.8069731609e-01 -6.5285302824e-01" quadrupole="-5.2261166735e+00 1.0300302466e-02 3.4404063492e-01 1.0300302466e-02 -4.1851900189e+00 -2.2451935614e-01 3.4404063492e-01 -2.2451935614e-01 -3.5794029054e+00" polarizability="7.9008467910e+00 -2.2693040541e-01 2.9067574188e-01 -2.2693040541e-01 6.6770335378e+00 -8.2595049897e-01 2.9067574188e-01 -8.2595049897e-01 9.5304132007e+00" charge=0 multiplicity=2 method=wB97M-V basis=def2-svpd config_type=oh_radical sample_index=334 temperature=300.0 units=atomic
O         0.0108177588      -0.0162370508       0.1117626472  -9.991282956725e-03   1.496184654729e-02  -5.404946882069e-02
H        -0.1737032977       0.2600004485      -0.8862786001   9.992005409906e-03  -1.496093354670e-02   5.405013940139e-02
2
Properties=species:S:1:pos:R:3:forces:R:3 energy=-7.565411826995e+01 dipole="-1.8695446718e-02 2.7988577471e-02 -6.6947288552e-01" quadrupole="-4.7344664968e+00 5.2026263924e-01 5.6386688027e-02 5.2026263924e-01 -4.6974355562e+00 -6.4823393306e-02 5.6386688027e-02 -6.4823393306e-02 -3.5660279091e+00" polarizability="7.0196925428e+00 -6.8407537180e-01 2.2902740715e-02 -6.8407537180e-01 6.9747239188e+00 -5.9881029834e-02 2.2902740715e-02 -5.9881029834e-02 8.8608229605e+00" charge=0 multiplicity=2 method=wB97M-V basis=def2-svpd config_type=oh_radical sample_index=335 temperature=300.0 units=atomic
O         0.0016124538      -0.0024202327       0.1109888954  -2.809175249659e-04   4.203028747504e-04  -1.006878315940e-02
H        -0.0258915493       0.0387546726      -0.8738992806   2.815164091503e-04  -4.212578655419e-04   1.006830303232e-02
2
Properties=species:S:1:pos:R:3:forces:R:3 energy=-7.564770038983e+01 dipole="4.3475218631e-02 -6.5082953490e-02 -6.4051903621e-01" quadrupole="-4.8483774820e+00 4.5976974425e-01 -1.2989393032e-01 4.5976974425e-01 -4.4134455917e+00 1.1152027763e-01 -1.2989393032e-01 1.1152027763e-01 -3.7084425829e+00" polarizability="7.0686031249e+00 -5.8423663893e-01 1.3730889681e-02 -5.8423663893e-01 6.5434225842e+00 8.2024156961e-02 1.3730889681e-02 8.2024156961e-02 7.7334784662e+00" charge=0 multiplicity=2 method=wB97M-V basis=def2-svpd config_type=oh_radical sample_index=336 temperature=300.0 units=atomic
O        -0.0035462429       0.0053227777       0.1054771650  -6.577282709622e-03   9.849344505721e-03   9.692881948743e-02
H         0.0569428560      -0.0852325102      -0.7857166451   6.578458810250e-03  -9.847328847154e-03  -9.692894663840e-02
2
Properties=species:S:1:pos:R:3:forces:R:3 energy=-7.563892207610e+01 dipole="-1.2307778326e-01 1.8425563062e-01 -6.7213333008e-01" quadrupole="-4.6655155708e+00 -5.5814872003e-01 1.0795763294e-01 -5.5814872003e-01 -4.8755269094e+00 -3.4598374087e-01 1.0795763294e-01 -3.4598374087e-01 -3.4300011173e+00" polarizability="7.2863653635e+00 4.9759199230e-01 8.2422732606e-01 4.9759199230e-01 7.8006697888e+00 -9.7982727306e-01 8.2422732606e-01 -9.7982727306e-01 1.0623025900e+01" charge=0 multiplicity=2 method=wB97M-V basis=def2-svpd config_type=oh_radical sample_index=337 temperature=300.0 units=atomic
O         0.0115039810      -0.0172670446       0.1160893710  -1.556649417920e-02   2.330492481523e-02  -8.500999419741e-02
H        -0.1847221294       0.2764935216      -0.9555022164   1.556546820852e-02  -2.330553212968e-02   8.501091858126e-02
2
Properties=species:S:1:pos:R:3:forces:R:3 energy=-7.565409572817e+01 dipole="3.6385797134e-02 -5.4471476122e-02 -6.6742439230e-01" quadrupole="-4.6036246217e+00 5.0299167217e-01 -1.0164430106e-01 5.0299167217e-01 -4.8173865603e+00 1.3556288463e-01 -1.0164430106e-01 1.3556288463e-01 -3.5765755220e+00" polarizability="6.8576593951e+00 -6.7347028499e-01 -5.5256816781e-02 -6.7347028499e-01 7.1502348399e+00 1.0441515537e-01 -5.5256816781e-02 1.0441515537e-01 8.8679508134e+00" charge=0 multiplicity=2 method=wB97M-V basis=def2-svpd config_type=oh_radical sample_index=338 temperature=300.0 units=atomic
O        -0.0031403103       0.0047134881       0.1108510415   6.008514357564e-04  -8.999351970327e-04  -1.103294915549e-02
H         0.0504247007      -0.0754760846      -0.8716937448  -6.017492747104e-04   9.009818213628e-04   1.103287681069e-02
2
Properties=species:S:1:pos:R:3:forces:R:3 energy=-7.565370226656e+01 dipole="-5.4284262828e-03 8.1262622455e-03 -6.7402424130e-01" quadrupole="-4.2107237630e+00 6.8131965037e-02 6.7688765353e-03 6.8131965037e-02 -5.2483258734e+00 -2.1960616628e-02 6.7688765353e-03 -2.1960616628e-02 -3.5403295523e+00" polarizability="6.3442306654e+00 -9.0007872435e-02 2.0741455115e-02 -9.0007872435e-02 7.7098422571e+00 -1.5483857899e-02 2.0741455115e-02 -1.5483857899e-02 9.0538990323e+00" charge=0 multiplicity=2 method=wB97M-V basis=def2-svpd config_type=oh_radical sample_index=339 temperature=300.0 units=atomic
O         0.0004720390      -0.0007085128       0.1118647412  -1.752967363627e-04   2.618769338800e-04  -2.175066238494e-02
H        -0.0075796411       0.0113452658      -0.8879120107   1.751591290350e-04  -2.623813379901e-04   2.175065775763e-02
2
Properties=species:S:1:pos:R:3:forces:R:3 energy=-7.565417083503e+01 dipole="-1.4382098114e-01 2.1530740394e-01 -6.1732912297e-01" quadrupole="-4.7660154021e+00 3.7344643029e-01 4.2655582147e-01 3.7344643029e-01 -4.4125936844e+00 -4.0726255195e-01 4.2655582147e-01 -4.0726255195e-01 -3.8085978463e+00" polarizability="7.2161391081e+00 -7.2949681477e-01 1.1922412038e-01 -7.2949681477e-01 6.9558438752e+00 -4.8022050048e-01 1.1922412038e-01 -4.8022050048e-01 8.6247594764e+00" charge=0 multiplicity=2 method=wB97M-V basis=def2-svpd config_type=oh_radical sample_index=340 temperature=300.0 units=atomic
O         0.0123800486      -0.0185819893       0.1063724879  -1.542993760588e-03   2.308709659646e-03  -6.621858900421e-03
H        -0.1987893532       0.2975494518      -0.8000409920   1.542525481352e-03  -2.310743594742e-03   6.624909035769e-03
2
Properties=species:S:1:pos:R:3:forces:R:3 energy=-7.564697639174e+01 dipole="1.5387925925e-01 -2.3036522736e-01 -6.3643592824e-01" quadrupole="-5.1040187692e+00 -4.4640805001e-01 -2.6557433929e-01 -4.4640805001e-01 -4.3120079963e+00 2.4478773887e-01 -2.6557433929e-01 2.4478773887e-01 -3.5663158640e+00" polarizability="7.8751671209e+00 2.3584354637e-01 -6.4015968541e-01 2.3584354637e-01 7.1073039875e+00 1.1655087914e+00 -6.4015968541e-01 1.1655087914e+00 9.5931069551e+00" charge=0 multiplicity=2 method=wB97M-V basis=def2-svpd config_type=oh_radical sample_index=341 temperature=300.0 units=atomic
O        -0.0139712451       0.0209703156       0.1110330763   1.526242762990e-02  -2.284853741668e-02  -6.312168621330e-02
H         0.2243395697      -0.3357932147      -0.8746061342  -1.526232388583e-02   2.284860160091e-02   6.312356336228e-02
2
Properties=species:S:1:pos:R:3:forces:R:3 energy=-7.565422312405e+01 dipole="1.0633564419e-01 -1.5919003899e-01 -6.3903718292e-01" quadrupole="-4.3669080723e+00 3.6121361148e-01 -2.3260674092e-01 3.6121361148e-01 -4.9038403006e+00 4.0732942277e-01 -2.3260674092e-01 4.0732942277e-01 -3.7200244753e+00" polarizability="6.6116760648e+00 -5.9762663423e-01 -1.9962835226e-01 -5.9762663423e-01 7.4156821435e+00 2.2204607612e-01 -1.9962835226e-01 2.2204607612e-01 8.6176830480e+00" charge=0 multiplicity=2 method=wB97M-V basis=def2-svpd config_type=oh_radical sample_index=342 temperature=300.0 units=atomic
O        -0.0091066975       0.0136688118       0.1079662465  -1.139174698844e-04   1.667738928923e-04   6.736233350830e-04
H         0.1462283834      -0.2188757829      -0.8255396681   1.120600306028e-04  -1.678589990121e-04  -6.729954736513e-04
2
Properties=species:S:1:pos:R:3:forces:R:3 energy=-7.564393154804e+01 dipole="1.6045397380e-01 -2.4020892148e-01 -6.3734255983e-01" quadrupole="-5.0403893735e+00 -5.2215448283e-01 -2.4213512671e-01 -5.2215448283e-01 -4.3942086301e+00 2.8202331051e-01 -2.4213512671e-01 2.8202331051e-01 -3.5414698228e+00" polarizability="7.8586888312e+00 2.8704201936e-01 -7.7795968178e-01 2.8704201936e-01 7.3293536423e+00 1.2744632808e+00 -7.7795968178e-01 1.2744632808e+00 9.8429348242e+00" charge=0 multiplicity=2 method=wB97M-V basis=def2-svpd config_type=oh_radical sample_index=343 temperature=300.0 units=atomic
O        -0.0147446885       0.0221312252       0.1118191033   1.796694480241e-02  -2.689437962655e-02  -7.135809097124e-02
H         0.2367589321      -0.3543826130      -0.8871818473  -1.796594395598e-02   2.689565727084e-02   7.136216769563e-02
2
Properties=species:S:1:pos:R:3:forces:R:3 energy=-7.565219118427e+01 dipole="5.8392511033e-02 -8.7415328884e-02 -6.7282563092e-01" quadrupole="-4.5366679319e+00 -4.8989449145e-01 -3.2465047298e-02 -4.8989449145e-01 -4.9402248809e+00 1.5377687037e-01 -3.2465047298e-02 1.5377687037e-01 -3.5213343430e+00" polarizability="6.8313045418e+00 6.0609328510e-01 -3.0317976036e-01 6.0609328510e-01 7.4066369323e+00 3.1384454473e-01 -3.0317976036e-01 3.1384454473e-01 9.3502733379e+00" charge=0 multiplicity=2 method=wB97M-V basis=def2-svpd config_type=oh_radical sample_index=344 temperature=300.0 units=atomic
O        -0.0051541286       0.0077361540       0.1126434091   3.478686876651e-03  -5.212809139064e-03  -4.010388912128e-02
H         0.0827610559      -0.1238773929      -0.9003699844  -3.480455254164e-03   5.210577757824e-03   4.010468382693e-02
2
Properties=species:S:1:pos:R:3:forces:R:3 energy=-7.564538083299e+01 dipole="-1.0544952475e-01 1.5786228134e-01 -6.1323242997e-01" quadrupole="-4.9854462830e+00 2.6191598878e-01 2.9956651554e-01 2.6191598878e-01 -4.1723214230e+00 -1.8320653844e-01 2.9956651554e-01 -1.8320653844e-01 -3.8017010949e+00" polarizability="7.2699238044e+00 -4.0705248152e-01 -4.6761327587e-02 -4.0705248152e-01 6.3440009150e+00 -2.5522766994e-01 -4.6761327587e-02 -2.5522766994e-01 7.5496911025e+00" charge=0 multiplicity=2 method=wB97M-V basis=def2-svpd config_type=oh_radical sample_index=345 temperature=300.0 units=atomic
O         0.0085359456      -0.0128121347       0.1028609754   1.920352953264e-02  -2.874861256485e-02   1.116804135397e-01
H        -0.1370636868       0.2051579936      -0.7438600106  -1.920392268288e-02   2.875002296664e-02  -1.116781491673e-01
2
Properties=species:S:1:pos:R:3:forces:R:3 energy=-7.563628437523e+01 dipole="-1.2216485722e-01 1.8288960831e-01 -6.7664873960e-01" quadrupole="-4.5973715819e+00 -5.3073998415e-01 1.0681446016e-01 -5.3073998415e-01 -4.9600330684e+00 -3.7680125852e-01 1.0681446016e-01 -3.7680125852e-01 -3.4076402022e+00" polarizability="7.2176698248e+00 4.5666123918e-01 8.6114592452e-01 4.5666123918e-01 7.9490194895e+00 -9.8918417358e-01 8.6114592452e-01 -9.8918417358e-01 1.0880881929e+01" charge=0 multiplicity=2 method=wB97M-V basis=def2-svpd config_type=oh_radical sample_index=346 temperature=300.0 units=atomic
O         0.0115111051      -0.0172777376       0.1170264249  -1.613292508846e-02   2.415396274873e-02  -8.936532619153e-02
H        -0.1848365224       0.2766647459      -0.9704942203   1.613296385972e-02  -2.415537950051e-02   8.936604363344e-02
2
Properties=species:S:1:pos:R:3:forces:R:3 energy=-7.565063396711e+01 dipole="1.5621036992e-01 -2.3385551452e-01 -6.2541923084e-01" quadrupole="-5.0167093420e+00 -5.0019364530e-01 -2.1840027530e-01 -5.0019364530e-01 -4.3581087709e+00 2.3567892261e-01 -2.1840027530e-01 2.3567892261e-01 -3.6118085228e+00" polarizability="7.6966454102e+00 3.2293135142e-01 -6.1614760947e-01 3.2293135142e-01 7.1018462803e+00 1.0447088600e+00 -6.1614760947e-01 1.0447088600e+00 9.1355547670e+00" charge=0 multiplicity=2 method=wB97M-V basis=def2-svpd config_type=oh_radical sample_index=347 temperature=300.0 units=atomic
O        -0.0139302872       0.0209088394       0.1090145732   1.182098896177e-02  -1.769438470098e-02  -4.731961998775e-02
H         0.2236818992      -0.3348088084      -0.8423119352  -1.182010309272e-02   1.769557709326e-02   4.732462326116e-02
2
Properties=species:S:1:pos:R:3:forces:R:3 energy=-7.564978979861e+01 dipole="-3.6062011023e-02 5.3985662043e-02 -6.8484766988e-01" quadrupole="-4.2604360628e+00 1.2758923342e-01 5.6157416953e-02 1.2758923342e-01 -5.2671767408e+00 -1.5508012219e-01 5.6157416953e-02 -1.5508012219e-01 -3.4696377699e+00" polarizability="6.4714015083e+00 -1.9061171917e-01 1.6047180798e-01 -1.9061171917e-01 7.8413153736e+00 -1.4469097329e-01 1.6047180798e-01 -1.4469097329e-01 9.7842802760e+00" charge=0 multiplicity=2 method=wB97M-V basis=def2-svpd config_type=oh_radical sample_index=348 temperature=300.0 units=atomic
O         0.0032309446      -0.0048495269       0.1146200993  -2.969542830103e-03   4.445884574563e-03  -5.639338896679e-02
H        -0.0518800380       0.0776544448      -0.9319952150   2.968837422494e-03  -4.445587783043e-03   5.639526017625e-02
2
Properties=species:S:1:pos:R:3:forces:R:3 energy=-7.564562150833e+01 dipole="-2.2265069605e-02 3.3333150252e-02 -6.4101387625e-01" quadrupole="-5.0753021256e+00 2.6031075362e-01 6.3502272813e-02 2.6031075362e-01 -4.1846111601e+00 -3.7517685017e-02 6.3502272813e-02 -3.7517685017e-02 -3.7056754684e+00" polarizability="7.3268607152e+00 -3.2332484444e-01 -6.6271996655e-03 -3.2332484444e-01 6.2369292248e+00 -6.0691744753e-02 -6.6271996655e-03 -6.0691744753e-02 7.6171236778e+00" charge=0 multiplicity=2 method=wB97M-V basis=def2-svpd config_type=oh_radical sample_index=349 temperature=300.0 units=atomic
O         0.0018036648      -0.0027072333       0.1051560599   3.985316466287e-03  -5.966614129349e-03   1.147768487326e-01
H        -0.0289618701       0.0433503527      -0.7805792584  -3.985875729442e-03   5.967553643999e-03  -1.147736983403e-01
2
Properties=species:S:1:pos:R:3:forces:R:3 energy=-7.564483353819e+01 dipole="1.4799678624e-01 -2.2155910711e-01 -6.4532180367e-01" quadrupole="-5.1223855016e+00 -4.4039732227e-01 -2.6461130205e-01 -4.4039732227e-01 -4.3261334275e+00 2.4804219586e-01 -2.6461130205e-01 2.4804219586e-01 -3.5311451975e+00" polarizability="7.9149233499e+00 2.4369469557e-01 -6.5794994734e-01 2.4369469557e-01 7.1250820015e+00 1.1867890051e+00 -6.5794994734e-01 1.1867890051e+00 9.8606474873e+00" charge=0 multiplicity=2 method=wB97M-V basis=def2-svpd config_type=oh_radical sample_index=350 temperature=300.0 units=atomic
O        -0.0135539295       0.0203439405       0.1123535127   1.607126358833e-02  -2.405978466308e-02  -7.007489139085e-02
H         0.2176386339      -0.3257632019      -0.8957319067  -1.607137250341e-02   2.406012219512e-02   7.007640732764e-02
2
Properties=species:S:1:pos:R:3:forces:R:3 energy=-7.561247730129e+01 dipole="-2.6922362061e-01 4.0304253908e-01 -5.5851481503e-01" quadrupole="-4.9262539730e+00 -1.3817913160e-01 8.5032920330e-01 -1.3817913160e-01 -3.9862597207e+00 -6.7713420680e-01 8.5032920330e-01 -6.7713420680e-01 -3.9523916860e+00" polarizability="8.8383568668e+00 -1.5346729609e+00 1.1599315226e+00 -1.5346729609e+00 8.9470750396e+00 -2.5762134291e+00 1.1599315226e+00 -2.5762134291e+00 1.1123997326e+01" charge=0 multiplicity=2 method=wB97M-V basis=def2-svpd config_type=oh_radical sample_index=351 temperature=300.0 units=atomic
O         0.0269499246      -0.0404508275       0.1091512394  -4.135774752148e-02   6.191593515539e-02  -8.579981994691e-02
H        -0.4327412802       0.6477305177      -0.8444984698   4.135968522619e-02  -6.191876551019e-02   8.580164655455e-02
2
Properties=species:S:1:pos:R:3:forces:R:3 energy=-7.565323917995e+01 dipole="1.7594754283e-02 -2.6339386213e-02 -6.7596738778e-01" quadrupole="-4.2312580489e+00 -1.3680434752e-01 -1.4836308470e-02 -1.3680434752e-01 -5.2409430709e+00 6.5968014484e-02 -1.4836308470e-02 6.5968014484e-02 -3.5275125144e+00" polarizability="6.3821211625e+00 1.7686190590e-01 -7.9968537338e-02 1.7686190590e-01 7.7200285459e+00 6.1864758918e-02 -7.9968537338e-02 6.1864758918e-02 9.1850080692e+00" charge=0 multiplicity=2 method=wB97M-V basis=def2-svpd config_type=oh_radical sample_index=352 temperature=300.0 units=atomic
O        -0.0015387037       0.0023095366       0.1123699957   7.603125093611e-04  -1.137978269860e-03  -2.922514617822e-02
H         0.0247073268      -0.0369821191      -0.8959956196  -7.604972240696e-04   1.139022701431e-03   2.922526956225e-02
2
Properties=species:S:1:pos:R:3:forces:R:3 energy=-7.565242033978e+01 dipole="1.9528027140e-02 -2.9235779701e-02 -6.5440384978e-01" quadrupole="-5.1089395226e+00 2.7764048210e-01 -5.8178274946e-02 2.7764048210e-01 -4.2322431211e+00 3.7636439161e-02 -5.8178274946e-02 3.7636439161e-02 -3.6444638890e+00" polarizability="7.4330495475e+00 -3.5553923033e-01 -5.9691707018e-03 -3.5553923033e-01 6.3250137735e+00 7.1605874618e-02 -5.9691707018e-03 7.1605874618e-02 8.1619324822e+00" charge=0 multiplicity=2 method=wB97M-V basis=def2-svpd config_type=oh_radical sample_index=353 temperature=300.0 units=atomic
O        -0.0016295348       0.0024458707       0.1078443827  -1.406648304592e-03   2.105217099444e-03   4.715597256977e-02
H         0.0261658233      -0.0391652081      -0.8235899596   1.406546864848e-03  -2.106121616112e-03  -4.715505521601e-02
2
Properties=species:S:1:pos:R:3:forces:R:3 energy=-7.565384127993e+01 dipole="-1.4287537221e-02 2.1389273838e-02 -6.7260943422e-01" quadrupole="-4.5119368939e+00 4.7625235878e-01 3.7107757013e-02 4.7625235878e-01 -4.9387072021e+00 -5.6561789065e-02 3.7107757013e-02 -5.6561789065e-02 -3.5483824372e+00" polarizability="6.7381971645e+00 -6.2810405963e-01 2.8149463977e-02 -6.2810405963e-01 7.3008618327e+00 -4.0806978807e-02 2.8149463977e-02 -4.0806978807e-02 9.0016927753e+00" charge=0 multiplicity=2 method=wB97M-V basis=def2-svpd config_type=oh_radical sample_index=354 temperature=300.0 units=atomic
O         0.0012397760      -0.0018608573       0.1116145853  -3.985545485716e-04   5.963934892809e-04  -1.876719623329e-02
H        -0.0199073744       0.0297975131      -0.8839097467   3.986959930634e-04  -5.970838465601e-04   1.876535998769e-02
2
Properties=species:S:1:pos:R:3:forces:R:3 energy=-7.565378163022e+01 dipole="-3.3947823120e-02 5.0821759789e-02 -6.5844345620e-01" quadrupole="-5.0073520604e+00 4.0277245357e-01 1.0652808627e-01 4.0277245357e-01 -4.3612064025e+00 -8.3818055899e-02 1.0652808627e-01 -8.3818055899e-02 -3.6229170321e+00" polarizability="7.3379265929e+00 -5.2915334062e-01 1.5543762298e-02 -5.2915334062e-01 6.5184472260e+00 -1.2038957092e-01 1.5543762298e-02 -1.2038957092e-01 8.4215793799e+00" charge=0 multiplicity=2 method=wB97M-V basis=def2-svpd config_type=oh_radical sample_index=355 temperature=300.0 units=atomic
O         0.0028703159      -0.0043082367       0.1089133664   1.142452004963e-03  -1.710104270191e-03   2.216739849790e-02
H        -0.0460893378       0.0689868797      -0.8406927187  -1.142237919007e-03   1.709863458130e-03  -2.216453545562e-02
2
Properties=species:S:1:pos:R:3:forces:R:3 energy=-7.565374346584e+01 dipole="1.5430018006e-01 -2.3099630368e-01 -6.1388940145e-01" quadrupole="-4.3548885914e+00 2.9765741076e-01 -3.3497114772e-01 2.9765741076e-01 -4.7905621654e+00 5.7247177505e-01 -3.3497114772e-01 5.7247177505e-01 -3.8418153544e+00" polarizability="6.7295519457e+00 -6.8623637579e-01 -3.2246677836e-01 -6.8623637579e-01 7.5469983756e+00 3.8931129283e-01 -3.2246677836e-01 3.8931129283e-01 8.8124188285e+00" charge=0 multiplicity=2 method=wB97M-V basis=def2-svpd config_type=oh_radical sample_index=356 temperature=300.0 units=atomic
O        -0.0134097823       0.0201275810       0.1065848724   4.792264092685e-03  -7.171782423640e-03  -1.905907436280e-02
H         0.2153240293      -0.3222986837      -0.8034389488  -4.790521345444e-03   7.172847473103e-03   1.906143716071e-02
2
Properties=species:S:1:pos:R:3:forces:R:3 energy=-7.563244976106e+01 dipole="-4.7639305203e-02 7.1318806242e-02 -6.2333242880e-01" quadrupole="-4.4089755992e+00 4.7094691688e-01 1.0883771792e-01 4.7094691688e-01 -4.7469651305e+00 -1.5691641188e-01 1.0883771792e-01 -1.5691641188e-01 -3.7800747034e+00" polarizability="6.4818831966e+00 -5.7022591152e-01 -1.5867052759e-02 -5.7022591152e-01 6.8926212326e+00 1.6638791547e-02 -1.5867052759e-02 1.6638791547e-02 7.1311369591e+00" charge=0 multiplicity=2 method=wB97M-V basis=def2-svpd config_type=oh_radical sample_index=357 temperature=300.0 units=atomic
O         0.0037427435      -0.0056177179       0.1021902373   1.546207012081e-02  -2.314724909243e-02   2.023034009763e-01
H        -0.0600981135       0.0899553243      -0.7331288153  -1.546087096834e-02   2.314545011303e-02  -2.023068872139e-01
2
Properties=species:S:1:pos:R:3:forces:R:3 energy=-7.565019106817e+01 dipole="6.4807197543e-02 -9.7019178742e-02 -6.7692682142e-01" quadrupole="-5.0303557341e+00 -4.6287296875e-01 -9.0616149115e-02 -4.6287296875e-01 -4.4802119222e+00 1.1177907233e-01 -9.0616149115e-02 1.1177907233e-01 -3.4857380679e+00" polarizability="7.5294182116e+00 5.6105402377e-01 -2.9265009765e-01 5.6105402377e-01 6.8407520780e+00 4.7015724701e-01 -2.9265009765e-01 4.7015724701e-01 9.6509207321e+00" charge=0 multiplicity=2 method=wB97M-V basis=def2-svpd config_type=oh_radical sample_index=358 temperature=300.0 units=atomic
O        -0.0057937725       0.0086962355       0.1137759791   5.137783033813e-03  -7.694161053733e-03  -5.367948321083e-02
H         0.0930319675      -0.1392509733      -0.9184900660  -5.139137281881e-03   7.693674840624e-03   5.368109787996e-02
2
Properties=species:S:1:pos:R:3:forces:R:3 energy=-7.564950048698e+01 dipole="6.5465210014e-02 -9.8005301544e-02 -6.7846154885e-01" quadrupole="-5.1504073640e+00 -3.6863809837e-01 -1.1762639043e-01 -3.6863809837e-01 -4.3683745100e+00 1.0724581106e-01 -1.1762639043e-01 1.0724581106e-01 -3.4766967264e+00" polarizability="7.7018901228e+00 4.3328917744e-01 -2.6935390053e-01 4.3328917744e-01 6.7012143184e+00 4.9588798864e-01 -2.6935390053e-01 4.9588798864e-01 9.7470875403e+00" charge=0 multiplicity=2 method=wB97M-V basis=def2-svpd config_type=oh_radical sample_index=359 temperature=300.0 units=atomic
O        -0.0058742779       0.0088170711       0.1141382264   5.527520919953e-03  -8.274622734440e-03  -5.727286431671e-02
H         0.0943246624      -0.1411858891      -0.9242856910  -5.526418308726e-03   8.273930137304e-03   5.727358974682e-02
2
Properties=species:S:1:pos:R:3:forces:R:3 energy=-7.565325038699e+01 dipole="5.3976645368e-02 -8.0805991076e-02 -6.6964148126e-01" quadrupole="-4.3679254257e+00 -3.8282240282e-01 -2.7305377819e-02 -3.8282240282e-01 -5.0834612527e+00 1.6549571346e-01 -2.7305377819e-02 1.6549571346e-01 -3.5470554853e+00" polarizability="6.5848675809e+00 4.6861239185e-01 -2.6626349831e-01 4.6861239185e-01 7.5615173642e+00 2.3388188844e-01 -2.6626349831e-01 2.3388188844e-01 9.1369683051e+00" charge=0 multiplicity=2 method=wB97M-V basis=def2-svpd config_type=oh_radical sample_index=360 temperature=300.0 units=atomic
O        -0.0047199563       0.0070844777       0.1118079087   2.322793503546e-03  -3.477652955633e-03  -2.880534942977e-02
H         0.0757894492      -0.1134422376      -0.8870027427  -2.322108075606e-03   3.476232339244e-03   2.880439863115e-02
2
Properties=species:S:1:pos:R:3:forces:R:3 energy=-7.565419262303e+01 dipole="5.9454016249e-02 -8.9006465941e-02 -6.5702233612e-01" quadrupole="-4.2372154788e+00 -2.5181840777e-01 -3.0823355391e-02 -2.5181840777e-01 -5.1396615241e+00 1.9665426526e-01 -3.0823355391e-02 1.9665426526e-01 -3.6168959640e+00" polarizability="6.3797140825e+00 2.8678463149e-01 -2.4324225743e-01 2.8678463149e-01 7.5813700105e+00 1.6914626973e-01 -2.4324225743e-01 1.6914626973e-01 8.5934894984e+00" charge=0 multiplicity=2 method=wB97M-V basis=def2-svpd config_type=oh_radical sample_index=361 temperature=300.0 units=atomic
O        -0.0050759592       0.0076188247       0.1093371345  -5.062313011140e-04   7.604580511429e-04   5.604904567039e-03
H         0.0815058711      -0.1219986225      -0.8474726209   5.065544908767e-04  -7.584266785047e-04  -5.603490545090e-03
2
Properties=species:S:1:pos:R:3:forces:R:3 energy=-7.565194995443e+01 dipole="1.4392910318e-01 -2.1546930012e-01 -6.3065678346e-01" quadrupole="-5.1921650000e+00 -1.2688176564e-01 -3.6117551055e-01 -1.2688176564e-01 -4.1461707270e+00 2.1919920178e-01 -3.6117551055e-01 2.1919920178e-01 -3.6511294744e+00" polarizability="7.8662059423e+00 -1.1317210770e-01 -3.2557774515e-01 -1.1317210770e-01 6.7060874774e+00 9.1582130978e-01 -3.2557774515e-01 9.1582130978e-01 9.0750061652e+00" charge=0 multiplicity=2 method=wB97M-V basis=def2-svpd config_type=oh_radical sample_index=362 temperature=300.0 units=atomic
O        -0.0127269566       0.0191026852       0.1090078852   9.000182360416e-03  -1.347721838573e-02  -3.944098107416e-02
H         0.2043597363      -0.3058872445      -0.8422049334  -9.001940848781e-03   1.347770835978e-02   3.944609190131e-02
2
Properties=species:S:1:pos:R:3:forces:R:3 energy=-7.563688081915e+01 dipole="-1.6651248726e-01 2.4927945606e-01 -6.4433972000e-01" quadrupole="-5.0900756874e+00 -5.1722293991e-01 2.8457871098e-01 -5.1722293991e-01 -4.3803325142e+00 -3.1725565328e-01 2.8457871098e-01 -3.1725565328e-01 -3.4897243112e+00" polarizability="8.0498164388e+00 2.0362988650e-01 9.0457705646e-01 2.0362988650e-01 7.4927787486e+00 -1.5043843459e+00 9.0457705646e-01 -1.5043843459e+00 1.0429529993e+01" charge=0 multiplicity=2 method=wB97M-V basis=def2-svpd config_type=oh_radical sample_index=363 temperature=300.0 units=atomic
O         0.0156617463      -0.0235076946       0.1138631665  -2.179851200875e-02   3.263052216549e-02  -8.434374550976e-02
H        -0.2514843447       0.3764237253      -0.9198849849   2.179710491793e-02  -3.263087286488e-02   8.434564769371e-02
2
Properties=species:S:1:pos:R:3:forces:R:3 energy=-7.564434027112e+01 dipole="2.1602411464e-01 -3.2339783698e-01 -5.8086374376e-01" quadrupole="-4.7210185678e+00 -6.6816485686e-01 -1.5779946369e-01 -6.6816485686e-01 -4.5535834874e+00 4.5130720967e-01 -1.5779946369e-01 4.5130720967e-01 -3.6910119284e+00" polarizability="7.6462974245e+00 1.4502974966e-01 -1.1323894536e+00 1.4502974966e-01 8.0534644320e+00 1.4016080797e+00 -1.1323894536e+00 1.4016080797e+00 9.2725613314e+00" charge=0 multiplicity=2 method=wB97M-V basis=def2-svpd config_type=oh_radical sample_index=364 temperature=300.0 units=atomic
O        -0.0198209726       0.0297505374       0.1065299995   2.386420537755e-02  -3.572620146296e-02  -6.417002979900e-02
H         0.3182700196      -0.4763890434      -0.8025610336  -2.386560715922e-02   3.572707137878e-02   6.417155706016e-02
2
Properties=species:S:1:pos:R:3:forces:R:3 energy=-7.565202752183e+01 dipole="-1.3078491154e-02 1.9580450752e-02 -6.5373486713e-01" quadrupole="-5.0785842106e+00 3.1757855188e-01 3.9473103016e-02 3.1757855188e-01 -4.2572412799e+00 -2.6599910357e-02 3.9473103016e-02 -2.6599910357e-02 -3.6484666831e+00" polarizability="7.3873990894e+00 -4.0301540013e-01 2.4539746769e-03 -4.0301540013e-01 6.3506235334e+00 -4.4734525098e-02 2.4539746769e-03 -4.4734525098e-02 8.1119999945e+00" charge=0 multiplicity=2 method=wB97M-V basis=def2-svpd config_type=oh_radical sample_index=365 temperature=300.0 units=atomic
O         0.0010884664      -0.0016337473       0.1076430163   1.051363692002e-03  -1.574056417771e-03   5.259583450906e-02
H        -0.0174777614       0.0261608493      -0.8203682824  -1.051752927444e-03   1.574931835469e-03  -5.259532398292e-02
2
Properties=species:S:1:pos:R:3:forces:R:3 energy=-7.565411374211e+01 dipole="-4.7253720022e-02 7.0740914552e-02 -6.6496436739e-01" quadrupole="-4.2371390716e+00 2.0564062917e-01 7.4727956332e-02 2.0564062917e-01 -5.1726552438e+00 -1.9323957814e-01 7.4727956332e-02 -1.9323957814e-01 -3.5872422505e+00" polarizability="6.3848469357e+00 -2.9525428822e-01 1.4499348814e-01 -2.9525428822e-01 7.6295453087e+00 -1.1068175082e-01 1.4499348814e-01 -1.1068175082e-01 8.8451221713e+00" charge=0 multiplicity=2 method=wB97M-V basis=def2-svpd config_type=oh_radical sample_index=366 temperature=300.0 units=atomic
O         0.0040760355      -0.0061179766       0.1106069178  -7.254295682092e-04   1.084744176341e-03  -1.020756856659e-02
H        -0.0654498603       0.0979658606      -0.8677879893   7.253993534017e-04  -1.086664864260e-03   1.020835157860e-02
2
Properties=species:S:1:pos:R:3:forces:R:3 energy=-7.565096129652e+01 dipole="-1.4942994066e-01 2.2370510523e-01 -6.2978136504e-01" quadrupole="-5.1605040381e+00 -3.1160214046e-01 3.0705948168e-01 -3.1160214046e-01 -4.2045543379e+00 -2.1181389039e-01 3.0705948168e-01 -2.1181389039e-01 -3.6229285666e+00" polarizability="7.8625268834e+00 1.0226645405e-01 4.5550924923e-01 1.0226645405e-01 6.8435951895e+00 -1.0137365000e+00 4.5550924923e-01 -1.0137365000e+00 9.1610317137e+00" charge=0 multiplicity=2 method=wB97M-V basis=def2-svpd config_type=oh_radical sample_index=367 temperature=300.0 units=atomic
O         0.0132997322      -0.0199623998       0.1092952196  -1.087448733352e-02   1.627762567210e-02  -4.582443736051e-02
H        -0.2135569281       0.3196536728      -0.8468020197   1.087361481754e-02  -1.627921827703e-02   4.582859945963e-02
2
Properties=species:S:1:pos:R:3:forces:R:3 energy=-7.564961221479e+01 dipole="-1.7507476142e-01 2.6209632054e-01 -6.1195154559e-01" quadrupole="-4.5901315919e+00 -5.9184083928e-01 9.4258240795e-02 -5.9184083928e-01 -4.7355626959e+00 -4.1346401174e-01 9.4258240795e-02 -4.1346401174e-01 -3.6565904759e+00" polarizability="7.2045528803e+00 3.4688214292e-01 8.9944576206e-01 3.4688214292e-01 7.7730675120e+00 -9.7985759435e-01 8.9944576206e-01 -9.7985759435e-01 9.1521613107e+00" charge=0 multiplicity=2 method=wB97M-V basis=def2-svpd config_type=oh_radical sample_index=368 temperature=300.0 units=atomic
O         0.0157004678      -0.0235658141       0.1081179244  -1.464052540038e-02   2.191767078659e-02  -5.117447010833e-02
H        -0.2521061047       0.3773543804      -0.8279663759   1.464076924249e-02  -2.191933878229e-02   5.117777300144e-02
2
Properties=species:S:1:pos:R:3:forces:R:3 energy=-7.565416974926e+01 dipole="-1.4756178596e-01 2.2090906872e-01 -6.1448361144e-01" quadrupole="-4.6062773623e+00 3.8776547488e-01 4.0656899743e-01 3.8776547488e-01 -4.5461524845e+00 -4.7139436120e-01 4.0656899743e-01 -4.7139436120e-01 -3.8342105963e+00" polarizability="7.0163716052e+00 -7.6106155820e-01 1.5978110710e-01 -7.6106155820e-01 7.1494063303e+00 -4.1822499207e-01 1.5978110710e-01 -4.1822499207e-01 8.6323767834e+00" charge=0 multiplicity=2 method=wB97M-V basis=def2-svpd config_type=oh_radical sample_index=369 temperature=300.0 units=atomic
O         0.0127027713      -0.0190663839       0.1061292555  -1.601007221883e-03   2.395597407817e-03  -6.658153921917e-03
H        -0.2039713865       0.3053059594      -0.7961494970   1.598483739498e-03  -2.394313217563e-03   6.660093612339e-03
2
Properties=species:S:1:pos:R:3:forces:R:3 energy=-7.562539124504e+01 dipole="-1.8978977417e-01 2.8412630728e-01 -6.3980883723e-01" quadrupole="-5.2430930297e+00 -3.2448850993e-01 4.9381628980e-01 -3.2448850993e-01 -4.1875257180e+00 -3.8987365637e-01 4.9381628980e-01 -3.8987365637e-01 -3.4949729765e+00" polarizability="8.5282772370e+00 -3.0606733071e-01 9.9382038710e-01 -3.0606733071e-01 7.6821193320e+00 -1.9762310312e+00 9.9382038710e-01 -1.9762310312e+00 1.1164339803e+01" charge=0 multiplicity=2 method=wB97M-V basis=def2-svpd config_type=oh_radical sample_index=370 temperature=300.0 units=atomic
O         0.0184201930      -0.0276480198       0.1153605275  -2.781721925129e-02   4.164905611540e-02  -9.378405839367e-02
H        -0.2957773727       0.4427218745      -0.9438413885   2.781991109126e-02  -4.164939733203e-02   9.378751062811e-02
2
Properties=species:S:1:pos:R:3:forces:R:3 energy=-7.563821799302e+01 dipole="6.8597482969e-02 -1.0269257298e-01 -6.2193743334e-01" quadrupole="-4.1067632009e+00 1.3424138131e-01 -7.0310503023e-02 1.3424138131e-01 -5.0564694709e+00 2.4367228983e-01 -7.0310503023e-02 2.4367228983e-01 -3.7832378485e+00" polarizability="6.1434496472e+00 -1.9226557675e-01 -9.6483662310e-02 -1.9226557675e-01 7.3085546575e+00 -2.1624424307e-02 -9.6483662310e-02 -2.1624424307e-02 7.2989406712e+00" charge=0 multiplicity=2 method=wB97M-V basis=def2-svpd config_type=oh_radical sample_index=371 temperature=300.0 units=atomic
O        -0.0054520079       0.0081832596       0.1026513318  -1.817607562852e-02   2.721164442150e-02   1.648013115522e-01
H         0.0875441733      -0.1310368002      -0.7405059038   1.817592202942e-02  -2.721044161416e-02  -1.647995757593e-01
2
Properties=species:S:1:pos:R:3:forces:R:3 energy=-7.565358969369e+01 dipole="-7.5795077775e-02 1.1346948855e-01 -6.4585065201e-01" quadrupole="-4.1648060787e+00 -1.0132001901e-01 5.4449456317e-02 -1.0132001901e-01 -5.1524727131e+00 -2.6976329041e-01 5.4449456317e-02 -2.6976329041e-01 -3.6708177472e+00" polarizability="6.2849190469e+00 7.0439465284e-02 2.5804625826e-01 7.0439465284e-02 7.5989470945e+00 -1.4518127477e-01 2.5804625826e-01 -1.4518127477e-01 8.3224647049e+00" charge=0 multiplicity=2 method=wB97M-V basis=def2-svpd config_type=oh_radical sample_index=372 temperature=300.0 units=atomic
O         0.0063920061      -0.0095941617       0.1077038044   3.093017551208e-03  -4.628157856762e-03   2.633861717265e-02
H        -0.1026379449       0.1536292752      -0.8213408365  -3.090440906606e-03   4.626780161728e-03  -2.633694581284e-02
2
Properties=species:S:1:pos:R:3:forces:R:3 energy=-7.564887834629e+01 dipole="-9.0316549007e-02 1.3520676198e-01 -6.2648646414e-01" quadrupole="-4.1775011384e+00 2.1690458982e-01 1.2829407488e-01 2.1690458982e-01 -5.0223432106e+00 -3.3555019036e-01 1.2829407488e-01 -3.3555019036e-01 -3.7704478643e+00" polarizability="6.2784769806e+00 -3.3875186182e-01 1.4925514699e-01 -3.3875186182e-01 7.3859841003e+00 -4.5007259563e-02 1.4925514699e-01 -4.5007259563e-02 7.7896451311e+00" charge=0 multiplicity=2 method=wB97M-V basis=def2-svpd config_type=oh_radical sample_index=373 temperature=300.0 units=atomic
O         0.0073999914      -0.0111071099       0.1045579450   1.213537306489e-02  -1.816640273618e-02   8.417538307724e-02
H        -0.1188234024       0.1778557939      -0.7710099691  -1.213457571658e-02   1.816721223055e-02  -8.417689024052e-02
2
Properties=species:S:1:pos:R:3:forces:R:3 energy=-7.565420429098e+01 dipole="9.4031969362e-02 -1.4077161733e-01 -6.4680543546e-01" quadrupole="-4.1766778450e+00 -5.5474725069e-02 -8.6014577093e-02 -5.5474725069e-02 -5.1556204495e+00 3.5179344761e-01 -8.6014577093e-02 3.5179344761e-01 -3.6605798575e+00" polarizability="6.3514280647e+00 -3.0174778512e-02 -3.4633716621e-01 -3.0174778512e-02 7.7115639018e+00 2.2790769388e-01 -3.4633716621e-01 2.2790769388e-01 8.6789676011e+00" charge=0 multiplicity=2 method=wB97M-V basis=def2-svpd config_type=oh_radical sample_index=374 temperature=300.0 units=atomic
O        -0.0080794490       0.0121269503       0.1088162771   6.167722070582e-04  -9.260105936268e-04  -4.259665329422e-03
H         0.1297336130      -0.1941862821      -0.8391393800  -6.189751680937e-04   9.267002376051e-04   4.257772717515e-03
2
Properties=species:S:1:pos:R:3:forces:R:3 energy=-7.565235331896e+01 dipole="5.6874199849e-02 -8.5142819395e-02 -6.7266132837e-01" quadrupole="-4.5027308736e+00 -4.7386109349e-01 -3.0477788624e-02 -4.7386109349e-01 -4.9713702585e+00 1.5464858067e-01 -3.0477788624e-02 1.5464858067e-01 -3.5242635750e+00" polarizability="6.7819862013e+00 5.8681629163e-01 -2.9445701056e-01 5.8681629163e-01 7.4411945696e+00 2.9579276972e-01 -2.9445701056e-01 2.9579276972e-01 9.3237092166e+00" charge=0 multiplicity=2 method=wB97M-V basis=def2-svpd config_type=oh_radical sample_index=375 temperature=300.0 units=atomic
O        -0.0050138611       0.0075256177       0.1125543806   3.268478863430e-03  -4.897422988443e-03  -3.867752620254e-02
H         0.0805087474      -0.1205061199      -0.8989456091  -3.270109484386e-03   4.895812792851e-03   3.867826461011e-02
2
Properties=species:S:1:pos:R:3:forces:R:3 energy=-7.565408582776e+01 dipole="1.7321569977e-01 -2.5931388067e-01 -5.8611341377e-01" quadrupole="-4.3881637096e+00 3.0637650545e-01 -3.9141248723e-01 3.0637650545e-01 -4.6215447070e+00 5.7675821866e-01 -3.9141248723e-01 5.7675821866e-01 -3.9688827103e+00" polarizability="6.7613507748e+00 -7.2203735120e-01 -2.1043341150e-01 -7.2203735120e-01 7.3333226540e+00 3.2686244487e-01 -2.1043341150e-01 3.2686244487e-01 8.3475712542e+00" charge=0 multiplicity=2 method=wB97M-V basis=def2-svpd config_type=oh_radical sample_index=376 temperature=300.0 units=atomic
O        -0.0147309790       0.0221106477       0.1030669946  -3.173996966161e-03   4.745519421854e-03   1.073221426481e-02
H         0.2365387954      -0.3540531107      -0.7471561277   3.171976995258e-03  -4.746081801556e-03  -1.072896608999e-02
2
Properties=species:S:1:pos:R:3:forces:R:3 energy=-7.562419915265e+01 dipole="1.9127925921e-01 -2.8635611339e-01 -6.3994828032e-01" quadrupole="-5.2491317413e+00 -2.9644153519e-01 -5.1555729778e-01 -2.9644153519e-01 -4.1754762725e+00 4.0125721857e-01 -5.1555729778e-01 4.0125721857e-01 -3.4971939827e+00" polarizability="8.5612529676e+00 -3.6644323588e-01 -9.9771401898e-01 -3.6644323588e-01 7.7062606729e+00 2.0121410599e+00 -9.9771401898e-01 2.0121410599e+00 1.1249212214e+01" charge=0 multiplicity=2 method=wB97M-V basis=def2-svpd config_type=oh_radical sample_index=377 temperature=300.0 units=atomic
O        -0.0186203777       0.0279484895       0.1155609234   2.822730325328e-02  -4.226451780042e-02  -9.444735913057e-02
H         0.2989917852      -0.4475332321      -0.9470475389  -2.823052605605e-02   4.226423970378e-02   9.445121420362e-02
2
Properties=species:S:1:pos:R:3:forces:R:3 energy=-7.563423780048e+01 dipole="6.4749775847e-02 -9.6934432801e-02 -7.0471092739e-01" quadrupole="-5.3431612779e+00 1.0854502788e-01 -2.1261360574e-01 1.0854502788e-01 -4.3152069753e+00 1.6448709743e-01 -2.1261360574e-01 1.6448709743e-01 -3.3067204476e+00" polarizability="8.1360401864e+00 -2.3045028308e-01 -2.7758781550e-01 -2.3045028308e-01 6.7772351494e+00 6.2874371222e-01 -2.7758781550e-01 6.2874371222e-01 1.1390142002e+01" charge=0 multiplicity=2 method=wB97M-V basis=def2-svpd config_type=oh_radical sample_index=378 temperature=300.0 units=atomic
O        -0.0061375200       0.0092121876       0.1200775755   8.788114271589e-03  -1.315643987730e-02  -9.564222028793e-02
H         0.0985516024      -0.1475128059      -1.0193098337  -8.787317662644e-03   1.315694444925e-02   9.564215880607e-02
2
Properties=species:S:1:pos:R:3:forces:R:3 energy=-7.565147693211e+01 dipole="2.4746478527e-02 -3.7045959797e-02 -6.8186565468e-01" quadrupole="-4.3598737135e+00 3.4111543070e-01 -5.2820864082e-02 3.4111543070e-01 -5.1476310751e+00 1.0650160377e-01 -5.2820864082e-02 1.0650160377e-01 -3.4916765581e+00" polarizability="6.5798271195e+00 -4.6420695282e-01 -8.2393201989e-02 -4.6420695282e-01 7.6392659799e+00 8.6689553694e-02 -8.2393201989e-02 8.6689553694e-02 9.5372500600e+00" charge=0 multiplicity=2 method=wB97M-V basis=def2-svpd config_type=oh_radical sample_index=379 temperature=300.0 units=atomic
O        -0.0021953148       0.0032950853       0.1137484867   1.676464141784e-03  -2.509346015260e-03  -4.619539598468e-02
H         0.0352506859      -0.0527635011      -0.9180502121  -1.676242118423e-03   2.510101409933e-03   4.619822806510e-02
2
Properties=species:S:1:pos:R:3:forces:R:3 energy=-7.564617824460e+01 dipole="-8.6812837041e-02 1.2996357054e-01 -6.7789064336e-01" quadrupole="-5.2631373041e+00 -2.0954693656e-01 2.0733250618e-01 -2.0954693656e-01 -4.2677732967e+00 -1.5282480842e-01 2.0733250618e-01 -1.5282480842e-01 -3.4581580257e+00" polarizability="7.9333237978e+00 1.6519968407e-01 3.3024064262e-01 1.6519968407e-01 6.6796353895e+00 -7.0848113731e-01 3.3024064262e-01 -7.0848113731e-01 1.0086628613e+01" charge=0 multiplicity=2 method=wB97M-V basis=def2-svpd config_type=oh_radical sample_index=380 temperature=300.0 units=atomic
O         0.0079083921      -0.0118702004       0.1150161513  -8.937082715260e-03   1.338040511441e-02  -6.978663070466e-02
H        -0.1269869127       0.1900749996      -0.9383316843   8.936461586126e-03  -1.337951015377e-02   6.978685446706e-02
2
Properties=species:S:1:pos:R:3:forces:R:3 energy=-7.565338055588e+01 dipole="2.1363458938e-02 -3.1984012658e-02 -6.5791140508e-01" quadrupole="-5.0894190798e+00 3.2110301864e-01 -6.5401407319e-02 3.2110301864e-01 -4.2734159617e+00 4.5286793169e-02 -6.5401407319e-02 4.5286793169e-02 -3.6268492692e+00" polarizability="7.4272100651e+00 -4.1492015048e-01 -9.1294477370e-03 -4.1492015048e-01 6.3884367096e+00 8.0892943376e-02 -9.1294477370e-03 8.0892943376e-02 8.3252996450e+00" charge=0 multiplicity=2 method=wB97M-V basis=def2-svpd config_type=oh_radical sample_index=381 temperature=300.0 units=atomic
O        -0.0017974112       0.0026978469       0.1085920753  -1.014005883586e-03   1.518223752969e-03   3.126546258611e-02
H         0.0288614548      -0.0432000503      -0.8355523555   1.014544764694e-03  -1.519394338992e-03  -3.126215425216e-02
2
Properties=species:S:1:pos:R:3:forces:R:3 energy=-7.562925790538e+01 dipole="2.3594763110e-01 -3.5322334589e-01 -5.8218363182e-01" quadrupole="-4.8493437581e+00 -7.1826098925e-01 -2.6241399529e-01 -7.1826098925e-01 -4.4452236470e+00 5.0879921255e-01 -2.6241399529e-01 5.0879921255e-01 -3.6314019151e+00" polarizability="8.1911759696e+00 -1.2524167088e-01 -1.4575226139e+00 -1.2524167088e-01 8.5615757718e+00 2.0202666813e+00 -1.4575226139e+00 2.0202666813e+00 1.0158601544e+01" charge=0 multiplicity=2 method=wB97M-V basis=def2-svpd config_type=oh_radical sample_index=382 temperature=300.0 units=atomic
O        -0.0226723568       0.0340303584       0.1091852343   3.366229855563e-02  -5.038822367136e-02  -8.305212911593e-02
H         0.3640553672      -0.5449209082      -0.8450423567  -3.366098718596e-02   5.038915688698e-02   8.305283398889e-02
2
Properties=species:S:1:pos:R:3:forces:R:3 energy=-7.565405109638e+01 dipole="1.1169185913e-03 -1.6721130154e-03 -6.6350376600e-01" quadrupole="-5.0277229959e+00 4.0350918569e-01 -3.5341013808e-03 4.0350918569e-01 -4.3670129897e+00 2.7820874668e-03 -3.5341013808e-03 2.7820874668e-03 -3.5991876596e+00" polarizability="7.3667916751e+00 -5.2041027374e-01 -6.5141305470e-04 -5.2041027374e-01 6.5146922534e+00 4.2269480267e-03 -6.5141305470e-04 4.2269480267e-03 8.5354234884e+00" charge=0 multiplicity=2 method=wB97M-V basis=def2-svpd config_type=oh_radical sample_index=383 temperature=300.0 units=atomic
O        -0.0000949046       0.0001424482       0.1096208633  -2.294659456558e-05   3.431400534332e-05   1.366111716354e-02
H         0.0015239048      -0.0022809926      -0.8520120207   2.296590334460e-05  -3.438390663138e-05  -1.366035373330e-02
2
Properties=species:S:1:pos:R:3:forces:R:3 energy=-7.565075015321e+01 dipole="-9.0816434947e-02 1.3595732531e-01 -6.6563634765e-01" quadrupole="-4.3295477747e+00 -3.3697900337e-01 5.8045824582e-02 -3.3697900337e-01 -5.1242186582e+00 -3.0623270836e-01 5.8045824582e-02 -3.0623270836e-01 -3.5411266518e+00" polarizability="6.6199863916e+00 3.3449809462e-01 4.8339174970e-01 3.3449809462e-01 7.7820833607e+00 -4.2966264984e-01 4.8339174970e-01 -4.2966264984e-01 9.5085042922e+00" charge=0 multiplicity=2 method=wB97M-V basis=def2-svpd config_type=oh_radical sample_index=384 temperature=300.0 units=atomic
O         0.0080932133      -0.0121476101       0.1125726803  -6.778632494070e-03   1.015167588383e-02  -4.969614494965e-02
H        -0.1299546307       0.1945171031      -0.8992383873   6.779850413070e-03  -1.015086752695e-02   4.969704061982e-02
2
Properties=species:S:1:pos:R:3:forces:R:3 energy=-7.565192320176e+01 dipole="8.9417939102e-02 -1.3386389673e-01 -6.6262781363e-01" quadrupole="-4.2675868012e+00 -2.5061177807e-01 -6.3440997589e-02 -2.5061177807e-01 -5.1626254784e+00 3.1772187365e-01 -6.3440997589e-02 3.1772187365e-01 -3.5656542073e+00" polarizability="6.5185296491e+00 2.2500073224e-01 -4.4333718400e-01 2.2500073224e-01 7.8020137365e+00 3.6673047155e-01 -4.4333718400e-01 3.6673047155e-01 9.3331454724e+00" charge=0 multiplicity=2 method=wB97M-V basis=def2-svpd config_type=oh_radical sample_index=385 temperature=300.0 units=atomic
O        -0.0079083452       0.0118701300       0.1118559493   5.619452542340e-03  -8.414136960529e-03  -4.165128960688e-02
H         0.1269861598      -0.1900738728      -0.8877713484  -5.620583518674e-03   8.414973276703e-03   4.165296565406e-02
2
Properties=species:S:1:pos:R:3:forces:R:3 energy=-7.560404295084e+01 dipole="-2.4780106176e-01 3.7096894689e-01 -6.0028183778e-01" quadrupole="-4.5502903397e+00 7.8416421286e-02 7.3933753776e-01 7.8416421286e-02 -4.4096805324e+00 -9.7956778818e-01 7.3933753776e-01 -9.7956778818e-01 -3.8810498971e+00" polarizability="8.2730717914e+00 -1.6847905156e+00 1.4660868704e+00 -1.6847905156e+00 9.3789697179e+00 -2.3746283751e+00 1.4660868704e+00 -2.3746283751e+00 1.2274128025e+01" charge=0 multiplicity=2 method=wB97M-V basis=def2-svpd config_type=oh_radical sample_index=386 temperature=300.0 units=atomic
O         0.0252817240      -0.0379469209       0.1145041870  -3.836706311776e-02   5.743711765954e-02  -9.293967047306e-02
H        -0.4059545907       0.6076359922      -0.9301407249   3.836886232353e-02  -5.743917823371e-02   9.294572405433e-02
2
Properties=species:S:1:pos:R:3:forces:R:3 energy=-7.564789020687e+01 dipole="-4.5953831868e-02 6.8795831766e-02 -6.4026178512e-01" quadrupole="-4.5449454813e+00 4.9782320467e-01 1.1977241724e-01 4.9782320467e-01 -4.7137189577e+00 -1.5307256867e-01 1.1977241724e-01 -1.5307256867e-01 -3.7119961308e+00" polarizability="6.6954555923e+00 -6.3365111393e-01 7.8196300478e-03 -6.3365111393e-01 6.9188201780e+00 -4.4162095640e-02 7.8196300478e-03 -4.4162095640e-02 7.7477893661e+00" charge=0 multiplicity=2 method=wB97M-V basis=def2-svpd config_type=oh_radical sample_index=387 temperature=300.0 units=atomic
O         0.0037510425      -0.0056301743       0.1054920869   6.831090440827e-03  -1.022919210888e-02   9.518857002915e-02
H        -0.0602313714       0.0901547857      -0.7859553820  -6.830894676404e-03   1.022671569465e-02  -9.518810284609e-02
2
Properties=species:S:1:pos:R:3:forces:R:3 energy=-7.565154505002e+01 dipole="7.2865454691e-02 -1.0908200362e-01 -6.7039640754e-01" quadrupole="-4.5596264118e+00 -5.0340842782e-01 -4.2467358360e-02 -5.0340842782e-01 -4.9165712749e+00 1.8953297138e-01 -4.2467358360e-02 1.8953297138e-01 -3.5207648491e+00" polarizability="6.8891602401e+00 5.9888964729e-01 -3.8484727790e-01 5.9888964729e-01 7.4267529041e+00 4.0787523420e-01 -3.8484727790e-01 4.0787523420e-01 9.4251931647e+00" charge=0 multiplicity=2 method=wB97M-V basis=def2-svpd config_type=oh_radical sample_index=388 temperature=300.0 units=atomic
O        -0.0064611214       0.0096979012       0.1127006183   4.882528401838e-03  -7.314709651300e-03  -4.494311121324e-02
H         0.1037477464      -0.1552904346      -0.9012852792  -4.884832352492e-03   7.313089980803e-03   4.494460160100e-02
2
Properties=species:S:1:pos:R:3:forces:R:3 energy=-7.562639410757e+01 dipole="-1.1539376796e-01 1.7275328685e-01 -6.9370363712e-01" quadrupole="-5.1074714098e+00 -5.1083153106e-01 2.0534763416e-01 -5.1083153106e-01 -4.5456390162e+00 -2.7291442263e-01 2.0534763416e-01 -2.7291442263e-01 -3.2864952048e+00" polarizability="8.0083524252e+00 4.3578270188e-01 8.1296939034e-01 4.3578270188e-01 7.4537693209e+00 -1.2651868278e+00 8.1296939034e-01 -1.2651868278e+00 1.1792870232e+01" charge=0 multiplicity=2 method=wB97M-V basis=def2-svpd config_type=oh_radical sample_index=389 temperature=300.0 units=atomic
O         0.0111712888      -0.0167676861       0.1204375354  -1.680747614953e-02   2.516521965447e-02  -1.010517937979e-01
H        -0.1793800124       0.2684973993      -1.0250688615   1.680760158572e-02  -2.516542682041e-02   1.010520937573e-01
2
Properties=species:S:1:pos:R:3:forces:R:3 energy=-7.565326100057e+01 dipole="-1.5417354021e-01 2.3080591738e-01 -5.9712551048e-01" quadrupole="-4.3068026487e+00 2.9588174394e-01 3.0901528257e-01 2.9588174394e-01 -4.7553154923e+00 -5.4108503720e-01 3.0901528257e-01 -5.4108503720e-01 -3.9148822511e+00" polarizability="6.5826197050e+00 -6.1726244197e-01 2.0597291899e-01 -6.1726244197e-01 7.3538077976e+00 -2.0816963043e-01 2.0597291899e-01 -2.0816963043e-01 8.1709811281e+00" charge=0 multiplicity=2 method=wB97M-V basis=def2-svpd config_type=oh_radical sample_index=390 temperature=300.0 units=atomic
O         0.0129550649      -0.0194450672       0.1033986989   7.871726124597e-03  -1.178518487697e-02   3.049121035103e-02
H        -0.2080225251       0.3113697353      -0.7524630936  -7.871923650270e-03   1.178343942697e-02  -3.048517148001e-02
2
Properties=species:S:1:pos:R:3:forces:R:3 energy=-7.563721651805e+01 dipole="-1.3155379990e-01 1.9694480657e-01 -6.6952979228e-01" quadrupole="-4.5853366337e+00 -5.3605254177e-01 1.1042636552e-01 -5.3605254177e-01 -4.9442742830e+00 -4.0155905587e-01 1.1042636552e-01 -4.0155905587e-01 -3.4364841503e+00" polarizability="7.2204780279e+00 4.2282515204e-01 9.0870282454e-01 4.2282515204e-01 7.9794369666e+00 -1.0340196756e+00 9.0870282454e-01 -1.0340196756e+00 1.0729525815e+01" charge=0 multiplicity=2 method=wB97M-V basis=def2-svpd config_type=oh_radical sample_index=391 temperature=300.0 units=atomic
O         0.0123611422      -0.0185536114       0.1161767070  -1.713003685086e-02   2.564576963832e-02  -8.718506571847e-02
H        -0.1984857679       0.2970950428      -0.9568995131   1.713025857275e-02  -2.564748885273e-02   8.718640852359e-02
2
Properties=species:S:1:pos:R:3:forces:R:3 energy=-7.565367775579e+01 dipole="-2.2307608536e-02 3.3396766293e-02 -6.5939447716e-01" quadrupole="-5.0487590817e+00 3.7123975155e-01 6.9582490135e-02 3.7123975155e-01 -4.3230835880e+00 -5.1815457929e-02 6.9582490135e-02 -5.1815457929e-02 -3.6193555720e+00" polarizability="7.3832615764e+00 -4.8110772918e-01 1.0078552322e-02 -4.8110772918e-01 6.4572393187e+00 -8.2194695571e-02 1.0078552322e-02 -8.2194695571e-02 8.3969836835e+00" charge=0 multiplicity=2 method=wB97M-V basis=def2-svpd config_type=oh_radical sample_index=392 temperature=300.0 units=atomic
O         0.0018834204      -0.0028269435       0.1089127344   8.390303313211e-04  -1.256114781583e-03   2.483044257939e-02
H        -0.0302425242       0.0452672456      -0.8406826085  -8.393497718502e-04   1.256921701070e-03  -2.482708372826e-02
2
Properties=species:S:1:pos:R:3:forces:R:3 energy=-7.565255800091e+01 dipole="-7.9697160860e-03 1.1931625467e-02 -6.5563964751e-01" quadrupole="-5.1168649232e+00 2.7135461288e-01 2.3707306571e-02 2.7135461288e-01 -4.2300803760e+00 -1.5255074985e-02 2.3707306571e-02 -1.5255074985e-02 -3.6393917487e+00" polarizability="7.4433014278e+00 -3.4485763066e-01 2.7415022989e-03 -3.4485763066e-01 6.3188208291e+00 -2.9770381004e-02 2.7415022989e-03 -2.9770381004e-02 8.1844781282e+00" charge=0 multiplicity=2 method=wB97M-V basis=def2-svpd config_type=oh_radical sample_index=393 temperature=300.0 units=atomic
O         0.0006657074      -0.0009992018       0.1080029140   5.493041376168e-04  -8.218816030476e-04   4.520821596998e-02
H        -0.0106894199       0.0160000069      -0.8261263154  -5.492168771097e-04   8.224082016451e-04  -4.520638627622e-02
2
Properties=species:S:1:pos:R:3:forces:R:3 energy=-7.565395489933e+01 dipole="-8.7183467596e-02 1.3051855465e-01 -6.4372181342e-01" quadrupole="-4.1610579636e+00 -1.9339397061e-02 8.0799669648e-02 -1.9339397061e-02 -5.1475110113e+00 -3.2418197565e-01 8.0799669648e-02 -3.2418197565e-01 -3.6808116716e+00" polarizability="6.3009278832e+00 -5.6348963211e-02 2.8534640926e-01 -5.6348963211e-02 7.6380808647e+00 -1.6552396271e-01 2.8534640926e-01 -1.6552396271e-01 8.4199462506e+00" charge=0 multiplicity=2 method=wB97M-V basis=def2-svpd config_type=oh_radical sample_index=394 temperature=300.0 units=atomic
O         0.0073927009      -0.0110961672       0.1078222054   2.261029173856e-03  -3.384901468982e-03   1.668948473426e-02
H        -0.1187063382       0.1776805713      -0.8232351425  -2.259610612031e-03   3.383466987036e-03  -1.668775858256e-02
2
Properties=species:S:1:pos:R:3:forces:R:3 energy=-7.564747097058e+01 dipole="8.3689946923e-02 -1.2528717250e-01 -6.7653940567e-01" quadrupole="-5.2375712262e+00 -2.5589812102e-01 -1.8630565889e-01 -2.5589812102e-01 -4.2846605659e+00 1.4169114421e-01 -1.8630565889e-01 1.4169114421e-01 -3.4691523797e+00" polarizability="7.8756852977e+00 2.3846127279e-01 -3.2046658241e-01 2.3846127279e-01 6.6744993534e+00 6.6558653779e-01 -3.2046658241e-01 6.6558653779e-01 9.9464270995e+00" charge=0 multiplicity=2 method=wB97M-V basis=def2-svpd config_type=oh_radical sample_index=395 temperature=300.0 units=atomic
O        -0.0075821829       0.0113805726       0.1145546656   8.088000330287e-03  -1.211269218544e-02  -6.539843679471e-02
H         0.1217488949      -0.1822346939      -0.9309483370  -8.089509641268e-03   1.211120949407e-02   6.539854899751e-02
2
Properties=species:S:1:pos:R:3:forces:R:3 energy=-7.564985950487e+01 dipole="-1.2616917559e-01 1.8888344609e-01 -6.4915216118e-01" quadrupole="-5.2227688255e+00 -1.5541355150e-02 3.5315784412e-01 -1.5541355150e-02 -4.1766354785e+00 -2.2799419821e-01 3.5315784412e-01 -2.2799419821e-01 -3.5907756509e+00" polarizability="7.9071130332e+00 -2.1108787978e-01 3.0537071323e-01 -2.1108787978e-01 6.6926320658e+00 -8.6144467022e-01 3.0537071323e-01 -8.6144467022e-01 9.4842415608e+00" charge=0 multiplicity=2 method=wB97M-V basis=def2-svpd config_type=oh_radical sample_index=396 temperature=300.0 units=atomic
O         0.0113000104      -0.0169608924       0.1113894273  -1.032322724323e-02   1.545864975857e-02  -5.312140733079e-02
H        -0.1814469260       0.2715911716      -0.8803074249   1.032404168489e-02  -1.545786582383e-02   5.312219885138e-02
2
Properties=species:S:1:pos:R:3:forces:R:3 energy=-7.565279793265e+01 dipole="1.0087719826e-01 -1.5101711521e-01 -6.3101579971e-01" quadrupole="-4.2888154342e+00 3.2436027440e-01 -1.9316976111e-01 3.2436027440e-01 -4.9367911716e+00 3.7986528335e-01 -1.9316976111e-01 3.7986528335e-01 -3.7565684560e+00" polarizability="6.4613257076e+00 -5.1214209825e-01 -1.5887933625e-01 -5.1214209825e-01 7.3676263957e+00 1.2253827531e-01 -1.5887933625e-01 1.2253827531e-01 8.1671069953e+00" charge=0 multiplicity=2 method=wB97M-V basis=def2-svpd config_type=oh_radical sample_index=397 temperature=300.0 units=atomic
O        -0.0084416765       0.0126706402       0.1060373192  -6.385534487871e-03   9.554989355820e-03   3.992912737454e-02
H         0.1355499850      -0.2028922730      -0.7946786003   6.383249046852e-03  -9.555825460341e-03  -3.992728763835e-02
2
Properties=species:S:1:pos:R:3:forces:R:3 energy=-7.565091886768e+01 dipole="-6.5089114754e-02 9.7441696627e-02 -6.4069418807e-01" quadrupole="-4.1391434653e+00 -7.5122515741e-02 4.3961875313e-02 -7.5122515741e-02 -5.1397268079e+00 -2.2743677920e-01 4.3961875313e-02 -2.2743677920e-01 -3.6995946201e+00" polarizability="6.2184682115e+00 5.5994083704e-02 1.8863621720e-01 5.5994083704e-02 7.5065655424e+00 -7.9434782427e-02 1.8863621720e-01 -7.9434782427e-02 7.9602026130e+00" charge=0 multiplicity=2 method=wB97M-V basis=def2-svpd config_type=oh_radical sample_index=398 temperature=300.0 units=atomic
O         0.0053824735      -0.0080788911       0.1062143255   6.605766055166e-03  -9.890865665136e-03   6.501944202323e-02
H        -0.0864276430       0.1293655689      -0.7975105388  -6.605090318450e-03   9.888206493779e-03  -6.502246355912e-02
2
Properties=species:S:1:pos:R:3:forces:R:3 energy=-7.564760130560e+01 dipole="-1.5270460911e-01 2.2860638113e-01 -6.3596743964e-01" quadrupole="-5.1192941151e+00 -4.2337206185e-01 2.7355852848e-01 -4.2337206185e-01 -4.2908510855e+00 -2.3783484604e-01 2.7355852848e-01 -2.3783484604e-01 -3.5733282176e+00" polarizability="7.8816108941e+00 2.1415559344e-01 6.0800907978e-01 2.1415559344e-01 7.0574622568e+00 -1.1426423097e+00 6.0800907978e-01 -1.1426423097e+00 9.5364527583e+00" charge=0 multiplicity=2 method=wB97M-V basis=def2-svpd config_type=oh_radical sample_index=399 temperature=300.0 units=atomic
O         0.0138268779      -0.0207536258       0.1108328762  -1.465558999553e-02   2.194143670491e-02  -6.103599303993e-02
H        -0.2220214310       0.3323234067      -0.8714031168   1.465619157395e-02  -2.194129161239e-02   6.103813434261e-02
2
Properties=species:S:1:pos:R:3:forces:R:3 energy=-7.565023467690e+01 dipole="-8.8207927229e-02 1.3205230182e-01 -6.6818463601e-01" quadrupole="-4.4725724952e+00 -4.6349079003e-01 5.1210904309e-02 -4.6349079003e-01 -5.0026247896e+00 -2.5732184777e-01 5.1210904309e-02 -2.5732184777e-01 -3.5194162901e+00" polarizability="6.8141939304e+00 5.1021340782e-01 4.8706949305e-01 5.1021340782e-01 7.6190043596e+00 -4.8650794688e-01 4.8706949305e-01 -4.8650794688e-01 9.5794907126e+00" charge=0 multiplicity=2 method=wB97M-V basis=def2-svpd config_type=oh_radical sample_index=400 temperature=300.0 units=atomic
O         0.0078839561      -0.0118335229       0.1129772616  -6.962356041226e-03   1.042490388322e-02  -5.275687631717e-02
H        -0.1265945384       0.1894876908      -0.9057113175   6.963908124829e-03  -1.042657572340e-02   5.275825471040e-02
2
Properties=species:S:1:pos:R:3:forces:R:3 energy=-7.565353501735e+01 dipole="-3.6155161355e-03 5.4124924940e-03 -6.7510262402e-01" quadrupole="-4.2600245095e+00 -2.2488859921e-01 2.4491973300e-03 -2.2488859921e-01 -5.2055656556e+00 -1.2740908608e-02 2.4491973300e-03 -1.2740908608e-02 -3.5340233978e+00" polarizability="6.4123705561e+00 2.9628188289e-01 1.6811110366e-02 2.9628188289e-01 7.6589082530e+00 -1.3201550686e-02 1.6811110366e-02 -1.3201550686e-02 9.1074576104e+00" charge=0 multiplicity=2 method=wB97M-V basis=def2-svpd config_type=oh_radical sample_index=401 temperature=300.0 units=atomic
O         0.0003151079      -0.0004729652       0.1120919757  -1.327399874725e-04   1.983823209567e-04  -2.478862666765e-02
H        -0.0050597622       0.0075734914      -0.8915475544   1.327474596388e-04  -1.988287931678e-04   2.478906372042e-02
2
Properties=species:S:1:pos:R:3:forces:R:3 energy=-7.565273040340e+01 dipole="-3.7426323087e-02 5.6031220922e-02 -6.5292140334e-01" quadrupole="-5.0657420101e+00 3.2867850565e-01 1.1397501035e-01 3.2867850565e-01 -4.2714167349e+00 -7.9057784311e-02 1.1397501035e-01 -7.9057784311e-02 -3.6492000826e+00" polarizability="7.3900761148e+00 -4.3123295924e-01 1.0059067769e-02 -4.3123295924e-01 6.3923780307e+00 -1.3136373518e-01 1.0059067769e-02 -1.3136373518e-01 8.1993262694e+00" charge=0 multiplicity=2 method=wB97M-V basis=def2-svpd config_type=oh_radical sample_index=402 temperature=300.0 units=atomic
O         0.0031303414      -0.0046985252       0.1078473988   2.428163047096e-03  -3.635880760688e-03   4.237704504180e-02
H        -0.0502646288       0.0752364878      -0.8236382142  -2.428253304152e-03   3.636024763823e-03  -4.237612091088e-02
2
Properties=species:S:1:pos:R:3:forces:R:3 energy=-7.565422362125e+01 dipole="-1.1333530166e-02 1.6966749731e-02 -6.6701626726e-01" quadrupole="-4.8497582811e+00 5.0193105532e-01 3.5510169678e-02 5.0193105532e-01 -4.5667795726e+00 -3.5372306453e-02 3.5510169678e-02 -3.5372306453e-02 -3.5799564522e+00" polarizability="7.1551248988e+00 -6.5373128453e-01 9.9183479343e-03 -6.5373128453e-01 6.7886127578e+00 -3.7956844741e-02 9.9183479343e-03 -3.7956844741e-02 8.7163321324e+00" charge=0 multiplicity=2 method=wB97M-V basis=def2-svpd config_type=oh_radical sample_index=403 temperature=300.0 units=atomic
O         0.0009711066      -0.0014575947       0.1103999242  -1.408356351804e-06   2.034623758980e-06  -1.030948940417e-04
H        -0.0155932875       0.0233401541      -0.8644762813   2.019232043377e-06  -2.958396277924e-06   1.031646657674e-04
2
Properties=species:S:1:pos:R:3:forces:R:3 energy=-7.565172764206e+01 dipole="-8.5358433540e-02 1.2778713709e-01 -6.6501287230e-01" quadrupole="-4.2957688492e+00 -2.9400756841e-01 5.6117050530e-02 -2.9400756841e-01 -5.1476203819e+00 -2.9449863040e-01 5.6117050530e-02 -2.9449863040e-01 -3.5527194049e+00" polarizability="6.5524586358e+00 2.9218578652e-01 4.3471785884e-01 2.9218578652e-01 7.7721001100e+00 -3.6988905657e-01 4.3471785884e-01 -3.6988905657e-01 9.3749849865e+00" charge=0 multiplicity=2 method=wB97M-V basis=def2-svpd config_type=oh_radical sample_index=404 temperature=300.0 units=atomic
O         0.0075596917      -0.0113468141       0.1121485691  -5.553746003889e-03   8.314793351365e-03  -4.327562012828e-02
H        -0.1213877477       0.1816941259      -0.8924529974   5.554547384783e-03  -8.316261098527e-03   4.327705668868e-02
2
Properties=species:S:1:pos:R:3:forces:R:3 energy=-7.565283426726e+01 dipole="9.1068654674e-02 -1.3633429417e-01 -6.5843357449e-01" quadrupole="-4.2461983238e+00 -2.2568943786e-01 -6.4330015204e-02 -2.2568943786e-01 -5.1601059959e+00 3.2423798257e-01 -6.4330015204e-02 3.2423798257e-01 -3.5896287702e+00" polarizability="6.4780481436e+00 1.9049770394e-01 -4.2779573413e-01 1.9049770394e-01 7.7798725217e+00 3.3820091569e-01 -4.2779573413e-01 3.3820091569e-01 9.1567179653e+00" charge=0 multiplicity=2 method=wB97M-V basis=def2-svpd config_type=oh_radical sample_index=405 temperature=300.0 units=atomic
O        -0.0079960090       0.0120017101       0.1110606576   4.593379582030e-03  -6.881718169651e-03  -3.322750251517e-02
H         0.1283937983      -0.1921808370      -0.8750474102  -4.595687854041e-03   6.880260572638e-03   3.322782709947e-02
2
Properties=species:S:1:pos:R:3:forces:R:3 energy=-7.564508781885e+01 dipole="2.0057716851e-01 -3.0027550545e-01 -5.9698856968e-01" quadrupole="-4.6377800541e+00 -6.3706319281e-01 -1.2643688986e-01 -6.3706319281e-01 -4.6648313009e+00 4.6844100931e-01 -1.2643688986e-01 4.6844100931e-01 -3.6678760771e+00" polarizability="7.4492645906e+00 2.1592458794e-01 -1.0967578801e+00 2.1592458794e-01 8.0266664337e+00 1.2614300757e+00 -1.0967578801e+00 1.2614300757e+00 9.3873604725e+00" charge=0 multiplicity=2 method=wB97M-V basis=def2-svpd config_type=oh_radical sample_index=406 temperature=300.0 units=atomic
O        -0.0183514372       0.0275448199       0.1078581695   2.157791777586e-02  -3.230472122031e-02  -6.422537938764e-02
H         0.2946733449      -0.4410693571      -0.8238105358  -2.157843931749e-02   3.230556056427e-02   6.422721660541e-02
2
Properties=species:S:1:pos:R:3:forces:R:3 energy=-7.565407044789e+01 dipole="6.5587628664e-02 -9.8188139674e-02 -6.5313938344e-01" quadrupole="-4.2007166170e+00 -1.8644224646e-01 -3.9310606457e-02 -1.8644224646e-01 -5.1553790364e+00 2.2557444650e-01 -3.9310606457e-02 2.2557444650e-01 -3.6358734171e+00" polarizability="6.3319764878e+00 1.9388309306e-01 -2.5144721499e-01 1.9388309306e-01 7.6025075342e+00 1.6127585031e-01 -2.5144721499e-01 1.6127585031e-01 8.4962544408e+00" charge=0 multiplicity=2 method=wB97M-V basis=def2-svpd config_type=oh_radical sample_index=407 temperature=300.0 units=atomic
O        -0.0055755724       0.0083687253       0.1087641287  -1.268788150722e-03   1.898950998323e-03   1.263394651125e-02
H         0.0895282776      -0.1340066230      -0.8383050525   1.267662888542e-03  -1.898421622717e-03  -1.263205574649e-02
2
Properties=species:S:1:pos:R:3:forces:R:3 energy=-7.565123216809e+01 dipole="3.0336632145e-02 -4.5416742850e-02 -6.4977154173e-01" quadrupole="-5.1081250866e+00 2.5432340374e-01 -8.8600716736e-02 2.5432340374e-01 -4.2080653232e+00 5.4977952947e-02 -8.8600716736e-02 5.4977952947e-02 -3.6649770156e+00" polarizability="7.4188262964e+00 -3.2830650299e-01 -5.2644942116e-03 -3.2830650299e-01 6.2937368949e+00 1.0554403019e-01 -5.2644942116e-03 1.0554403019e-01 8.0154168241e+00" charge=0 multiplicity=2 method=wB97M-V basis=def2-svpd config_type=oh_radical sample_index=408 temperature=300.0 units=atomic
O        -0.0025128751       0.0037717314       0.1070575276  -2.907796797298e-03   4.352304743690e-03   6.228184889769e-02
H         0.0403498269      -0.0603959350      -0.8110009994   2.907092191823e-03  -4.352576731147e-03  -6.228311920950e-02
2
Properties=species:S:1:pos:R:3:forces:R:3 energy=-7.564957920247e+01 dipole="1.3315185370e-01 -1.9933557124e-01 -6.4535016751e-01" quadrupole="-5.2240817660e+00 -8.9677588160e-02 -3.5330438165e-01 -8.9677588160e-02 -4.1706682088e+00 2.2644063355e-01 -3.5330438165e-01 2.2644063355e-01 -3.5941958752e+00" polarizability="7.9317501140e+00 -1.3963007579e-01 -3.4931544547e-01 -1.3963007579e-01 6.7296320270e+00 9.3000376222e-01 -3.4931544547e-01 9.3000376222e-01 9.4744669918e+00" charge=0 multiplicity=2 method=wB97M-V basis=def2-svpd config_type=oh_radical sample_index=409 temperature=300.0 units=atomic
O        -0.0119429387       0.0179259037       0.1111333363   1.116376026441e-02  -1.671804204594e-02  -5.412011510614e-02
H         0.1917705765      -0.2870436922      -0.8762102039  -1.116612795117e-02   1.671826513812e-02   5.412191431987e-02
2
Properties=species:S:1:pos:R:3:forces:R:3 energy=-7.565420500991e+01 dipole="1.4943933130e-01 -2.2371922807e-01 -6.0929461373e-01" quadrupole="-4.3931544545e+00 3.3822373008e-01 -3.4012621040e-01 3.3822373008e-01 -4.7275757959e+00 5.2894804373e-01 -3.4012621040e-01 5.2894804373e-01 -3.8636138962e+00" polarizability="6.7237048053e+00 -6.8865524627e-01 -2.2105657207e-01 -6.8865524627e-01 7.3646246356e+00 3.0524109297e-01 -2.2105657207e-01 3.0524109297e-01 8.4896409013e+00" charge=0 multiplicity=2 method=wB97M-V basis=def2-svpd config_type=oh_radical sample_index=410 temperature=300.0 units=atomic
O        -0.0127689037       0.0191656462       0.1052904290  -9.798572063523e-04   1.465747858841e-03   3.999789973389e-03
H         0.2050332902      -0.3068954253      -0.7827290408   9.815851506215e-04  -1.468091388638e-03  -3.998265063746e-03
2
Properties=species:S:1:pos:R:3:forces:R:3 energy=-7.565197130132e+01 dipole="-6.3533945807e-02 9.5113430164e-02 -6.4391783112e-01" quadrupole="-4.1477077587e+00 -8.0595030193e-02 4.4023337129e-02 -8.0595030193e-02 -5.1493726806e+00 -2.2370715862e-01 4.4023337129e-02 -2.2370715862e-01 -3.6850634374e+00" polarizability="6.2348025081e+00 6.3743188128e-02 1.9408140365e-01 6.3743188128e-02 7.5319406343e+00 -9.1138437810e-02 1.9408140365e-01 -9.1138437810e-02 8.0737565615e+00" charge=0 multiplicity=2 method=wB97M-V basis=def2-svpd config_type=oh_radical sample_index=411 temperature=300.0 units=atomic
O         0.0052855334      -0.0079333877       0.1068038295   5.185006910988e-03  -7.763484316739e-03   5.254738495836e-02
H        -0.0848710538       0.1270356542      -0.8069420627  -5.184397047564e-03   7.761194066496e-03  -5.254912178295e-02
2
Properties=species:S:1:pos:R:3:forces:R:3 energy=-7.565326525510e+01 dipole="-6.7796066975e-02 1.0149398488e-01 -6.4709113296e-01" quadrupole="-4.1688882522e+00 -1.3119198700e-01 4.3442519453e-02 -1.3119198700e-01 -5.1513282096e+00 -2.3615962774e-01 4.3442519453e-02 -2.3615962774e-01 -3.6668512007e+00" polarizability="6.2775792213e+00 1.2107205005e-01 2.3145228743e-01 1.2107205005e-01 7.5698802379e+00 -1.2806242158e-01 2.3145228743e-01 -1.2806242158e-01 8.2611184557e+00" charge=0 multiplicity=2 method=wB97M-V basis=def2-svpd config_type=oh_radical sample_index=412 temperature=300.0 units=atomic
O         0.0056970818      -0.0085511064       0.1076139756   3.454025012194e-03  -5.168677666724e-03   3.295793006974e-02
H        -0.0914793827       0.1369270523      -0.8199036572  -3.452272205234e-03   5.168657846543e-03  -3.295694115569e-02
2
Properties=species:S:1:pos:R:3:forces:R:3 energy=-7.565422350001e+01 dipole="-1.5071330746e-02 2.2562427804e-02 -6.6663926826e-01" quadrupole="-4.8420987974e+00 5.0315671499e-01 4.7099627541e-02 5.0315671499e-01 -4.5723922120e+00 -4.7257143310e-02 4.7099627541e-02 -4.7257143310e-02 -3.5818731657e+00" polarizability="7.1453113075e+00 -6.5626785701e-01 1.3182700658e-02 -6.5626785701e-01 6.7970665666e+00 -4.9935633915e-02 1.3182700658e-02 -4.9935633915e-02 8.7088490838e+00" charge=0 multiplicity=2 method=wB97M-V basis=def2-svpd config_type=oh_radical sample_index=413 temperature=300.0 units=atomic
O         0.0012909899      -0.0019377275       0.1103502877   8.804282516685e-06  -1.332091584313e-05   3.706946232773e-04
H        -0.0207297281       0.0310284185      -0.8636821437  -8.033547030689e-06   1.211091288299e-05  -3.702294885688e-04
2
Properties=species:S:1:pos:R:3:forces:R:3 energy=-7.565278034542e+01 dipole="-5.2459941125e-03 7.8538266838e-03 -6.5649824207e-01" quadrupole="-5.1276955247e+00 2.5780922796e-01 1.5540270907e-02 2.5780922796e-01 -4.2243082915e+00 -9.8977130191e-03 1.5540270907e-02 -9.8977130191e-03 -3.6352398674e+00" polarizability="7.4606861488e+00 -3.2788788288e-01 2.1379235951e-03 -3.2788788288e-01 6.3128927078e+00 -2.0183964158e-02 2.1379235951e-03 -2.0183964158e-02 8.2187901475e+00" charge=0 multiplicity=2 method=wB97M-V basis=def2-svpd config_type=oh_radical sample_index=414 temperature=300.0 units=atomic
O         0.0004389467      -0.0006588426       0.1081693952   3.340809578475e-04  -4.997562874657e-04   4.182231861136e-02
H        -0.0070482704       0.0105499061      -0.8287898619  -3.339806111408e-04   5.001123210630e-04  -4.181994163168e-02
2
Properties=species:S:1:pos:R:3:forces:R:3 energy=-7.565117606882e+01 dipole="2.2583733887e-02 -3.3808067333e-02 -6.8300781560e-01" quadrupole="-4.3286179293e+00 2.9793140240e-01 -4.5142674201e-02 2.9793140240e-01 -5.1857579446e+00 9.7774089020e-02 -4.5142674201e-02 9.7774089020e-02 -3.4846282174e+00" polarizability="6.5406079926e+00 -4.0571099688e-01 -8.0904217295e-02 -4.0571099688e-01 7.6932007928e+00 8.0710876206e-02 -8.0904217295e-02 8.0710876206e-02 9.5880779185e+00" charge=0 multiplicity=2 method=wB97M-V basis=def2-svpd config_type=oh_radical sample_index=415 temperature=300.0 units=atomic
O        -0.0020073182       0.0030129094       0.1139678275   1.597783125108e-03  -2.391074709977e-03  -4.832072129768e-02
H         0.0322319800      -0.0482450787      -0.9215594643  -1.597488914237e-03   2.392038044387e-03   4.832372379110e-02
2
Properties=species:S:1:pos:R:3:forces:R:3 energy=-7.565261975598e+01 dipole="-1.0985233922e-01 1.6445516731e-01 -6.4998421371e-01" quadrupole="-5.0067463040e+00 3.4236304645e-01 3.5193237546e-01 3.4236304645e-01 -4.3465819053e+00 -2.8796684753e-01 3.5193237546e-01 -2.8796684753e-01 -3.6407247887e+00" polarizability="7.5249628870e+00 -6.1441044889e-01 1.4998802648e-01 -6.1441044889e-01 6.7809746429e+00 -5.4162646413e-01 1.4998802648e-01 -5.4162646413e-01 9.1697395985e+00" charge=0 multiplicity=2 method=wB97M-V basis=def2-svpd config_type=oh_radical sample_index=416 temperature=300.0 units=atomic
O         0.0096633449      -0.0145043187       0.1104237670  -5.901211060754e-03   8.845542138613e-03  -3.494973189670e-02
H        -0.1551666022       0.2322545783      -0.8648577441   5.905827209018e-03  -8.843376961755e-03   3.494927043287e-02
2
Properties=species:S:1:pos:R:3:forces:R:3 energy=-7.565333119809e+01 dipole="-9.0803991530e-03 1.3593344213e-02 -6.7604974160e-01" quadrupole="-4.3467532685e+00 -3.5048613831e-01 4.8719056004e-03 -3.5048613831e-01 -5.1250542065e+00 -2.8782630294e-02 4.8719056004e-03 -2.8782630294e-02 -3.5279569063e+00" polarizability="6.5312046084e+00 4.6185468548e-01 4.4668034680e-02 4.6185468548e-01 7.5600102106e+00 -3.8484461868e-02 4.4668034680e-02 -3.8484461868e-02 9.1640019312e+00" charge=0 multiplicity=2 method=wB97M-V basis=def2-svpd config_type=oh_radical sample_index=417 temperature=300.0 units=atomic
O         0.0007932971      -0.0011907092       0.1123177614  -3.756273695127e-04   5.614594688276e-04  -2.795459226739e-02
H        -0.0127381574       0.0190665732      -0.8951599193   3.753976749123e-04  -5.622302813172e-04   2.795552063981e-02
2
Properties=species:S:1:pos:R:3:forces:R:3 energy=-7.565422292709e+01 dipole="-7.9865772225e-03 1.1956178311e-02 -6.6690519137e-01" quadrupole="-4.8674017057e+00 4.9681579037e-01 2.5129019156e-02 4.9681579037e-01 -4.5482945214e+00 -2.4510699761e-02 2.5129019156e-02 -2.4510699761e-02 -3.5806701660e+00" polarizability="7.1763558969e+00 -6.4602006810e-01 6.7198277323e-03 -6.4602006810e-01 6.7624953123e+00 -2.7080416796e-02 6.7198277323e-03 -2.7080416796e-02 8.7039439691e+00" charge=0 multiplicity=2 method=wB97M-V basis=def2-svpd config_type=oh_radical sample_index=418 temperature=300.0 units=atomic
O         0.0006839236      -0.0010265437       0.1103566988   1.002732745839e-05  -1.508106766527e-05   8.239002232826e-04
H        -0.0109819217       0.0164378259      -0.8637847145  -9.683807585096e-06   1.452062690279e-05  -8.241563837266e-04
2
Properties=species:S:1:pos:R:3:forces:R:3 energy=-7.565184428258e+01 dipole="-1.1995034878e-01 1.7957210635e-01 -6.4707772522e-01" quadrupole="-5.1836528300e+00 9.5910199053e-02 3.5372276849e-01 9.5910199053e-02 -4.1878739770e+00 -2.3107859255e-01 3.5372276849e-01 -2.3107859255e-01 -3.6211175112e+00" polarizability="7.7997251786e+00 -3.2475787324e-01 2.2157620466e-01 -3.2475787324e-01 6.6349907303e+00 -7.2966376725e-01 2.2157620466e-01 -7.2966376725e-01 9.2376605399e+00" charge=0 multiplicity=2 method=wB97M-V basis=def2-svpd config_type=oh_radical sample_index=419 temperature=300.0 units=atomic
O         0.0106146068      -0.0159321272       0.1105081023  -7.645565248616e-03   1.145220837004e-02  -4.126258119879e-02
H        -0.1704412385       0.2551177730      -0.8662070321   7.648369477705e-03  -1.145173971167e-02   4.126328249767e-02
2
Properties=species:S:1:pos:R:3:forces:R:3 energy=-7.564936137800e+01 dipole="-1.0995506256e-01 1.6460865792e-01 -6.5990225876e-01" quadrupole="-5.2197116265e+00 -2.4477389103e-01 2.4624774596e-01 -2.4477389103e-01 -4.2394116877e+00 -1.7468549798e-01 2.4624774596e-01 -1.7468549798e-01 -3.5323824944e+00" polarizability="7.8742542954e+00 1.5117199262e-01 3.6923369974e-01 1.5117199262e-01 6.7017516517e+00 -8.1396896084e-01 3.6923369974e-01 -8.1396896084e-01 9.5993548905e+00" charge=0 multiplicity=2 method=wB97M-V basis=def2-svpd config_type=oh_radical sample_index=420 temperature=300.0 units=atomic
O         0.0098733559      -0.0148195374       0.1125096040  -9.384432559317e-03   1.405486980301e-02  -5.634145904647e-02
H        -0.1585387981       0.2373021075      -0.8982292254   9.386725131461e-03  -1.405439364460e-02   5.634115627392e-02
2
Properties=species:S:1:pos:R:3:forces:R:3 energy=-7.565421368012e+01 dipole="-1.2876399347e-02 1.9276651237e-02 -6.6782043491e-01" quadrupole="-4.8165701014e+00 5.1056318322e-01 4.0002611019e-02 5.1056318322e-01 -4.6049418948e+00 -4.1553007467e-02 4.0002611019e-02 -4.1553007467e-02 -3.5754720742e+00" polarizability="7.1162205345e+00 -6.6652515170e-01 1.2472027910e-02 -6.6652515170e-01 6.8423204808e+00 -4.2529160788e-02 1.2472027910e-02 -4.2529160788e-02 8.7594360239e+00" charge=0 multiplicity=2 method=wB97M-V basis=def2-svpd config_type=oh_radical sample_index=421 temperature=300.0 units=atomic
O         0.0011054718      -0.0016592717       0.1105816577  -6.026973533459e-05   9.025610798902e-05  -3.156366140953e-03
H        -0.0177508202       0.0265695658      -0.8673838518   6.115885374638e-05  -9.145525962771e-05   3.156354326853e-03
2
Properties=species:S:1:pos:R:3:forces:R:3 energy=-7.564742889533e+01 dipole="-1.0533090658e-01 1.5768495296e-01 -6.6675903098e-01" quadrupole="-5.0141281967e+00 -4.9732994803e-01 1.4577783896e-01 -4.9732994803e-01 -4.4876244860e+00 -1.9118339646e-01 1.4577783896e-01 -1.9118339646e-01 -3.4875832025e+00" polarizability="7.6158134354e+00 5.0227063674e-01 5.1350932984e-01 5.0227063674e-01 7.0446674524e+00 -8.0534492080e-01 5.1350932984e-01 -8.0534492080e-01 9.8429166191e+00" charge=0 multiplicity=2 method=wB97M-V basis=def2-svpd config_type=oh_radical sample_index=422 temperature=300.0 units=atomic
O         0.0095446227      -0.0143261212       0.1136766865  -1.020098096027e-02   1.527828433027e-02  -6.459994890782e-02
H        -0.1532602526       0.2294011394      -0.9169014761   1.020408825074e-02  -1.527792141792e-02   6.459957239045e-02
2
Properties=species:S:1:pos:R:3:forces:R:3 energy=-7.564889909716e+01 dipole="8.2383181358e-02 -1.2333230535e-01 -6.7389926951e-01" quadrupole="-5.1490335429e+00 -3.7600203772e-01 -1.4873503325e-01 -3.7600203772e-01 -4.3609163600e+00 1.3544154531e-01 -1.4873503325e-01 1.3544154531e-01 -3.4835652198e+00" polarizability="7.7336054834e+00 4.0584232169e-01 -3.4234634400e-01 4.0584232169e-01 6.7544453376e+00 6.3012679950e-01 -3.4234634400e-01 6.3012679950e-01 9.7692611307e+00" charge=0 multiplicity=2 method=wB97M-V basis=def2-svpd config_type=oh_radical sample_index=423 temperature=300.0 units=atomic
O        -0.0074146617       0.0111291295       0.1139107338   7.285419129561e-03  -1.090633334642e-02  -5.958921989366e-02
H         0.1190589671      -0.1782083889      -0.9206460179  -7.284423265224e-03   1.090589170991e-02   5.958952537321e-02
2
Properties=species:S:1:pos:R:3:forces:R:3 energy=-7.562213105487e+01 dipole="2.4380726362e-01 -3.6498879042e-01 -5.8215730444e-01" quadrupole="-5.1519426023e+00 -4.4192669835e-01 -6.0164496449e-01 -4.4192669835e-01 -4.0703892452e+00 4.5214111151e-01 -6.0164496449e-01 4.5214111151e-01 -3.6810773212e+00" polarizability="8.7863919291e+00 -6.7667574181e-01 -1.1897106825e+00 -6.7667574181e-01 8.3448283399e+00 2.4096674391e+00 -1.1897106825e+00 2.4096674391e+00 1.0631210650e+01" charge=0 multiplicity=2 method=wB97M-V basis=def2-svpd config_type=oh_radical sample_index=424 temperature=300.0 units=atomic
O        -0.0238552397       0.0358058213       0.1102073780   3.636027130996e-02  -5.443102319392e-02  -8.681944014506e-02
H         0.3830491958      -0.5733510188      -0.8613957196  -3.636120078788e-02   5.443176242752e-02   8.682087873391e-02
2
Properties=species:S:1:pos:R:3:forces:R:3 energy=-7.565048604521e+01 dipole="1.4440406355e-01 -2.1617975115e-01 -6.3497838250e-01" quadrupole="-5.1960078177e+00 -2.1915348250e-01 -3.3569066878e-01 -2.1915348250e-01 -4.1756963805e+00 2.1696787800e-01 -3.3569066878e-01 2.1696787800e-01 -3.6166222701e+00" polarizability="7.9064313744e+00 -4.4718781893e-03 -4.0693949514e-01 -4.4718781893e-03 6.7849712969e+00 9.9226595864e-01 -4.0693949514e-01 9.9226595864e-01 9.2721664971e+00" charge=0 multiplicity=2 method=wB97M-V basis=def2-svpd config_type=oh_radical sample_index=425 temperature=300.0 units=atomic
O        -0.0128884091       0.0193450194       0.1099184634   1.110470229658e-02  -1.662692766082e-02  -4.883722128945e-02
H         0.2069522174      -0.3097676904      -0.8567733507  -1.110666132138e-02   1.662824525637e-02   4.883984498631e-02
2
Properties=species:S:1:pos:R:3:forces:R:3 energy=-7.565327911234e+01 dipole="4.8282299234e-02 -7.2280198530e-02 -6.7090411872e-01" quadrupole="-4.2265160904e+00 -1.3968266391e-01 -4.0321167273e-02 -1.3968266391e-01 -5.2241289356e+00 1.8029915059e-01 -4.0321167273e-02 1.8029915059e-01 -3.5480661812e+00" polarizability="6.3924642434e+00 1.5474575857e-01 -2.1722168983e-01 1.5474575857e-01 7.7354287762e+00 1.6668268807e-01 -2.1722168983e-01 1.6668268807e-01 9.1455529931e+00" charge=0 multiplicity=2 method=wB97M-V basis=def2-svpd config_type=oh_radical sample_index=426 temperature=300.0 units=atomic
O        -0.0042206634       0.0063350577       0.1119003749   2.048241896503e-03  -3.069069398153e-03  -2.846798963347e-02
H         0.0677721851      -0.1014419343      -0.8884821173  -2.048409481667e-03   3.067131212958e-03   2.846682481355e-02
2
Properties=species:S:1:pos:R:3:forces:R:3 energy=-7.565227055864e+01 dipole="3.2123323853e-02 -4.8090314003e-02 -6.7824646521e-01" quadrupole="-4.5435924180e+00 4.7763585416e-01 -8.6536938505e-02 4.7763585416e-01 -4.9422483004e+00 1.2972582571e-01 -8.6536938505e-02 1.2972582571e-01 -3.5135618699e+00" polarizability="6.8178767670e+00 -6.4940054140e-01 -7.6354085948e-02 -6.4940054140e-01 7.3598070695e+00 1.1405763680e-01 -7.6354085948e-02 1.1405763680e-01 9.3904485247e+00" charge=0 multiplicity=2 method=wB97M-V basis=def2-svpd config_type=oh_radical sample_index=427 temperature=300.0 units=atomic
O        -0.0028337700       0.0042533827       0.1130871702   1.882072742082e-03  -2.817879778154e-03  -3.973874912454e-02
H         0.0455025121      -0.0681085145      -0.9074697551  -1.881918983485e-03   2.817813701203e-03   3.973871610335e-02
2
Properties=species:S:1:pos:R:3:forces:R:3 energy=-7.565416786612e+01 dipole="-3.7810367532e-02 5.6604295266e-02 -6.6602122914e-01" quadrupole="-4.6269072443e+00 5.0724316793e-01 1.0715955368e-01 5.0724316793e-01 -4.7858704948e+00 -1.3817491102e-01 1.0715955368e-01 -1.3817491102e-01 -3.5842406864e+00" polarizability="6.8842333785e+00 -6.7863713932e-01 5.2386024791e-02 -6.7863713932e-01 7.1055714253e+00 -1.0743867817e-01 5.2386024791e-02 -1.0743867817e-01 8.8109325561e+00" charge=0 multiplicity=2 method=wB97M-V basis=def2-svpd config_type=oh_radical sample_index=428 temperature=300.0 units=atomic
O         0.0032551497      -0.0048858578       0.1105860086  -4.170567197370e-04   6.240138845357e-04  -7.346652958162e-03
H        -0.0522687050       0.0782362047      -0.8674534620   4.175227387594e-04  -6.248943194680e-04   7.347125958207e-03
2
Properties=species:S:1:pos:R:3:forces:R:3 energy=-7.564197129850e+01 dipole="6.1955858828e-02 -9.2750235868e-02 -6.9411318066e-01" quadrupole="-5.3267438142e+00 -6.4202882574e-02 -1.7425411745e-01 -6.4202882574e-02 -4.2736076946e+00 1.2722567705e-01 -1.7425411745e-01 1.2722567705e-01 -3.3826203196e+00" polarizability="8.0296234918e+00 2.2348985963e-02 -2.4397467358e-01 2.2348985963e-02 6.6402869141e+00 5.4841892418e-01 -2.4397467358e-01 5.4841892418e-01 1.0634477952e+01" charge=0 multiplicity=2 method=wB97M-V basis=def2-svpd config_type=oh_radical sample_index=429 temperature=300.0 units=atomic
O        -0.0057331506       0.0086052444       0.1175018057   7.333370195138e-03  -1.098244581297e-02  -8.218143680784e-02
H         0.0920585487      -0.1377939524      -0.9780998766  -7.334970968259e-03   1.098185477121e-02   8.217966003657e-02
2
Properties=species:S:1:pos:R:3:forces:R:3 energy=-7.564712735571e+01 dipole="-1.1082171807e-01 1.6590627764e-01 -6.1273768765e-01" quadrupole="-4.3745183300e+00 3.9928872856e-01 2.4382004517e-01 3.9928872856e-01 -4.7502650088e+00 -3.7706966611e-01 2.4382004517e-01 -3.7706966611e-01 -3.8385473174e+00" polarizability="6.5359264685e+00 -5.9189946010e-01 5.1235913171e-02 -5.9189946010e-01 7.0818095082e+00 -6.1769704484e-02 5.1235913171e-02 -6.1769704484e-02 7.6793057756e+00" charge=0 multiplicity=2 method=wB97M-V basis=def2-svpd config_type=oh_radical sample_index=430 temperature=300.0 units=atomic
O         0.0090216153      -0.0135411066       0.1031024043   1.764390995527e-02  -2.641179867310e-02   9.755864498228e-02
H        -0.1448621985       0.2168308667      -0.7477226516  -1.764482963034e-02   2.641661300191e-02  -9.755866956393e-02
2
Properties=species:S:1:pos:R:3:forces:R:3 energy=-7.565390942498e+01 dipole="-5.9820739312e-02 8.9554808497e-02 -6.6387226225e-01" quadrupole="-4.2906804092e+00 -3.0833271566e-01 3.1416928192e-02 -3.0833271566e-01 -5.1284670890e+00 -1.9450612926e-01 3.1416928192e-02 -1.9450612926e-01 -3.5780584260e+00" polarizability="6.4732155335e+00 3.6100173275e-01 2.7419203408e-01 3.6100173275e-01 7.6087684150e+00 -2.1692997229e-01 2.7419203408e-01 -2.1692997229e-01 8.9217258546e+00" charge=0 multiplicity=2 method=wB97M-V basis=def2-svpd config_type=oh_radical sample_index=431 temperature=300.0 units=atomic
O         0.0051845414      -0.0077818025       0.1107845224  -1.521389278223e-03   2.279030291320e-03  -1.688144422041e-02
H        -0.0832494015       0.1246083523      -0.8706295004   1.521246547662e-03  -2.277510319289e-03   1.688050205400e-02
2
Properties=species:S:1:pos:R:3:forces:R:3 energy=-7.565416607666e+01 dipole="2.1765661102e-02 -3.2584911559e-02 -6.6837680988e-01" quadrupole="-4.7498032486e+00 5.1840751835e-01 -6.6015573367e-02 5.1840751835e-01 -4.6757079923e+00 7.4252077689e-02 -6.6015573367e-02 7.4252077689e-02 -3.5719925769e+00" polarizability="7.0372849597e+00 -6.8206032591e-01 -2.4955080504e-02 -6.8206032591e-01 6.9451941095e+00 6.9420874299e-02 -2.4955080504e-02 6.9420874299e-02 8.8205176895e+00" charge=0 multiplicity=2 method=wB97M-V basis=def2-svpd config_type=oh_radical sample_index=432 temperature=300.0 units=atomic
O        -0.0018739995       0.0028128031       0.1107937980   2.435238925014e-04  -3.642684497557e-04  -7.484285838881e-03
H         0.0300912515      -0.0450408196      -0.8707779013  -2.441069130589e-04   3.652556875751e-04   7.484112673269e-03
2
Properties=species:S:1:pos:R:3:forces:R:3 energy=-7.564149559376e+01 dipole="1.3667093814e-01 -2.0460500532e-01 -6.5936495915e-01" quadrupole="-4.8865901982e+00 -5.7710290833e-01 -1.5617636124e-01 -5.7710290833e-01 -4.6183357707e+00 2.9896331456e-01 -1.5617636124e-01 2.9896331456e-01 -3.4699181004e+00" polarizability="7.6017682445e+00 4.6986514304e-01 -8.0444756400e-01 4.6986514304e-01 7.5005916052e+00 1.1148131520e+00 -8.0444756400e-01 1.1148131520e+00 1.0266699041e+01" charge=0 multiplicity=2 method=wB97M-V basis=def2-svpd config_type=oh_radical sample_index=433 temperature=300.0 units=atomic
O        -0.0126676476       0.0190136645       0.1143747490   1.637341519899e-02  -2.451003133663e-02  -7.898721092615e-02
H         0.2034073972      -0.3044617759      -0.9280698364  -1.637205374775e-02   2.451158702068e-02   7.898770273683e-02
2
Properties=species:S:1:pos:R:3:forces:R:3 energy=-7.565321047913e+01 dipole="-6.2824919573e-03 9.4055523836e-03 -6.5816241161e-01" quadrupole="-5.1359952782e+00 2.5281153566e-01 1.8654474889e-02 2.5281153566e-01 -4.2262736901e+00 -1.1928021445e-02 1.8654474889e-02 -1.1928021445e-02 -3.6268204158e+00" polarizability="7.4799153245e+00 -3.2286321964e-01 3.1633485259e-03 -3.2286321964e-01 6.3198628771e+00 -2.5138950590e-02 3.1633485259e-03 -2.5138950590e-02 8.2942163425e+00" charge=0 multiplicity=2 method=wB97M-V basis=def2-svpd config_type=oh_radical sample_index=434 temperature=300.0 units=atomic
O         0.0005276578      -0.0007919946       0.1085177403   3.296652078336e-04  -4.930560616095e-04   3.455249691186e-02
H        -0.0084727257       0.0126820419      -0.8343630640  -3.295655903955e-04   4.935198327807e-04  -3.454932036621e-02
2
Properties=species:S:1:pos:R:3:forces:R:3 energy=-7.565392551087e+01 dipole="-4.3726233411e-02 6.5459505713e-02 -6.5764189644e-01" quadrupole="-4.8736774479e+00 4.7432595415e-01 1.3600207450e-01 4.7432595415e-01 -4.4913510826e+00 -1.2638874808e-01 1.3600207450e-01 -1.2638874808e-01 -3.6270022721e+00" polarizability="7.1765536912e+00 -6.3066879653e-01 2.3951857795e-02 -6.3066879653e-01 6.7015003898e+00 -1.3517876308e-01 2.3951857795e-02 -1.3517876308e-01 8.4657795923e+00" charge=0 multiplicity=2 method=wB97M-V basis=def2-svpd config_type=oh_radical sample_index=435 temperature=300.0 units=atomic
O         0.0037057450      -0.0055621844       0.1089765577   1.194676472651e-03  -1.791043467118e-03   1.798741679428e-02
H        -0.0595040190       0.0890660790      -0.8417037224  -1.195483708524e-03   1.789203328306e-03  -1.798549673963e-02
2
Properties=species:S:1:pos:R:3:forces:R:3 energy=-7.564132742794e+01 dipole="-3.0180653291e-02 4.5183496063e-02 -6.3484477046e-01" quadrupole="-5.1262660984e+00 4.7027406327e-02 7.3121916748e-02 4.7027406327e-02 -4.1001967730e+00 -3.3652116525e-02 7.3121916748e-02 -3.3652116525e-02 -3.7287650354e+00" polarizability="7.3654404003e+00 -6.3337100292e-02 -1.8139718572e-03 -6.3337100292e-02 6.1289788468e+00 -8.9022434744e-02 -1.8139718572e-03 -8.9022434744e-02 7.4158415189e+00" charge=0 multiplicity=2 method=wB97M-V basis=def2-svpd config_type=oh_radical sample_index=436 temperature=300.0 units=atomic
O         0.0024161638      -0.0036265713       0.1040483848   6.959389720473e-03  -1.041927248611e-02   1.464181679333e-01
H        -0.0387969099       0.0580715168      -0.7628574723  -6.959961320848e-03   1.041997490236e-02  -1.464164018732e-01
2
Properties=species:S:1:pos:R:3:forces:R:3 energy=-7.565394474137e+01 dipole="-5.8242396276e-02 8.7192247899e-02 -6.5414549362e-01" quadrupole="-4.2094488440e+00 -2.1153959625e-01 3.1672900683e-02 -2.1153959625e-01 -5.1484957541e+00 -1.9593398753e-01 3.1672900683e-02 -1.9593398753e-01 -3.6334822889e+00" polarizability="6.3329307030e+00 2.3606665682e-01 2.2336128979e-01 2.3606665682e-01 7.5715505741e+00 -1.4320335238e-01 2.2336128979e-01 -1.4320335238e-01 8.4492356556e+00" charge=0 multiplicity=2 method=wB97M-V basis=def2-svpd config_type=oh_radical sample_index=437 temperature=300.0 units=atomic
O         0.0049377329      -0.0074113521       0.1086987144   1.537808483490e-03  -2.304485373266e-03   1.728339137788e-02
H        -0.0792863382       0.1186764083      -0.8372584838  -1.537910743614e-03   2.302716529251e-03  -1.728144693956e-02
2
Properties=species:S:1:pos:R:3:forces:R:3 energy=-7.565399755982e+01 dipole="-2.3835876620e-02 3.5683078472e-02 -6.6157824677e-01" quadrupole="-4.9663913445e+00 4.4062744092e-01 7.5329997929e-02 4.4062744092e-01 -4.4186514732e+00 -6.3518496688e-02 7.5329997929e-02 -6.3518496688e-02 -3.6081750423e+00" polarizability="7.2892715605e+00 -5.7377957147e-01 1.3044680452e-02 -5.7377957147e-01 6.5886406783e+00 -8.2971618771e-02 1.3044680452e-02 -8.2971618771e-02 8.5053128302e+00" charge=0 multiplicity=2 method=wB97M-V basis=def2-svpd config_type=oh_radical sample_index=438 temperature=300.0 units=atomic
O         0.0020229034      -0.0030363022       0.1093898397   5.634904969833e-04  -8.436134057454e-04   1.566296043041e-02
H        -0.0324822358       0.0486196634      -0.8483158552  -5.639786390763e-04   8.437830236103e-04  -1.566118934455e-02
2
Properties=species:S:1:pos:R:3:forces:R:3 energy=-7.565411189118e+01 dipole="8.4567711970e-02 -1.2660309204e-01 -6.4655653351e-01" quadrupole="-4.1682354661e+00 -6.0686025918e-02 -7.2035647520e-02 -6.0686025918e-02 -5.1570234876e+00 3.1127144463e-01 -7.2035647520e-02 3.1127144463e-01 -3.6656693764e+00" polarizability="6.3124307788e+00 1.9508205897e-04 -2.9530636560e-01 1.9508205897e-04 7.6543908711e+00 1.7928670382e-01 -2.9530636560e-01 1.7928670382e-01 8.4961639954e+00" charge=0 multiplicity=2 method=wB97M-V basis=def2-svpd config_type=oh_radical sample_index=439 temperature=300.0 units=atomic
O        -0.0071971768       0.0108026928       0.1082649345  -1.393538002544e-03   2.085592536113e-03   1.063966161847e-02
H         0.1155667611      -0.1729812279      -0.8303184029   1.391324130818e-03  -2.082992792473e-03  -1.063886707584e-02
2
Properties=species:S:1:pos:R:3:forces:R:3 energy=-7.565238169950e+01 dipole="-5.3292928603e-02 7.9782844979e-02 -6.7350687424e-01" quadrupole="-4.4582930945e+00 -4.4680220219e-01 2.8154330999e-02 -4.4680220219e-01 -5.0172627125e+00 -1.5222082459e-01 2.8154330999e-02 -1.5222082459e-01 -3.5230051237e+00" polarizability="6.7189246106e+00 5.5604659904e-01 2.7647723284e-01 5.5604659904e-01 7.4936820912e+00 -2.6750669666e-01 2.7647723284e-01 -2.6750669666e-01 9.3269142118e+00" charge=0 multiplicity=2 method=wB97M-V basis=def2-svpd config_type=oh_radical sample_index=440 temperature=300.0 units=atomic
O         0.0046971543      -0.0070502527       0.1126158963  -3.043862649318e-03   4.557290263056e-03  -3.847151922724e-02
H        -0.0754233122       0.1128942010      -0.8999298038   3.044090073059e-03  -4.557537916951e-03   3.847186245673e-02
2
Properties=species:S:1:pos:R:3:forces:R:3 energy=-7.565394399160e+01 dipole="-2.9097919433e-02 4.3561329176e-02 -6.7020571190e-01" quadrupole="-4.6458347424e+00 5.1249601805e-01 8.3803269318e-02 5.1249601805e-01 -4.7912771509e+00 -1.0728069418e-01 8.3803269318e-02 -1.0728069418e-01 -3.5613275299e+00" polarizability="6.9157710850e+00 -6.8241714520e-01 4.4417416012e-02 -6.8241714520e-01 7.1150600678e+00 -9.0321114420e-02 4.4417416012e-02 -9.0321114420e-02 8.9527294143e+00" charge=0 multiplicity=2 method=wB97M-V basis=def2-svpd config_type=oh_radical sample_index=441 temperature=300.0 units=atomic
O         0.0025202151      -0.0037827485       0.1112971588  -6.995918942481e-04   1.047393580116e-03  -1.612756693756e-02
H        -0.0404676870       0.0605723490      -0.8788312131   7.004754580876e-04  -1.048567651467e-03   1.612667205674e-02
2
Properties=species:S:1:pos:R:3:forces:R:3 energy=-7.565196969343e+01 dipole="8.1080305089e-02 -1.2138166835e-01 -6.6593660532e-01" quadrupole="-4.3251674764e+00 -3.3566128601e-01 -4.8586419280e-02 -3.3566128601e-01 -5.1226578091e+00 2.6878305162e-01 -4.8586419280e-02 2.6878305162e-01 -3.5487630177e+00" polarizability="6.5816308515e+00 3.5782329648e-01 -4.1550064640e-01 3.5782329648e-01 7.7186515503e+00 3.6071347642e-01 -4.1550064640e-01 3.6071347642e-01 9.3422512957e+00" charge=0 multiplicity=2 method=wB97M-V basis=def2-svpd config_type=oh_radical sample_index=442 temperature=300.0 units=atomic
O        -0.0071685657       0.0107597487       0.1121298265   5.050888834753e-03  -7.565215929322e-03  -4.149595965326e-02
H         0.1151073463      -0.1722935722      -0.8921531325  -5.052343341241e-03   7.564003287274e-03   4.149701317101e-02
2
Properties=species:S:1:pos:R:3:forces:R:3 energy=-7.565413015346e+01 dipole="3.1462925571e-02 -4.7100804178e-02 -6.6208647719e-01" quadrupole="-4.9117707061e+00 4.6888875644e-01 -9.9174352460e-02 4.6888875644e-01 -4.4774924386e+00 8.9909131820e-02 -9.9174352460e-02 8.9909131820e-02 -3.6049387016e+00" polarizability="7.2290720590e+00 -6.1684711052e-01 -2.0434347298e-02 -6.1684711052e-01 6.6768369341e+00 1.0625566771e-01 -2.0434347298e-02 1.0625566771e-01 8.5739077441e+00" charge=0 multiplicity=2 method=wB97M-V basis=def2-svpd config_type=oh_radical sample_index=443 temperature=300.0 units=atomic
O        -0.0026792325       0.0040214276       0.1096242601  -4.701771115404e-04   7.051476298492e-04   9.916995384718e-03
H         0.0430210664      -0.0643942672      -0.8520663676   4.709287187933e-04  -7.044397074155e-04  -9.915087999227e-03
2
Properties=species:S:1:pos:R:3:forces:R:3 energy=-7.565306776937e+01 dipole="8.3359723562e-02 -1.2479488378e-01 -6.6069094801e-01" quadrupole="-4.2752382871e+00 -2.8028862984e-01 -5.1203466726e-02 -2.8028862984e-01 -5.1414552882e+00 2.8412373540e-01 -5.1203466726e-02 2.8412373540e-01 -3.5798527647e+00" polarizability="6.5005045020e+00 2.8096860760e-01 -3.9771330063e-01 2.8096860760e-01 7.7216309275e+00 3.2075112290e-01 -3.9771330063e-01 3.2075112290e-01 9.1213262016e+00" charge=0 multiplicity=2 method=wB97M-V basis=def2-svpd config_type=oh_radical sample_index=444 temperature=300.0 units=atomic
O        -0.0073030659       0.0109616283       0.1111314282   3.873729099038e-03  -5.800446395065e-03  -3.071309612807e-02
H         0.1172670468      -0.1755262287      -0.8761796749  -3.874983756626e-03   5.801444521043e-03   3.071274297428e-02
2
Properties=species:S:1:pos:R:3:forces:R:3 energy=-7.565421065019e+01 dipole="-6.2961611881e-02 9.4257636793e-02 -6.5866881421e-01" quadrupole="-4.2429672195e+00 -2.5105600953e-01 3.4657520237e-02 -2.5105600953e-01 -5.1459332699e+00 -2.1085864201e-01 3.4657520237e-02 -2.1085864201e-01 -3.6062863775e+00" polarizability="6.3992192325e+00 2.8110825744e-01 2.6657557968e-01 2.8110825744e-01 7.6128943858e+00 -1.9204388189e-01 2.6657557968e-01 -1.9204388189e-01 8.7141763045e+00" charge=0 multiplicity=2 method=wB97M-V basis=def2-svpd config_type=oh_radical sample_index=445 temperature=300.0 units=atomic
O         0.0054069582      -0.0081156417       0.1098091451  -3.387350066059e-04   5.054372815074e-04  -3.537853075277e-03
H        -0.0868207995       0.1299540487      -0.8550243582   3.387156415248e-04  -5.069527456051e-04   3.538387984028e-03
2
Properties=species:S:1:pos:R:3:forces:R:3 energy=-7.565393717782e+01 dipole="-1.5060814185e-01 2.2546968188e-01 -6.1520791324e-01" quadrupole="-4.6417709290e+00 3.8136292356e-01 4.2491992018e-01 3.8136292356e-01 -4.5168409878e+00 -4.7439442354e-01 4.2491992018e-01 -4.7439442354e-01 -3.8287719251e+00" polarizability="7.0879206526e+00 -7.7583789308e-01 1.7482840441e-01 -7.7583789308e-01 7.1525160025e+00 -4.7378813749e-01 1.7482840441e-01 -4.7378813749e-01 8.7470769340e+00" charge=0 multiplicity=2 method=wB97M-V basis=def2-svpd config_type=oh_radical sample_index=446 temperature=300.0 units=atomic
O         0.0130461300      -0.0195817524       0.1065243076  -3.666580065588e-03   5.487511750172e-03  -1.496877508554e-02
H        -0.2094847779       0.3135584466      -0.8024699678   3.663732251062e-03  -5.486668349690e-03   1.496985260885e-02
2
Properties=species:S:1:pos:R:3:forces:R:3 energy=-7.564096418688e+01 dipole="-2.1718255001e-01 3.2513280090e-01 -5.8617749863e-01" quadrupole="-4.6635515569e+00 -6.6948352020e-01 1.5035945619e-01 -6.6948352020e-01 -4.6175018284e+00 -5.0729303089e-01 1.5035945619e-01 -5.0729303089e-01 -3.6777795801e+00" polarizability="7.6328372211e+00 9.9631195139e-02 1.2415308322e+00 9.9631195139e-02 8.2491353784e+00 -1.4709694585e+00 1.2415308322e+00 -1.4709694585e+00 9.5586922261e+00" charge=0 multiplicity=2 method=wB97M-V basis=def2-svpd config_type=oh_radical sample_index=447 temperature=300.0 units=atomic
O         0.0201658899      -0.0302682455       0.1076653433  -2.634210119745e-02   3.943397305750e-02  -7.109652147972e-02
H        -0.3238084387       0.4846789923      -0.8207254935   2.634302038861e-02  -3.943580737749e-02   7.109889209828e-02
2
Properties=species:S:1:pos:R:3:forces:R:3 energy=-7.565141103859e+01 dipole="1.6116546668e-01 -2.4127267656e-01 -6.1888104840e-01" quadrupole="-4.7900930970e+00 -5.9066090542e-01 -1.2980037712e-01 -5.9066090542e-01 -4.5634543251e+00 2.9679372988e-01 -1.2980037712e-01 2.9679372988e-01 -3.6328726697e+00" polarizability="7.3909828359e+00 4.2838247018e-01 -7.3081902776e-01 4.2838247018e-01 7.3873027588e+00 9.5703982706e-01 -7.3081902776e-01 9.5703982706e-01 8.9926157262e+00" charge=0 multiplicity=2 method=wB97M-V basis=def2-svpd config_type=oh_radical sample_index=448 temperature=300.0 units=atomic
O        -0.0143036523       0.0214692464       0.1081654855   1.102609073278e-02  -1.650811858682e-02  -4.234379635071e-02
H         0.2296771108      -0.3437824878      -0.8287273106  -1.102846503036e-02   1.651044030942e-02   4.234895427216e-02
2
Properties=species:S:1:pos:R:3:forces:R:3 energy=-7.565327612709e+01 dipole="9.6482410639e-02 -1.4443889809e-01 -6.5384839711e-01" quadrupole="-4.2116138701e+00 -1.4727835492e-01 -7.9070787118e-02 -1.4727835492e-01 -5.1675324151e+00 3.5647220075e-01 -7.9070787118e-02 3.5647220075e-01 -3.6161302820e+00" polarizability="6.4325033255e+00 7.5475150820e-02 -4.2208754628e-01 7.5475150820e-02 7.7944215925e+00 3.1723128270e-01 -4.2208754628e-01 3.1723128270e-01 9.0475994063e+00" charge=0 multiplicity=2 method=wB97M-V basis=def2-svpd config_type=oh_radical sample_index=449 temperature=300.0 units=atomic
O        -0.0084345391       0.0126599273       0.1104061891   4.095097938376e-03  -6.141263856019e-03  -2.778564364905e-02
H         0.1354353784      -0.2027207289      -0.8645765144  -4.099292317481e-03   6.137618092915e-03   2.778399438831e-02
2
Properties=species:S:1:pos:R:3:forces:R:3 energy=-7.564464018639e+01 dipole="-8.1864452536e-02 1.2255419431e-01 -6.8278258543e-01" quadrupole="-5.3002219041e+00 -8.5503563859e-02 2.2321014504e-01 -8.5503563859e-02 -4.2489334834e+00 -1.5814339991e-01 2.2321014504e-01 -1.5814339991e-01 -3.4376254069e+00" polarizability="7.9943698185e+00 7.0816648670e-03 2.9457132999e-01 7.0816648670e-03 6.6513697172e+00 -6.8100032312e-01 2.9457132999e-01 -6.8100032312e-01 1.0283106695e+01" charge=0 multiplicity=2 method=wB97M-V basis=def2-svpd config_type=oh_radical sample_index=450 temperature=300.0 units=atomic
O         0.0075028574      -0.0112615079       0.1158423661  -8.949684393749e-03   1.340097998464e-02  -7.465581560384e-02
H        -0.1204751460       0.1803281366      -0.9515503639   8.950584543568e-03  -1.340052467629e-02   7.465603309098e-02
2
Properties=species:S:1:pos:R:3:forces:R:3 energy=-7.564284666216e+01 dipole="7.7586311822e-02 -1.1614978487e-01 -6.2337971420e-01" quadrupole="-4.1332225215e+00 1.7307033026e-01 -9.2359630464e-02 1.7307033026e-01 -5.0429209658e+00 2.8100197403e-01 -9.2359630464e-02 2.8100197403e-01 -3.7799120527e+00" polarizability="6.1914251729e+00 -2.5431987113e-01 -1.1374831847e-01 -2.5431987113e-01 7.3339252277e+00 -3.3027730331e-03 -1.1374831847e-01 -3.3027730331e-03 7.4725407693e+00" charge=0 multiplicity=2 method=wB97M-V basis=def2-svpd config_type=oh_radical sample_index=451 temperature=300.0 units=atomic
O        -0.0062354076       0.0093591132       0.1033225372  -1.653006410076e-02   2.474860939719e-02   1.328150701801e-01
H         0.1001234065      -0.1498654945      -0.7512445749   1.652870729978e-02  -2.474496390479e-02  -1.328098758763e-01
2
Properties=species:S:1:pos:R:3:forces:R:3 energy=-7.565410797081e+01 dipole="1.3106613700e-01 -1.9621434285e-01 -6.2086559608e-01" quadrupole="-4.8372987361e+00 3.6936870614e-01 -3.9390866927e-01 3.6936870614e-01 -4.3612726717e+00 3.4242026014e-01 -3.9390866927e-01 3.4242026014e-01 -3.7871683708e+00" polarizability="7.2495980096e+00 -6.6474911335e-01 -6.8190937402e-02 -6.6474911335e-01 6.7903853929e+00 4.2136098461e-01 -6.8190937402e-02 4.2136098461e-01 8.4201514436e+00" charge=0 multiplicity=2 method=wB97M-V basis=def2-svpd config_type=oh_radical sample_index=452 temperature=300.0 units=atomic
O        -0.0111533870       0.0167408162       0.1060655203  -2.190112078977e-03   3.279124555166e-03   1.038419626791e-02
H         0.1790925596      -0.2680671377      -0.7951297922   2.191764868239e-03  -3.280798570411e-03  -1.037914900689e-02
2
Properties=species:S:1:pos:R:3:forces:R:3 energy=-7.565237116587e+01 dipole="-2.1617526636e-02 3.2361760680e-02 -6.7923052800e-01" quadrupole="-4.2961519457e+00 2.6467614076e-01 4.0050771591e-02 2.6467614076e-01 -5.1953719267e+00 -9.2338420797e-02 4.0050771591e-02 -9.2338420797e-02 -3.5081789681e+00" polarizability="6.4822620183e+00 -3.5820227954e-01 7.5238676192e-02 -3.5820227954e-01 7.6831564234e+00 -6.9567175438e-02 7.5238676192e-02 -6.9567175438e-02 9.3768443524e+00" charge=0 multiplicity=2 method=wB97M-V basis=def2-svpd config_type=oh_radical sample_index=453 temperature=300.0 units=atomic
O         0.0019054532      -0.0028600138       0.1131271080  -1.237830802134e-03   1.851724640675e-03  -3.889303821023e-02
H        -0.0305963096       0.0457967945      -0.9081087233   1.237721546338e-03  -1.853335473668e-03   3.889492338713e-02
2
Properties=species:S:1:pos:R:3:forces:R:3 energy=-7.564917520385e+01 dipole="-3.5731165872e-02 5.3490060132e-02 -6.8638387545e-01" quadrupole="-4.2519009323e+00 6.0786900560e-02 5.0378693574e-02 6.0786900560e-02 -5.2853676855e+00 -1.5201776363e-01 5.0378693574e-02 -1.5201776363e-01 -3.4592443864e+00" polarizability="6.4656816669e+00 -1.0086843672e-01 1.7036653621e-01 -1.0086843672e-01 7.8743729527e+00 -1.5177510157e-01 1.7036653621e-01 -1.5177510157e-01 9.8686272883e+00" charge=0 multiplicity=2 method=wB97M-V basis=def2-svpd config_type=oh_radical sample_index=454 temperature=300.0 units=atomic
O         0.0032114186      -0.0048202190       0.1149537022  -3.095801716047e-03   4.633945944742e-03  -5.946133774667e-02
H        -0.0515665035       0.0771851439      -0.9373325569   3.094731833500e-03  -4.633916018072e-03   5.946277709070e-02
2
Properties=species:S:1:pos:R:3:forces:R:3 energy=-7.564845497025e+01 dipole="9.9672951965e-02 -1.4921516241e-01 -6.2111153037e-01" quadrupole="-4.2912240283e+00 3.5189249379e-01 -1.9302430525e-01 3.5189249379e-01 -4.8767275355e+00 3.5949926486e-01 -1.9302430525e-01 3.5949926486e-01 -3.8002181291e+00" polarizability="6.4274645594e+00 -5.1973332854e-01 -9.3934316043e-02 -5.1973332854e-01 7.2228863578e+00 5.3057308811e-02 -9.3934316043e-02 5.3057308811e-02 7.7631097888e+00" charge=0 multiplicity=2 method=wB97M-V basis=def2-svpd config_type=oh_radical sample_index=455 temperature=300.0 units=atomic
O        -0.0081531126       0.0122375166       0.1040312665  -1.401401222805e-02   2.097848366003e-02   8.732460205719e-02
H         0.1309164468      -0.1959567569      -0.7625835953   1.401281300368e-02  -2.097933222082e-02  -8.732386268397e-02
2
Properties=species:S:1:pos:R:3:forces:R:3 energy=-7.565338653571e+01 dipole="-5.7950046197e-02 8.6754222525e-02 -6.6785914180e-01" quadrupole="-4.3566339324e+00 -3.7526626691e-01 2.9038908899e-02 -3.7526626691e-01 -5.0867291634e+00 -1.7869877112e-01 2.9038908899e-02 -1.7869877112e-01 -3.5547687865e+00" polarizability="6.5710254257e+00 4.5270545575e-01 2.8260891947e-01 4.5270545575e-01 7.5702051530e+00 -2.4454205179e-01 2.8260891947e-01 -2.4454205179e-01 9.0940430968e+00" charge=0 multiplicity=2 method=wB97M-V basis=def2-svpd config_type=oh_radical sample_index=456 temperature=300.0 units=atomic
O         0.0050597560      -0.0075945042       0.1115630221  -2.328120986073e-03   3.486710806570e-03  -2.682324308261e-02
H        -0.0812456921       0.1216091845      -0.8830847814   2.327788065905e-03  -3.484621150716e-03   2.682236643210e-02
2
Properties=species:S:1:pos:R:3:forces:R:3 energy=-7.565421223944e+01 dipole="-7.1720531629e-02 1.0736940432e-01 -6.5568975013e-01" quadrupole="-4.2128673599e+00 -1.9092440473e-01 4.6203208864e-02 -1.9092440473e-01 -5.1624255755e+00 -2.5054546067e-01 4.6203208864e-02 -2.5054546067e-01 -3.6192726698e+00" polarizability="6.3688909349e+00 1.8923705114e-01 2.9293818300e-01 1.8923705114e-01 7.6543366007e+00 -2.0238018951e-01 2.9293818300e-01 -2.0238018951e-01 8.6985998285e+00" charge=0 multiplicity=2 method=wB97M-V basis=def2-svpd config_type=oh_radical sample_index=457 temperature=300.0 units=atomic
O         0.0061582190      -0.0092432561       0.1095438965  -3.593230982440e-04   5.405636052210e-04  -3.294185501908e-03
H        -0.0988839718       0.1480102990      -0.8507806226   3.610410536430e-04  -5.398626702130e-04   3.294299386881e-03
2
Properties=species:S:1:pos:R:3:forces:R:3 energy=-7.565172111710e+01 dipole="9.6713349244e-02 -1.4478430680e-01 -6.5997707888e-01" quadrupole="-4.2491998430e+00 -2.1443157301e-01 -7.4794417519e-02 -2.1443157301e-01 -5.1687368221e+00 3.5265311585e-01 -7.4794417519e-02 3.5265311585e-01 -3.5771524258e+00" polarizability="6.5094025047e+00 1.5757515978e-01 -4.7324257689e-01 1.5757515978e-01 7.8429720916e+00 3.8724713321e-01 -4.7324257689e-01 3.8724713321e-01 9.3486945866e+00" charge=0 multiplicity=2 method=wB97M-V basis=def2-svpd config_type=oh_radical sample_index=458 temperature=300.0 units=atomic
O        -0.0085656730       0.0128567543       0.1117036439   6.298060533501e-03  -9.435176528905e-03  -4.299474977743e-02
H         0.1375410261      -0.2058724788      -0.8853346027  -6.300207207760e-03   9.432561494752e-03   4.299617588861e-02
2
Properties=species:S:1:pos:R:3:forces:R:3 energy=-7.565159541617e+01 dipole="-1.1123046843e-01 1.6651743225e-01 -6.5293669145e-01" quadrupole="-5.1703116124e+00 1.6137670554e-01 3.4026090336e-01 1.6137670554e-01 -4.2194831747e+00 -2.3273103931e-01 3.4026090336e-01 -2.3273103931e-01 -3.6037171951e+00" polarizability="7.7689264195e+00 -3.8628153397e-01 2.0060469194e-01 -3.8628153397e-01 6.6409930545e+00 -6.6963920606e-01 2.0060469194e-01 -6.6963920606e-01 9.3198425764e+00" charge=0 multiplicity=2 method=wB97M-V basis=def2-svpd config_type=oh_radical sample_index=459 temperature=300.0 units=atomic
O         0.0098598029      -0.0147991949       0.1111276052  -7.393798685664e-03   1.107627956397e-02  -4.342623994847e-02
H        -0.1583211748       0.2369763672      -0.8761185105   7.397025331751e-03  -1.107600103611e-02   4.342666100921e-02
2
Properties=species:S:1:pos:R:3:forces:R:3 energy=-7.565029787442e+01 dipole="-7.9540570433e-02 1.1907703989e-01 -6.3398935116e-01" quadrupole="-4.1291378852e+00 -4.6481058811e-02 5.7662719147e-02 -4.6481058811e-02 -5.1195818094e+00 -2.7955492951e-01 5.7662719147e-02 -2.7955492951e-01 -3.7267138158e+00" polarizability="6.2149706960e+00 2.1573676235e-03 2.1606005751e-01 2.1573676235e-03 7.5009121675e+00 -8.1589418129e-02 2.1606005751e-01 -8.1589418129e-02 7.8914614720e+00" charge=0 multiplicity=2 method=wB97M-V basis=def2-svpd config_type=oh_radical sample_index=460 temperature=300.0 units=atomic
O         0.0065573899      -0.0098423966       0.1054966695   8.917588655946e-03  -1.335124901156e-02   7.107056923191e-02
H        -0.1052935516       0.1576042079      -0.7860286994  -8.916117911692e-03   1.334898101223e-02  -7.107474002841e-02
2
Properties=species:S:1:pos:R:3:forces:R:3 energy=-7.564857063396e+01 dipole="-1.3426133590e-01 2.0099593324e-01 -6.4709677973e-01" quadrupole="-5.2293343156e+00 -1.4477119239e-01 3.4252909737e-01 -1.4477119239e-01 -4.1814640530e+00 -2.2452112030e-01 3.4252909737e-01 -2.2452112030e-01 -3.5767296623e+00" polarizability="7.9598615654e+00 -7.6023199555e-02 3.9340491173e-01 -7.6023199555e-02 6.7698808080e+00 -9.7814864075e-01 3.9340491173e-01 -9.7814864075e-01 9.5843274847e+00" charge=0 multiplicity=2 method=wB97M-V basis=def2-svpd config_type=oh_radical sample_index=461 temperature=300.0 units=atomic
O         0.0121028651      -0.0181659471       0.1115828013  -1.214267295833e-02   1.818364602882e-02  -5.853889199436e-02
H        -0.1943385515       0.2908874570      -0.8834012307   1.214568396776e-02  -1.818456537113e-02   5.854067263049e-02
2
Properties=species:S:1:pos:R:3:forces:R:3 energy=-7.565422343984e+01 dipole="-3.5133675403e-03 5.2596277607e-03 -6.6738321733e-01" quadrupole="-4.8700788482e+00 4.9675981175e-01 1.1070583045e-02 4.9675981175e-01 -4.5483956750e+00 -1.0790770242e-02 1.1070583045e-02 -1.0790770242e-02 -3.5781275542e+00" polarizability="7.1810342478e+00 -6.4580474338e-01 3.0207254573e-03 -6.4580474338e-01 6.7630599056e+00 -1.2036481825e-02 3.0207254573e-03 -1.2036481825e-02 8.7214687680e+00" charge=0 multiplicity=2 method=wB97M-V basis=def2-svpd config_type=oh_radical sample_index=462 temperature=300.0 units=atomic
O         0.0003010970      -0.0004519353       0.1104421742  -2.004159033264e-06   2.980297015918e-06  -3.969466304388e-04
H        -0.0048347848       0.0072367436      -0.8651522433   2.169659601292e-06  -3.236646981684e-06   3.962939416087e-04
2
Properties=species:S:1:pos:R:3:forces:R:3 energy=-7.565149977277e+01 dipole="-1.3839785026e-01 2.0718932790e-01 -6.3619973257e-01" quadrupole="-5.2017994162e+00 -8.5487988607e-02 3.6174638137e-01 -8.5487988607e-02 -4.1522375429e+00 -2.2276330502e-01 3.6174638137e-01 -2.2276330502e-01 -3.6359824194e+00" polarizability="7.8757661438e+00 -1.5116507353e-01 3.1305715716e-01 -1.5116507353e-01 6.6937425437e+00 -8.9441700173e-01 3.1305715716e-01 -8.9441700173e-01 9.1817433624e+00" charge=0 multiplicity=2 method=wB97M-V basis=def2-svpd config_type=oh_radical sample_index=463 temperature=300.0 units=atomic
O         0.0122758653      -0.0184256141       0.1096749540  -9.342333744691e-03   1.398961045558e-02  -4.295140738069e-02
H        -0.1971164576       0.2950454486      -0.8528774234   9.343684242020e-03  -1.398951612069e-02   4.295437761508e-02
2
Properties=species:S:1:pos:R:3:forces:R:3 energy=-7.565421970110e+01 dipole="-1.2981044171e-01 1.9433327037e-01 -6.2442394202e-01" quadrupole="-4.9531444894e+00 3.0788471172e-01 3.9574049176e-01 3.0788471172e-01 -4.2761476908e+00 -3.0225144482e-01 3.9574049176e-01 -3.0225144482e-01 -3.7583872388e+00" polarizability="7.4128815197e+00 -5.9012937914e-01 8.1486621805e-02 -5.9012937914e-01 6.6920535087e+00 -4.9858646308e-01 8.1486621805e-02 -4.9858646308e-01 8.5161836583e+00" charge=0 multiplicity=2 method=wB97M-V basis=def2-svpd config_type=oh_radical sample_index=464 temperature=300.0 units=atomic
O         0.0111080347      -0.0166727440       0.1066667712   3.930937966287e-04  -5.803226512088e-04   1.872354368698e-03
H        -0.1783643265       0.2669771126      -0.8047492552  -3.894919873173e-04   5.819747392150e-04  -1.870100770968e-03
2
Properties=species:S:1:pos:R:3:forces:R:3 energy=-7.564429340261e+01 dipole="-2.1917559624e-02 3.2812265136e-02 -6.3933854665e-01" quadrupole="-5.1016337991e+00 1.9681090161e-01 6.0061457637e-02 1.9681090161e-01 -4.1481472364e+00 -3.2596415985e-02 6.0061457637e-02 -3.2596415985e-02 -3.7125591823e+00" polarizability="7.3505516094e+00 -2.4405345143e-01 -5.5938085604e-03 -2.4405345143e-01 6.1887337245e+00 -6.1641244475e-02 -5.5938085604e-03 -6.1641244475e-02 7.5497939073e+00" charge=0 multiplicity=2 method=wB97M-V basis=def2-svpd config_type=oh_radical sample_index=465 temperature=300.0 units=atomic
O         0.0017685027      -0.0026544564       0.1048151948   4.287551682247e-03  -6.419139043162e-03   1.251036187292e-01
H        -0.0283972644       0.0425052464      -0.7751257290  -4.287902093428e-03   6.419754686776e-03  -1.250999699145e-01
2
Properties=species:S:1:pos:R:3:forces:R:3 energy=-7.563189928034e+01 dipole="7.5126002572e-02 -1.1246859803e-01 -7.0448510081e-01" quadrupole="-5.3411260212e+00 1.1529635357e-01 -2.5029571642e-01 1.1529635357e-01 -4.3190777522e+00 1.9624279830e-01 -2.5029571642e-01 1.9624279830e-01 -3.2981908134e+00" polarizability="8.1748535606e+00 -2.7101987621e-01 -3.3539036622e-01 -2.7101987621e-01 6.8460738881e+00 7.5009391464e-01 -3.3539036622e-01 7.5009391464e-01 1.1570080667e+01" charge=0 multiplicity=2 method=wB97M-V basis=def2-svpd config_type=oh_radical sample_index=466 temperature=300.0 units=atomic
O        -0.0071678328       0.0107586486       0.1204960698   1.046420540219e-02  -1.566501368635e-02  -9.812123260998e-02
H         0.1150955779      -0.1722759571      -1.0260053590  -1.046324322337e-02   1.566587144501e-02   9.812122812130e-02
2
Properties=species:S:1:pos:R:3:forces:R:3 energy=-7.565055766838e+01 dipole="5.9532549303e-02 -8.9122585347e-02 -6.4162480752e-01" quadrupole="-4.1335700481e+00 -8.7348718269e-03 -4.8476574584e-02 -8.7348718269e-03 -5.1455082815e+00 2.1411486894e-01 -4.8476574584e-02 2.1411486894e-01 -3.6985864964e+00" polarizability="6.2053844548e+00 -2.0693866448e-02 -1.5966546155e-01 -2.0693866448e-02 7.4997117408e+00 6.1631951144e-02 -1.5966546155e-01 6.1631951144e-02 7.9338642543e+00" charge=0 multiplicity=2 method=wB97M-V basis=def2-svpd config_type=oh_radical sample_index=467 temperature=300.0 units=atomic
O        -0.0049139836       0.0073757053       0.1061947198  -6.412526240322e-03   9.604641828904e-03   6.912854451584e-02
H         0.0789049901      -0.1181056035      -0.7971968657   6.413411566849e-03  -9.601250816000e-03  -6.913095443787e-02
2
Properties=species:S:1:pos:R:3:forces:R:3 energy=-7.564203313933e+01 dipole="-3.6214750684e-02 5.4216606822e-02 -6.3458604970e-01" quadrupole="-5.1121956379e+00 1.2630376089e-01 9.3935208503e-02 1.2630376089e-01 -4.1153119680e+00 -4.6494682532e-02 9.3935208503e-02 -4.6494682532e-02 -3.7291161865e+00" polarizability="7.3542330230e+00 -1.6259537624e-01 -8.3615595154e-03 -1.6259537624e-01 6.1529099660e+00 -1.0163872660e-01 -8.3615595154e-03 -1.0163872660e-01 7.4429271480e+00" charge=0 multiplicity=2 method=wB97M-V basis=def2-svpd config_type=oh_radical sample_index=468 temperature=300.0 units=atomic
O         0.0029043889      -0.0043593790       0.1041181238   8.057918691825e-03  -1.206507757126e-02   1.412214295516e-01
H        -0.0466364561       0.0698058106      -0.7639732320  -8.058420221955e-03   1.206434266788e-02  -1.412200089834e-01
2
Properties=species:S:1:pos:R:3:forces:R:3 energy=-7.565273251738e+01 dipole="-4.6020086930e-02 6.8893815159e-02 -6.7388310052e-01" quadrupole="-4.2772682209e+00 2.3757180391e-01 8.1315904938e-02 2.3757180391e-01 -5.1852631261e+00 -1.9440767358e-01 8.1315904938e-02 -1.9440767358e-01 -3.5364294109e+00" polarizability="6.4667053816e+00 -3.4309165457e-01 1.5897094811e-01 -3.4309165457e-01 7.6944996234e+00 -1.4154260341e-01 1.5897094811e-01 -1.4154260341e-01 9.2828365926e+00" charge=0 multiplicity=2 method=wB97M-V basis=def2-svpd config_type=oh_radical sample_index=469 temperature=300.0 units=atomic
O         0.0040442604      -0.0060702834       0.1124756097  -2.396232901016e-03   3.586498415348e-03  -3.508912871635e-02
H        -0.0649396404       0.0972021594      -0.8976853469   2.395993978419e-03  -3.587662809260e-03   3.508890729974e-02
2
Properties=species:S:1:pos:R:3:forces:R:3 energy=-7.565161993917e+01 dipole="7.6038224553e-02 -1.1383345873e-01 -6.3853133370e-01" quadrupole="-4.1458683776e+00 -1.0482152710e-01 -4.8085649314e-02 -1.0482152710e-01 -5.1292493715e+00 2.6275916878e-01 -4.8085649314e-02 2.6275916878e-01 -3.7049009120e+00" polarizability="6.2408679286e+00 7.8388004185e-02 -2.3119816667e-01 7.8388004185e-02 7.5251541212e+00 1.0557006199e-01 -2.3119816667e-01 1.0557006199e-01 8.0186291482e+00" charge=0 multiplicity=2 method=wB97M-V basis=def2-svpd config_type=oh_radical sample_index=470 temperature=300.0 units=atomic
O        -0.0063122936       0.0094745162       0.1062399375  -6.736795627389e-03   1.008229428737e-02   5.655327243466e-02
H         0.1013579831      -0.1517134183      -0.7979203064   6.734173270788e-03  -1.008213820363e-02  -5.655608543024e-02
2
Properties=species:S:1:pos:R:3:forces:R:3 energy=-7.564888451952e+01 dipole="3.5595765591e-02 -5.3287529020e-02 -6.8707921672e-01" quadrupole="-4.2512130661e+00 3.4141001858e-02 -4.8267823956e-02 3.4141001858e-02 -5.2904020074e+00 1.5064719295e-01 -4.8267823956e-02 1.5064719295e-01 -3.4545238145e+00" polarizability="6.4674279974e+00 -6.4993730447e-02 -1.7426394110e-01 -6.4993730447e-02 7.8850966949e+00 1.5509997591e-01 -1.7426394110e-01 1.5509997591e-01 9.9073310978e+00" charge=0 multiplicity=2 method=wB97M-V basis=def2-svpd config_type=oh_radical sample_index=471 temperature=300.0 units=atomic
O        -0.0032038412       0.0048088456       0.1151054920   3.151146654381e-03  -4.716158726987e-03  -6.081854961082e-02
H         0.0514448317      -0.0770030246      -0.9397610538  -3.150162067463e-03   4.716936829752e-03   6.081979667116e-02
2
Properties=species:S:1:pos:R:3:forces:R:3 energy=-7.564463869646e+01 dipole="2.0509338646e-01 -3.0703612206e-01 -5.9294482858e-01" quadrupole="-4.6503975265e+00 -6.4588768239e-01 -1.3212322633e-01 -6.4588768239e-01 -4.6440782860e+00 4.7169341321e-01 -1.3212322633e-01 4.7169341321e-01 -3.6742232419e+00" polarizability="7.4942049486e+00 1.9342071640e-01 -1.1193758006e+00 1.9342071640e-01 8.0554554159e+00 1.3020912773e+00 -1.1193758006e+00 1.3020912773e+00 9.3794197056e+00" charge=0 multiplicity=2 method=wB97M-V basis=def2-svpd config_type=oh_radical sample_index=472 temperature=300.0 units=atomic
O        -0.0187969795       0.0282135622       0.1075808123   2.242539855437e-02  -3.357269164147e-02  -6.483517619784e-02
H         0.3018275215      -0.4517777843      -0.8193730755  -2.242601860061e-02   3.357386873142e-02   6.483719293686e-02
2
Properties=species:S:1:pos:R:3:forces:R:3 energy=-7.565262211892e+01 dipole="-1.0521898171e-01 1.5751729693e-01 -6.5245501735e-01" quadrupole="-4.3212076958e+00 2.8904476544e-01 2.1233208858e-01 2.8904476544e-01 -5.0267923197e+00 -4.3032288241e-01 2.1233208858e-01 -4.3032288241e-01 -3.6465532087e+00" polarizability="6.6059101415e+00 -5.3043041398e-01 3.1151931878e-01 -5.3043041398e-01 7.6642393316e+00 -3.1700007677e-01 3.1151931878e-01 -3.1700007677e-01 9.2048520679e+00" charge=0 multiplicity=2 method=wB97M-V basis=def2-svpd config_type=oh_radical sample_index=473 temperature=300.0 units=atomic
O         0.0092555568      -0.0138922441       0.1106406390  -5.650846352969e-03   8.466855996983e-03  -3.505910288267e-02
H        -0.1486186533       0.2224535574      -0.8683274979   5.652381283000e-03  -8.464658654434e-03   3.505923580954e-02
2
Properties=species:S:1:pos:R:3:forces:R:3 energy=-7.559453796531e+01 dipole="-3.0097437293e-01 4.5057314171e-01 -5.2814084637e-01" quadrupole="-4.2337886827e+00 -6.0891395829e-01 3.1102856783e-01 -6.0891395829e-01 -4.5188413292e+00 -1.1392516671e+00 3.1102856783e-01 -1.1392516671e+00 -4.0346650866e+00" polarizability="8.5266795443e+00 -1.6414922503e+00 2.4521453008e+00 -1.6414922503e+00 1.1007113751e+01 -2.7159046434e+00 2.4521453008e+00 -2.7159046434e+00 1.1572582553e+01" charge=0 multiplicity=2 method=wB97M-V basis=def2-svpd config_type=oh_radical sample_index=474 temperature=300.0 units=atomic
O         0.0313597600      -0.0470698252       0.1082686188  -4.637702430042e-02   6.942533428994e-02  -8.138115568239e-02
H        -0.5035510438       0.7537191231      -0.8303773493   4.637523816957e-02  -6.942744925892e-02   8.137953725342e-02
2
Properties=species:S:1:pos:R:3:forces:R:3 energy=-7.565349606834e+01 dipole="-3.4450690670e-02 5.1575609848e-02 -6.5668549318e-01" quadrupole="-5.0399477446e+00 3.6943908852e-01 1.0702824286e-01 3.6943908852e-01 -4.3184988191e+00 -7.9492878466e-02 1.0702824286e-01 -7.9492878466e-02 -3.6314442922e+00" polarizability="7.3717525753e+00 -4.8477873724e-01 1.3531483889e-02 -4.8477873724e-01 6.4589193199e+00 -1.2352010417e-01 1.3531483889e-02 -1.2352010417e-01 8.3450764884e+00" charge=0 multiplicity=2 method=wB97M-V basis=def2-svpd config_type=oh_radical sample_index=475 temperature=300.0 units=atomic
O         0.0029021340      -0.0043559944       0.1085590876   1.511723859116e-03  -2.263455591117e-03   2.882979670017e-02
H        -0.0466002481       0.0697516143      -0.8350245833  -1.511606237351e-03   2.263426747980e-03  -2.882693755117e-02
2
Properties=species:S:1:pos:R:3:forces:R:3 energy=-7.564481837397e+01 dipole="-1.8521196295e-01 2.7727356237e-01 -6.1342193352e-01" quadrupole="-4.6969355491e+00 -6.2753202129e-01 1.3635465445e-01 -6.2753202129e-01 -4.6585837431e+00 -4.2186460691e-01 1.3635465445e-01 -4.2186460691e-01 -3.6176915763e+00" polarizability="7.4700580744e+00 2.9672292022e-01 1.0250293310e+00 2.9672292022e-01 7.8809908359e+00 -1.2375761351e+00 1.0250293310e+00 -1.2375761351e+00 9.5518271112e+00" charge=0 multiplicity=2 method=wB97M-V basis=def2-svpd config_type=oh_radical sample_index=476 temperature=300.0 units=atomic
O         0.0169632359      -0.0254611817       0.1094252869  -2.012151297994e-02   3.012459332932e-02  -6.664752770572e-02
H        -0.2723826693       0.4077045003      -0.8488829785   2.012263443492e-02  -3.012660867328e-02   6.664954957345e-02
2
Properties=species:S:1:pos:R:3:forces:R:3 energy=-7.564897419588e+01 dipole="-9.2448551541e-02 1.3840000261e-01 -6.6947768854e-01" quadrupole="-4.8364796590e+00 -5.4523113805e-01 8.9761798063e-02 -5.4523113805e-01 -4.6624755149e+00 -1.9181219104e-01 8.9761798063e-02 -1.9181219104e-01 -3.4938018603e+00" polarizability="7.3284772067e+00 6.0789209135e-01 4.8303894116e-01 6.0789209135e-01 7.1994564802e+00 -6.4561829689e-01 4.8303894116e-01 -6.4561829689e-01 9.7162505786e+00" charge=0 multiplicity=2 method=wB97M-V basis=def2-svpd config_type=oh_radical sample_index=477 temperature=300.0 units=atomic
O         0.0083174556      -0.0124841893       0.1134891998  -8.129119928811e-03   1.217276839898e-02  -5.887629024532e-02
H        -0.1335553409       0.1999066742      -0.9139018598   8.129667793720e-03  -1.217155819207e-02   5.887717131327e-02
2
Properties=species:S:1:pos:R:3:forces:R:3 energy=-7.565359524218e+01 dipole="-1.1295204104e-01 1.6909568957e-01 -6.4340647198e-01" quadrupole="-4.9811598254e+00 3.4415385820e-01 3.5662149801e-01 3.4415385820e-01 -4.3371992761e+00 -2.8960313231e-01 3.5662149801e-01 -2.8960313231e-01 -3.6748761348e+00" polarizability="7.4678906394e+00 -6.1321229095e-01 1.2349256326e-01 -6.1321229095e-01 6.7520134598e+00 -5.0658309312e-01 1.2349256326e-01 -5.0658309312e-01 8.9343877920e+00" charge=0 multiplicity=2 method=wB97M-V basis=def2-svpd config_type=oh_radical sample_index=478 temperature=300.0 units=atomic
O         0.0098368384      -0.0147647260       0.1092762115  -3.970252233890e-03   5.955921326400e-03  -2.264787470876e-02
H        -0.1579524283       0.2364244245      -0.8464979090   3.975005061902e-03  -5.952401796919e-03   2.264680729522e-02
2
Properties=species:S:1:pos:R:3:forces:R:3 energy=-7.565277005743e+01 dipole="-2.8398232361e-02 4.2513661208e-02 -6.7687565305e-01" quadrupole="-4.5596873237e+00 4.8694033915e-01 7.7416391386e-02 4.8694033915e-01 -4.9176316440e+00 -1.1301097891e-01 7.7416391386e-02 -1.1301097891e-01 -3.5222760372e+00" polarizability="6.8292047382e+00 -6.5650301812e-01 6.2428594116e-02 -6.5650301812e-01 7.3127825300e+00 -9.7274249365e-02 6.2428594116e-02 -9.7274249365e-02 9.2912754504e+00" charge=0 multiplicity=2 method=wB97M-V basis=def2-svpd config_type=oh_radical sample_index=479 temperature=300.0 units=atomic
O         0.0024948655      -0.0037446996       0.1127197501  -1.461503323411e-03   2.188619470999e-03  -3.484937746311e-02
H        -0.0400606416       0.0599630802      -0.9015913697   1.461937280488e-03  -2.189108007003e-03   3.484905654113e-02
2
Properties=species:S:1:pos:R:3:forces:R:3 energy=-7.561140757617e+01 dipole="-2.7172003937e-01 4.0678050182e-01 -5.5604653802e-01" quadrupole="-4.8547270578e+00 -9.9098016534e-02 8.6093723769e-01 -9.9098016534e-02 -4.0077727662e+00 -7.2917991126e-01 8.6093723769e-01 -7.2917991126e-01 -3.9979514696e+00" polarizability="8.7789231718e+00 -1.6385279552e+00 1.1782674374e+00 -1.6385279552e+00 9.0587120539e+00 -2.5530623938e+00 1.1782674374e+00 -2.5530623938e+00 1.1199615502e+01" charge=0 multiplicity=2 method=wB97M-V basis=def2-svpd config_type=oh_radical sample_index=480 temperature=300.0 units=atomic
O         0.0272665637      -0.0409260909       0.1090400839  -4.181835373966e-02   6.260133380488e-02  -8.557080434496e-02
H        -0.4378256281       0.6553408091      -0.8427200838   4.181721276268e-02  -6.260413414067e-02   8.557411195758e-02
2
Properties=species:S:1:pos:R:3:forces:R:3 energy=-7.565417528951e+01 dipole="9.4528360211e-02 -1.4151480216e-01 -6.4734733498e-01" quadrupole="-4.1792757366e+00 -6.5018418650e-02 -8.5316895734e-02 -6.5018418650e-02 -5.1569632191e+00 3.5319429818e-01 -8.5316895734e-02 3.5319429818e-01 -3.6569787479e+00" polarizability="6.3583453643e+00 -1.9719086455e-02 -3.5452814465e-01 -1.9719086455e-02 7.7203980545e+00 2.3656647990e-01 -3.5452814465e-01 2.3656647990e-01 8.7122672494e+00" charge=0 multiplicity=2 method=wB97M-V basis=def2-svpd config_type=oh_radical sample_index=481 temperature=300.0 units=atomic
O        -0.0081354560       0.0122110148       0.1089547435   9.716206243852e-04  -1.457950084157e-03  -6.674107573990e-03
H         0.1306329309      -0.1955323882      -0.8413547143  -9.741277538545e-04   1.458542251296e-03   6.671821960304e-03
2
Properties=species:S:1:pos:R:3:forces:R:3 energy=-7.564080230521e+01 dipole="-1.7602846727e-01 2.6352456065e-01 -6.2960982939e-01" quadrupole="-4.9812966145e+00 -5.7896562028e-01 2.3949442729e-01 -5.7896562028e-01 -4.4419480533e+00 -3.3360326995e-01 2.3949442729e-01 -3.3360326995e-01 -3.5439349641e+00" polarizability="7.8837313874e+00 2.5546191901e-01 9.3659918297e-01 2.5546191901e-01 7.5903479943e+00 -1.4362895123e+00 9.3659918297e-01 -1.4362895123e+00 9.9882523675e+00" charge=0 multiplicity=2 method=wB97M-V basis=def2-svpd config_type=oh_radical sample_index=482 temperature=300.0 units=atomic
O         0.0163534502      -0.0245459162       0.1117434181  -2.142741799129e-02   3.207925546264e-02  -7.664254353215e-02
H        -0.2625911969       0.3930485482      -0.8859709536   2.142829999700e-02  -3.207994174066e-02   7.664572370302e-02
2
Properties=species:S:1:pos:R:3:forces:R:3 energy=-7.565408354336e+01 dipole="4.2403405246e-02 -6.3479410992e-02 -6.5947889498e-01" quadrupole="-4.8615139871e+00 4.8168283941e-01 -1.3198271418e-01 4.8168283941e-01 -4.5140649491e+00 1.2568496473e-01 -1.3198271418e-01 1.2568496473e-01 -3.6177544818e+00" polarizability="7.1671668093e+00 -6.4128669818e-01 -2.7389253248e-02 -6.4128669818e-01 6.7349163663e+00 1.3377967980e-01 -2.7389253248e-02 1.3377967980e-01 8.5384398332e+00" charge=0 multiplicity=2 method=wB97M-V basis=def2-svpd config_type=oh_radical sample_index=483 temperature=300.0 units=atomic
O        -0.0036059069       0.0054123312       0.1093242465  -7.818920574869e-04   1.172862041864e-03   1.217596913681e-02
H         0.0579008955      -0.0866665112      -0.8472664240   7.823743611589e-04  -1.170937673982e-03  -1.217387309510e-02
2
Properties=species:S:1:pos:R:3:forces:R:3 energy=-7.565370437735e+01 dipole="-1.4284450919e-01 2.1384624134e-01 -6.2309768788e-01" quadrupole="-5.0455999254e+00 2.0388282846e-01 4.3183572709e-01 2.0388282846e-01 -4.2015211945e+00 -2.9871508287e-01 4.3183572709e-01 -2.9871508287e-01 -3.7420120359e+00" polarizability="7.6117811781e+00 -5.2174402495e-01 1.5145278676e-01 -5.2174402495e-01 6.7112483944e+00 -6.8425779007e-01 1.5145278676e-01 -6.8425779007e-01 8.7839561214e+00" charge=0 multiplicity=2 method=wB97M-V basis=def2-svpd config_type=oh_radical sample_index=484 temperature=300.0 units=atomic
O         0.0124213781      -0.0186440232       0.1074192327  -4.601723795582e-03   6.888027646281e-03  -2.006543153716e-02
H        -0.1994529897       0.2985427879      -0.8167879491   4.599708325812e-03  -6.887352729558e-03   2.006788348461e-02
2
Properties=species:S:1:pos:R:3:forces:R:3 energy=-7.565116381027e+01 dipole="-4.0582692335e-02 6.0754792395e-02 -6.4779081179e-01" quadrupole="-4.9931615210e+00 3.8389860815e-01 1.2379824650e-01 3.8389860815e-01 -4.3132683880e+00 -9.1699324270e-02 1.2379824650e-01 -9.1699324270e-02 -3.6741440193e+00" polarizability="7.2778612133e+00 -4.9770109716e-01 -4.4008765865e-04 -4.9770109716e-01 6.4355174752e+00 -1.1704138527e-01 -4.4008765865e-04 -1.1704138527e-01 8.0050198424e+00" charge=0 multiplicity=2 method=wB97M-V basis=def2-svpd config_type=oh_radical sample_index=485 temperature=300.0 units=atomic
O         0.0033603230      -0.0050437190       0.1068728406   3.940495966955e-03  -5.898915479028e-03   6.290099440214e-02
H        -0.0539574973       0.0807640021      -0.8080461756  -3.939823002284e-03   5.898355695820e-03  -6.290180059921e-02
2
Properties=species:S:1:pos:R:3:forces:R:3 energy=-7.564067811466e+01 dipole="-2.2127203835e-01 3.3125396212e-01 -5.8173937607e-01" quadrupole="-4.7055033884e+00 -6.8099311874e-01 1.6521638541e-01 -6.8099311874e-01 -4.5710447262e+00 -4.9213188870e-01 1.6521638541e-01 -4.9213188870e-01 -3.6806939703e+00" polarizability="7.7162157482e+00 8.0980932410e-02 1.2434431877e+00 8.0980932410e-02 8.2399570841e+00 -1.5250347645e+00 1.2434431877e+00 -1.5250347645e+00 9.5227459622e+00" charge=0 multiplicity=2 method=wB97M-V basis=def2-svpd config_type=oh_radical sample_index=486 temperature=300.0 units=atomic
O         0.0205650539      -0.0308673756       0.1073033092  -2.701034877844e-02   4.043485971998e-02  -7.101206689829e-02
H        -0.3302179081       0.4942727360      -0.8149332788   2.701163151637e-02  -4.043604544098e-02   7.101402149843e-02
2
Properties=species:S:1:pos:R:3:forces:R:3 energy=-7.565303987919e+01 dipole="-7.8858572846e-03 1.1805925916e-02 -6.5739610424e-01" quadrupole="-5.1359089323e+00 2.4842011626e-01 2.3318772849e-02 2.4842011626e-01 -4.2218007282e+00 -1.4790948305e-02 2.3318772849e-02 -1.4790948305e-02 -3.6306093390e+00" polarizability="7.4763422845e+00 -3.1699181261e-01 3.7418744760e-03 -3.1699181261e-01 6.3126901736e+00 -3.1219256305e-02 3.7418744760e-03 -3.1219256305e-02 8.2621864943e+00" charge=0 multiplicity=2 method=wB97M-V basis=def2-svpd config_type=oh_radical sample_index=487 temperature=300.0 units=atomic
O         0.0006612757      -0.0009925501       0.1083657521   4.504616734680e-04  -6.737685336674e-04   3.756474488518e-02
H        -0.0106182600       0.0158934942      -0.8319313924  -4.502927215626e-04   6.742897323253e-04  -3.756195393942e-02
2
Properties=species:S:1:pos:R:3:forces:R:3 energy=-7.565419066192e+01 dipole="-9.4119086290e-03 1.4090194707e-02 -6.6876772882e-01" quadrupole="-4.7990625904e+00 5.1492756408e-01 2.9104360723e-02 5.1492756408e-01 -4.6280334612e+00 -3.0968309751e-02 2.9104360723e-02 -3.0968309751e-02 -3.5703262297e+00" polarizability="7.0961607589e+00 -6.7229434682e-01 9.7867586898e-03 -6.7229434682e-01 6.8740524168e+00 -3.1075363827e-02 9.7867586898e-03 -3.1075363827e-02 8.7972628510e+00" charge=0 multiplicity=2 method=wB97M-V basis=def2-svpd config_type=oh_radical sample_index=488 temperature=300.0 units=atomic
O         0.0008093829      -0.0012148534       0.1107591169  -7.975800465657e-05   1.194846622118e-04  -5.704152634472e-03
H        -0.0129964515       0.0194531899      -0.8702230357   8.049790692356e-05  -1.204252304097e-04   5.703760021368e-03
2
Properties=species:S:1:pos:R:3:forces:R:3 energy=-7.563236950470e+01 dipole="1.0077223606e-01 -1.5086234905e-01 -6.9340302585e-01" quadrupole="-5.3422456265e+00 -6.1967843389e-02 -3.0213783785e-01 -6.1967843389e-02 -4.2759175875e+00 2.3144758631e-01 -3.0213783785e-01 2.3144758631e-01 -3.3393545944e+00" polarizability="8.2305529817e+00 -1.1207839726e-01 -4.7705703063e-01 -1.1207839726e-01 6.9134929659e+00 1.0209382733e+00 -4.7705703063e-01 1.0209382733e+00 1.1389456453e+01" charge=0 multiplicity=2 method=wB97M-V basis=def2-svpd config_type=oh_radical sample_index=489 temperature=300.0 units=atomic
O        -0.0096022973       0.0144126887       0.1193492235   1.396617900291e-02  -2.091198560483e-02  -9.611385791372e-02
H         0.1541863476      -0.2307873255      -1.0076568696  -1.396677230569e-02   2.091156680460e-02   9.611384355193e-02
2
Properties=species:S:1:pos:R:3:forces:R:3 energy=-7.564985542375e+01 dipole="9.5260340882e-02 -1.4260690220e-01 -6.2599565996e-01" quadrupole="-4.2056381301e+00 2.5364769666e-01 -1.4940861837e-01 2.5364769666e-01 -4.9922423881e+00 3.5492745520e-01 -1.4940861837e-01 3.5492745520e-01 -3.7747889252e+00" polarizability="6.3241979352e+00 -3.9594931274e-01 -1.4902125552e-01 -3.9594931274e-01 7.3720998780e+00 5.9155919942e-02 -1.4902125552e-01 5.9155919942e-02 7.8601358751e+00" charge=0 multiplicity=2 method=wB97M-V basis=def2-svpd config_type=oh_radical sample_index=490 temperature=300.0 units=atomic
O        -0.0078373299       0.0117635387       0.1047303616  -1.136474118931e-02   1.700979522574e-02   7.468153218965e-02
H         0.1258458507      -0.1883670492      -0.7737684756   1.136459064309e-02  -1.701410192912e-02  -7.468295382392e-02
2
Properties=species:S:1:pos:R:3:forces:R:3 energy=-7.560337299676e+01 dipole="-2.7849617229e-01 4.1692319915e-01 -5.5582034627e-01" quadrupole="-4.5544086821e+00 -3.5467913353e-02 8.1954613914e-01 -3.5467913353e-02 -4.1743927068e+00 -9.6370361673e-01 8.1954613914e-01 -9.6370361673e-01 -4.1006058924e+00" polarizability="8.5683507801e+00 -1.9487486277e+00 1.4661024574e+00 -1.9487486277e+00 9.6879074210e+00 -2.5669666115e+00 1.4661024574e+00 -2.5669666115e+00 1.1751689724e+01" charge=0 multiplicity=2 method=wB97M-V basis=def2-svpd config_type=oh_radical sample_index=491 temperature=300.0 units=atomic
O         0.0284558026      -0.0427110939       0.1100374418  -4.312255042572e-02   6.455654344377e-02  -8.606672983647e-02
H        -0.4569215163       0.6839236832      -0.8586768959   4.312417802145e-02  -6.456133328252e-02   8.606760941643e-02
2
Properties=species:S:1:pos:R:3:forces:R:3 energy=-7.564726501746e+01 dipole="9.3873643683e-03 -1.4053716372e-02 -6.4438804730e-01" quadrupole="-4.9728077668e+00 3.9513769450e-01 -2.8232171151e-02 3.9513769450e-01 -4.3050614433e+00 2.0553428885e-02 -2.8232171151e-02 2.0553428885e-02 -3.6921430679e+00" polarizability="7.2095685606e+00 -4.8862937861e-01 3.3139227730e-03 -4.8862937861e-01 6.3856172496e+00 2.1845648522e-02 3.3139227730e-03 2.1845648522e-02 7.7132296310e+00" charge=0 multiplicity=2 method=wB97M-V basis=def2-svpd config_type=oh_radical sample_index=492 temperature=300.0 units=atomic
O        -0.0007645681       0.0011475880       0.1057126980  -1.475868579852e-03   2.210012814272e-03   1.013919404535e-01
H         0.0122768491      -0.0183760833      -0.7894849577   1.476802684807e-03  -2.210859299505e-03  -1.013934264105e-01
2
Properties=species:S:1:pos:R:3:forces:R:3 energy=-7.565183552373e+01 dipole="3.5049917440e-02 -5.2473006805e-02 -6.5056618652e-01" quadrupole="-5.1048972210e+00 2.6435851703e-01 -1.0329331063e-01 2.6435851703e-01 -4.2178353938e+00 6.5394202363e-02 -1.0329331063e-01 6.5394202363e-02 -3.6603434085e+00" polarizability="7.4245678458e+00 -3.4523837382e-01 -8.0061159995e-03 -3.4523837382e-01 6.3143239341e+00 1.2461936849e-01 -8.0061159995e-03 1.2461936849e-01 8.0794967919e+00" charge=0 multiplicity=2 method=wB97M-V basis=def2-svpd config_type=oh_radical sample_index=493 temperature=300.0 units=atomic
O        -0.0029134562       0.0043729887       0.1073128192  -2.956274907080e-03   4.424897104433e-03   5.486944691520e-02
H         0.0467820520      -0.0700237396      -0.8150854302   2.955386261602e-03  -4.424923220554e-03  -5.487031382352e-02
2
Properties=species:S:1:pos:R:3:forces:R:3 energy=-7.565405891109e+01 dipole="5.0745622786e-02 -7.5968119068e-02 -6.5727881909e-01" quadrupole="-4.1822612060e+00 -1.0866746439e-01 -3.7695938170e-02 -1.0866746439e-01 -5.1877065274e+00 1.8303698554e-01 -3.7695938170e-02 1.8303698554e-01 -3.6227607371e+00" polarizability="6.2952569510e+00 1.1226725595e-01 -1.8626241901e-01 1.1226725595e-01 7.6154205177e+00 1.1549664657e-01 -1.8626241901e-01 1.1549664657e-01 8.5119458670e+00" charge=0 multiplicity=2 method=wB97M-V basis=def2-svpd config_type=oh_radical sample_index=494 temperature=300.0 units=atomic
O        -0.0043125810       0.0064730226       0.1091012908  -1.018306581462e-03   1.525270800689e-03   1.319526248247e-02
H         0.0692481284      -0.1036511378      -0.8436993374   1.018624845090e-03  -1.524287287090e-03  -1.319391265303e-02
2
Properties=species:S:1:pos:R:3:forces:R:3 energy=-7.563989769006e+01 dipole="5.3356748626e-02 -7.9875453267e-02 -6.2839830273e-01" quadrupole="-4.1951917390e+00 2.9959504766e-01 -8.3168432481e-02 2.9959504766e-01 -4.9952439220e+00 1.9461552935e-01 -8.3168432481e-02 1.9461552935e-01 -3.7606259509e+00" polarizability="6.2446735381e+00 -3.8059000790e-01 -4.6876838013e-02 -3.8059000790e-01 7.2250630587e+00 -1.4332354016e-02 -4.6876838013e-02 -1.4332354016e-02 7.3643589557e+00" charge=0 multiplicity=2 method=wB97M-V basis=def2-svpd config_type=oh_radical sample_index=495 temperature=300.0 units=atomic
O        -0.0042568127       0.0063893164       0.1033574028  -1.316099195069e-02   1.970336661828e-02   1.550085481891e-01
H         0.0683526431      -0.1023107683      -0.7518023940   1.316078416007e-02  -1.970147744585e-02  -1.550059319913e-01
2
Properties=species:S:1:pos:R:3:forces:R:3 energy=-7.565422329513e+01 dipole="-5.4792902499e-02 8.2028211630e-02 -6.6010122726e-01" quadrupole="-4.2520053678e+00 -2.6710242670e-01 2.8399742394e-02 -2.6710242670e-01 -5.1404685790e+00 -1.8041690997e-01 2.8399742394e-02 -1.8041690997e-01 -3.6026690729e+00" polarizability="6.4005432204e+00 3.1291473548e-01 2.3161720616e-01 3.1291473548e-01 7.5837565557e+00 -1.6746995394e-01 2.3161720616e-01 -1.6746995394e-01 8.6823889025e+00" charge=0 multiplicity=2 method=wB97M-V basis=def2-svpd config_type=oh_radical sample_index=496 temperature=300.0 units=atomic
O         0.0046959674      -0.0070484712       0.1098181121  -3.846433973681e-05   5.570635679392e-05  -4.505233926984e-04
H        -0.0754042531       0.1128656732      -0.8551678215   3.774318756811e-05  -5.669408463443e-05   4.516219586930e-04
2
Properties=species:S:1:pos:R:3:forces:R:3 energy=-7.562552053090e+01 dipole="-1.5728468183e-01 2.3546444487e-01 -6.6760816387e-01" quadrupole="-4.5579653489e+00 -5.4252642702e-01 1.5291903997e-01 -5.4252642702e-01 -4.9732727087e+00 -5.3395721748e-01 1.5291903997e-01 -5.3395721748e-01 -3.4003564788e+00" polarizability="7.4098101596e+00 2.3740509500e-01 1.2416513308e+00 2.3740509500e-01 8.4224471910e+00 -1.4322306430e+00 1.2416513308e+00 -1.4322306430e+00 1.1527029210e+01" charge=0 multiplicity=2 method=wB97M-V basis=def2-svpd config_type=oh_radical sample_index=497 temperature=300.0 units=atomic
O         0.0152603666      -0.0229052387       0.1180466851  -2.303771396380e-02   3.448784538667e-02  -9.778323852663e-02
H        -0.2450392962       0.3667767265      -0.9868174485   2.303882859779e-02  -3.448932704366e-02   9.778554021072e-02
2
Properties=species:S:1:pos:R:3:forces:R:3 energy=-7.564554138078e+01 dipole="-6.3414224053e-02 9.4934101962e-02 -6.8745788299e-01" quadrupole="-5.3014990996e+00 -1.0975334351e-01 1.6736487938e-01 -1.0975334351e-01 -4.2622683797e+00 -1.1957741343e-01 1.6736487938e-01 -1.1957741343e-01 -3.4258949238e+00" polarizability="7.9560764624e+00 8.4766887263e-02 2.3149088461e-01 8.4766887263e-02 6.5950575133e+00 -5.2478504747e-01 2.3149088461e-01 -5.2478504747e-01 1.0244788323e+01" charge=0 multiplicity=2 method=wB97M-V basis=def2-svpd config_type=oh_radical sample_index=498 temperature=300.0 units=atomic
O         0.0057916674      -0.0086930759       0.1160518033  -6.704072644562e-03   1.003780524756e-02  -7.267908909308e-02
H        -0.0929981661       0.1392003791      -0.9549011669   6.703922291037e-03  -1.003697597254e-02   7.267829283670e-02
2
Properties=species:S:1:pos:R:3:forces:R:3 energy=-7.565415592935e+01 dipole="-8.2604977334e-02 1.2366352344e-01 -6.5299521612e-01" quadrupole="-4.2054111322e+00 -1.6955068748e-01 5.7624665124e-02 -1.6955068748e-01 -5.1609342238e+00 -2.9380631443e-01 5.7624665124e-02 -2.9380631443e-01 -3.6281161591e+00" polarizability="6.3772804554e+00 1.4113203073e-01 3.3751767737e-01 1.4113203073e-01 7.6911766710e+00 -2.3430724314e-01 3.3751767737e-01 -2.3430724314e-01 8.7470424296e+00" charge=0 multiplicity=2 method=wB97M-V basis=def2-svpd config_type=oh_radical sample_index=499 temperature=300.0 units=atomic
O         0.0071150843      -0.0106794751       0.1094884110  -9.989027823767e-04   1.502856098825e-03  -7.920245881682e-03
H        -0.1142485831       0.1710081687      -0.8498929053   1.002133002451e-03  -1.499748668877e-03   7.918853099824e-03
