
    -----------------------------------------------------------------------
          Psi4: An Open-Source Ab Initio Electronic Structure Package
                               Psi4 1.11 release

                         Git: Rev {} zzzzzzz 


    D. G. A. Smith, L. A. Burns, A. C. Simmonett, R. M. Parrish,
    M. C. Schieber, R. Galvelis, P. Kraus, H. Kruse, R. Di Remigio,
    A. Alenaizan, A. M. James, S. Lehtola, J. P. Misiewicz, M. Scheurer,
    R. A. Shaw, J. B. Schriber, Y. Xie, Z. L. Glick, D. A. Sirianni,
    J. S. O'Brien, J. M. Waldrop, A. Kumar, E. G. Hohenstein,
    B. P. Pritchard, B. R. Brooks, H. F. Schaefer III, A. Yu. Sokolov,
    K. Patkowski, A. E. DePrince III, U. Bozkaya, R. A. King,
    F. A. Evangelista, J. M. Turney, T. D. Crawford, C. D. Sherrill,
    J. Chem. Phys. 152(18) 184108 (2020). https://doi.org/10.1063/5.0006002

                            Additional Code Authors
    E. T. Seidl, C. L. Janssen, E. F. Valeev, M. L. Leininger,
    J. F. Gonthier, R. M. Richard, H. R. McAlexander, M. Saitow, X. Wang,
    P. Verma, M. H. Lechner, A. Jiang, S. Behnle, A. G. Heide,
    M. F. Herbst, D. L. Poole, T. Győri, E. C. Mitchell, J. P. Pederson,
    and A. M. Wallace

             Previous Authors, Complete List of Code Contributors,
                       and Citations for Specific Modules
    https://github.com/psi4/psi4/blob/master/codemeta.json
    https://github.com/psi4/psi4/graphs/contributors
    https://psicode.org/psi4manual/master/introduction.html#citing-psifour

    -----------------------------------------------------------------------


    Psi4 started on: Tuesday, 28 July 2026 04:59PM

    Process ID: 79396
    Host:       PNNL-KM3X724WWL
    PSIDATADIR: /opt/miniconda3/envs/rsfff/share/psi4
    Memory:     7.5 GiB
    Threads:    14
    Addons:     a̶d̶c̶c̶, a̶m̶b̶i̶t̶, b̶s̶e̶, c̶c̶t̶3̶, c̶f̶o̶u̶r̶, c̶h̶e̶m̶p̶s̶2̶, c̶p̶p̶e̶, d̶d̶x̶,
                d̶f̶t̶d̶3̶, d̶f̶t̶d̶4̶, dkh, ecpint, einsums, f̶o̶r̶t̶e̶, gauxc, g̶c̶p̶,
                g̶d̶m̶a̶, geometric, g̶p̶u̶_̶d̶f̶c̶c̶, i̶n̶t̶e̶g̶r̶a̶t̶o̶r̶x̶x̶, i̶p̶i̶,
                l̶i̶b̶e̶f̶p̶, m̶d̶i̶, m̶p̶2̶d̶, m̶r̶c̶c̶, ooo, o̶p̶e̶n̶f̶e̶r̶m̶i̶o̶n̶p̶s̶i̶4̶,
                pcmsolver, p̶s̶i̶4̶f̶o̶c̶k̶c̶i̶, p̶s̶i̶x̶a̶s̶, p̶y̶e̶i̶n̶s̶u̶m̶s̶, r̶e̶s̶p̶,
                s̶i̶m̶i̶n̶t̶, s̶n̶s̶m̶p̶2̶, v̶2̶r̶d̶m̶_̶c̶a̶s̶s̶c̶f̶

Scratch directory: /tmp/
   => Libint2 <=

    Primary   basis highest AM E, G, H:  7, 6, 3
    Auxiliary basis highest AM E, G, H:  7, 7, 4
    Onebody   basis highest AM E, G, H:  -, -, -
    Solid Harmonics ordering:            Gaussian

*** tstart() called on PNNL-KM3X724WWL
*** at Tue Jul 28 16:59:52 2026

   => Loading Basis Set <=

    Name: DEF2-SVPD
    Role: ORBITAL
    Keyword: BASIS
    atoms 1 entry H          line    14 file /opt/miniconda3/envs/rsfff/share/psi4/basis/def2-svpd.gbs 


         ---------------------------------------------------------
                                   SCF
               by Justin Turney, Rob Parrish, Andy Simmonett
                          and Daniel G. A. Smith
                              UKS Reference
                       14 Threads,   7629 MiB Core
         ---------------------------------------------------------

  ==> Geometry <==

    Molecular point group: c1
    Geometry (in Angstrom), charge = 0, multiplicity = 2:

       Center              X                  Y                   Z               Mass       
    ------------   -----------------  -----------------  -----------------  -----------------
         H            0.000000000000     0.000000000000     0.000000000000     1.007825032230

  Running in c1 symmetry.

  Rotational constants: A = ************  B = ************  C = ************ [cm^-1]
  Rotational constants: A = ************  B = ************  C = ************ [MHz]
  Nuclear repulsion =    0.000000000000000

  Charge       = 0
  Multiplicity = 2
  Electrons    = 1
  Nalpha       = 1
  Nbeta        = 0

  ==> Algorithm <==

  SCF Algorithm Type is DF.
  DIIS enabled.
  MOM disabled.
  Fractional occupation disabled.
  Guess Type is CORE.
  Energy threshold   = 1.00e-09
  Density threshold  = 1.00e-09
  Integral threshold = 1.00e-12

  ==> Primary Basis <==

  Basis Set: DEF2-SVPD
    Blend: DEF2-SVPD
    Number of shells: 4
    Number of basis functions: 8
    Number of Cartesian functions: 8
    Spherical Harmonics?: true
    Max angular momentum: 1

  ==> DFT Potential <==

   => LibXC <=

    Version 7.0.0
    S. Lehtola, C. Steigemann, M. J.T. Oliveira, and M. A.L. Marques.,  SoftwareX 7, 1–5 (2018) (10.1016/j.softx.2017.11.002)

   => Composite Functional: B3LYP <= 

    B3LYP Hyb-GGA Exchange-Correlation Functional

    P. J. Stephens, F. J. Devlin, C. F. Chabalowski, and M. J. Frisch.,  J. Phys. Chem. 98, 11623 (1994) (10.1021/j100096a001)

    Deriv               =              1
    GGA                 =           TRUE
    Meta                =          FALSE

    Exchange Hybrid     =           TRUE
    MP2 Hybrid          =          FALSE

   => Exchange Functionals <=

    0.0800   Slater exchange
    0.7200         Becke 88

   => Exact (HF) Exchange <=

    0.2000               HF 

   => Correlation Functionals <=

    0.1900   Vosko, Wilk & Nusair (VWN5_RPA)
    0.8100   Lee, Yang & Parr

   => LibXC Density Thresholds  <==

    XC_HYB_GGA_XC_B3LYP:  1.00E-15 

   => Molecular Quadrature <=

    Radial Scheme          =       TREUTLER
    Pruning Scheme         =           NONE
    Nuclear Scheme         =       TREUTLER

    Blocking Scheme        =         OCTREE
    BS radius alpha        =              1
    Pruning alpha          =              1
    Radial Points          =             75
    Spherical Points       =            302
    Total Points           =          22348
    Total Blocks           =            213
    Max Points             =            252
    Max Functions          =              8
    Weights Tolerance      =       1.00E-15

   => Loading Basis Set <=

    Name: (DEF2-SVPD AUX)
    Role: JKFIT
    Keyword: DF_BASIS_SCF
    atoms 1 entry H          line    18 file /opt/miniconda3/envs/rsfff/share/psi4/basis/def2-universal-jkfit.gbs 

  ==> Integral Setup <==

  DFHelper Memory: AOs need 0.000 GiB; user supplied 5.583 GiB. 
  SCF_SUBTYPE=INCORE selected. In-core MEM_DF algorithm will be used.
  Using in-core AOs.

  ==> MemDFJK: Density-Fitted J/K Matrices <==

    J tasked:                   Yes
    K tasked:                   Yes
    wK tasked:                   No
    OpenMP threads:              14
    Memory [MiB]:              5716
    Algorithm:                 Core
    Schwarz Cutoff:           1E-12
    Mask sparsity (%):       0.0000
    Fitting Condition:        1E-10

   => Auxiliary Basis Set <=

  Basis Set: (DEF2-SVPD AUX)
    Blend: DEF2-UNIVERSAL-JKFIT
    Number of shells: 6
    Number of basis functions: 18
    Number of Cartesian functions: 20
    Spherical Harmonics?: true
    Max angular momentum: 2

  Cached 100.0% of DFT collocation blocks in 0.005 [GiB].

  Minimum eigenvalue in the overlap matrix is 3.1520017525E-01.
  Reciprocal condition number of the overlap matrix is 1.8708464390E-01.
    Using symmetric orthogonalization.

  ==> Pre-Iterations <==

  SCF Guess: Core (One-Electron) Hamiltonian.

   -------------------------------------------------------
    Irrep   Nso     Nmo     Nalpha   Nbeta   Ndocc  Nsocc
   -------------------------------------------------------
     A          8       8       1       0       0       1
   -------------------------------------------------------
    Total       8       8       1       0       0       1
   -------------------------------------------------------

  ==> Iterations <==

                           Total Energy        Delta E     RMS |[F,P]|

   @DF-UKS iter   1:    -0.50130645796810   -5.01306e-01   2.93589e-04 ADIIS/DIIS
   @DF-UKS iter   2:    -0.50131411380473   -7.65584e-06   7.54971e-06 DIIS
   @DF-UKS iter   3:    -0.50131411887059   -5.06586e-09   1.19577e-09 DIIS
   @DF-UKS iter   4:    -0.50131411887059   -2.22045e-16   9.71994e-14 DIIS
  Energy and wave function converged.


  ==> Post-Iterations <==

   Electrons on quadrature grid:
      Nalpha   =    1.0000000000 ; deviation = 2.787e-12
      Nbeta    =    0.0000000000 ; deviation = 0.000e+00
      Ntotal   =    1.0000000000 ; deviation = 2.787e-12 

   @Spin Contamination Metric:   0.000000000E+00
   @S^2 Expected:                7.500000000E-01
   @S^2 Observed:                7.500000000E-01
   @S   Expected:                5.000000000E-01
   @S   Observed:                5.000000000E-01

    Orbital Energies [Eh]
    ---------------------

    Alpha Occupied:                                                       

       1A     -0.319606  

    Alpha Virtual:                                                        

       2A      0.149578     3A      0.149578     4A      0.149578  
       5A      0.419608     6A      1.560199     7A      1.560199  
       8A      1.560199  

    Beta Occupied:                                                        

    

    Beta Virtual:                                                         

       1A     -0.015658     2A      0.221508     3A      0.221508  
       4A      0.221508     5A      0.661816     6A      1.806741  
       7A      1.806741     8A      1.806741  

    Final Occupation by Irrep:
              A 
    DOCC [     0 ]
    SOCC [     1 ]
    NA   [     1 ]
    NB   [     0 ]

  @DF-UKS Final Energy:    -0.50131411887059

   => Energetics <=

    Nuclear Repulsion Energy =              0.0000000000000000
    One-Electron Energy =                  -0.4992711608966972
    Two-Electron Energy =                   0.2490979554525659
    DFT Exchange-Correlation Energy =      -0.2511409134264571
    Empirical Dispersion Energy =           0.0000000000000000
    VV10 Nonlocal Energy =                  0.0000000000000000
    Total Energy =                         -0.5013141188705885

  UHF NO Occupations:
  HONO-0 :    1  A 1.0000000
  LUNO+0 :    2  A 0.0000000
  LUNO+1 :    3  A 0.0000000
  LUNO+2 :    4  A -0.0000000
  LUNO+3 :    5  A -0.0000000


Computation Completed


Properties will be evaluated at   0.000000,   0.000000,   0.000000 [a0]

Properties computed using the SCF density matrix


 Multipole Moments:

 ------------------------------------------------------------------------------------
     Multipole            Electronic (a.u.)      Nuclear  (a.u.)        Total (a.u.)
 ------------------------------------------------------------------------------------

 L = 1.  Multiply by 2.5417464519 to convert [e a0] to [Debye]
 Dipole X            :          0.0000000            0.0000000            0.0000000
 Dipole Y            :          0.0000000            0.0000000            0.0000000
 Dipole Z            :         -0.0000000            0.0000000           -0.0000000
 Magnitude           :                                                    0.0000000

 ------------------------------------------------------------------------------------

*** tstop() called on PNNL-KM3X724WWL at Tue Jul 28 16:59:52 2026
Module time:
	user time   =       0.28 seconds =       0.00 minutes
	system time =       0.09 seconds =       0.00 minutes
	total time  =          0 seconds =       0.00 minutes
Total time:
	user time   =       0.28 seconds =       0.00 minutes
	system time =       0.09 seconds =       0.00 minutes
	total time  =          0 seconds =       0.00 minutes

Scratch directory: /tmp/
   => Libint2 <=

    Primary   basis highest AM E, G, H:  7, 6, 3
    Auxiliary basis highest AM E, G, H:  7, 7, 4
    Onebody   basis highest AM E, G, H:  -, -, -
    Solid Harmonics ordering:            Gaussian

*** tstart() called on PNNL-KM3X724WWL
*** at Tue Jul 28 16:59:53 2026

   => Loading Basis Set <=

    Name: DEF2-SVPD
    Role: ORBITAL
    Keyword: BASIS
    atoms 1 entry H          line    14 file /opt/miniconda3/envs/rsfff/share/psi4/basis/def2-svpd.gbs 


         ---------------------------------------------------------
                                   SCF
               by Justin Turney, Rob Parrish, Andy Simmonett
                          and Daniel G. A. Smith
                              UKS Reference
                       14 Threads,   7629 MiB Core
         ---------------------------------------------------------

  ==> Geometry <==

    Molecular point group: c1
    Geometry (in Angstrom), charge = 0, multiplicity = 2:

       Center              X                  Y                   Z               Mass       
    ------------   -----------------  -----------------  -----------------  -----------------
         H            0.000000000000     0.000000000000     0.000000000000     1.007825032230

  Running in c1 symmetry.

  Rotational constants: A = ************  B = ************  C = ************ [cm^-1]
  Rotational constants: A = ************  B = ************  C = ************ [MHz]
  Nuclear repulsion =    0.000000000000000

  Charge       = 0
  Multiplicity = 2
  Electrons    = 1
  Nalpha       = 1
  Nbeta        = 0

  ==> Algorithm <==

  SCF Algorithm Type is DF.
  DIIS enabled.
  MOM disabled.
  Fractional occupation disabled.
  Guess Type is CORE.
  Energy threshold   = 1.00e-09
  Density threshold  = 1.00e-09
  Integral threshold = 1.00e-12

  ==> Primary Basis <==

  Basis Set: DEF2-SVPD
    Blend: DEF2-SVPD
    Number of shells: 4
    Number of basis functions: 8
    Number of Cartesian functions: 8
    Spherical Harmonics?: true
    Max angular momentum: 1

  ==> DFT Potential <==

   => LibXC <=

    Version 7.0.0
    S. Lehtola, C. Steigemann, M. J.T. Oliveira, and M. A.L. Marques.,  SoftwareX 7, 1–5 (2018) (10.1016/j.softx.2017.11.002)

   => Composite Functional: B3LYP <= 

    B3LYP Hyb-GGA Exchange-Correlation Functional

    P. J. Stephens, F. J. Devlin, C. F. Chabalowski, and M. J. Frisch.,  J. Phys. Chem. 98, 11623 (1994) (10.1021/j100096a001)

    Deriv               =              1
    GGA                 =           TRUE
    Meta                =          FALSE

    Exchange Hybrid     =           TRUE
    MP2 Hybrid          =          FALSE

   => Exchange Functionals <=

    0.0800   Slater exchange
    0.7200         Becke 88

   => Exact (HF) Exchange <=

    0.2000               HF 

   => Correlation Functionals <=

    0.1900   Vosko, Wilk & Nusair (VWN5_RPA)
    0.8100   Lee, Yang & Parr

   => LibXC Density Thresholds  <==

    XC_HYB_GGA_XC_B3LYP:  1.00E-15 

   => Molecular Quadrature <=

    Radial Scheme          =       TREUTLER
    Pruning Scheme         =           NONE
    Nuclear Scheme         =       TREUTLER

    Blocking Scheme        =         OCTREE
    BS radius alpha        =              1
    Pruning alpha          =              1
    Radial Points          =             75
    Spherical Points       =            302
    Total Points           =          22348
    Total Blocks           =            213
    Max Points             =            252
    Max Functions          =              8
    Weights Tolerance      =       1.00E-15

   => Loading Basis Set <=

    Name: (DEF2-SVPD AUX)
    Role: JKFIT
    Keyword: DF_BASIS_SCF
    atoms 1 entry H          line    18 file /opt/miniconda3/envs/rsfff/share/psi4/basis/def2-universal-jkfit.gbs 

  ==> Integral Setup <==

  DFHelper Memory: AOs need 0.000 GiB; user supplied 5.583 GiB. 
  SCF_SUBTYPE=INCORE selected. In-core MEM_DF algorithm will be used.
  Using in-core AOs.

  ==> MemDFJK: Density-Fitted J/K Matrices <==

    J tasked:                   Yes
    K tasked:                   Yes
    wK tasked:                   No
    OpenMP threads:              14
    Memory [MiB]:              5716
    Algorithm:                 Core
    Schwarz Cutoff:           1E-12
    Mask sparsity (%):       0.0000
    Fitting Condition:        1E-10

   => Auxiliary Basis Set <=

  Basis Set: (DEF2-SVPD AUX)
    Blend: DEF2-UNIVERSAL-JKFIT
    Number of shells: 6
    Number of basis functions: 18
    Number of Cartesian functions: 20
    Spherical Harmonics?: true
    Max angular momentum: 2

  Cached 100.0% of DFT collocation blocks in 0.005 [GiB].

  Perturbing V by -0.001000 mu(x).
  Minimum eigenvalue in the overlap matrix is 3.1520017525E-01.
  Reciprocal condition number of the overlap matrix is 1.8708464390E-01.
    Using symmetric orthogonalization.

  ==> Pre-Iterations <==

  SCF Guess: Core (One-Electron) Hamiltonian.

   -------------------------------------------------------
    Irrep   Nso     Nmo     Nalpha   Nbeta   Ndocc  Nsocc
   -------------------------------------------------------
     A          8       8       1       0       0       1
   -------------------------------------------------------
    Total       8       8       1       0       0       1
   -------------------------------------------------------

  ==> Iterations <==

                           Total Energy        Delta E     RMS |[F,P]|

   @DF-UKS iter   1:    -0.50130876622919   -5.01309e-01   2.93782e-04 ADIIS/DIIS
   @DF-UKS iter   2:    -0.50131643380391   -7.66757e-06   7.74517e-06 DIIS
   @DF-UKS iter   3:    -0.50131643919704   -5.39312e-09   2.30741e-07 DIIS
   @DF-UKS iter   4:    -0.50131643920358   -6.54388e-12   2.66199e-09 DIIS
   @DF-UKS iter   5:    -0.50131643920358   -6.66134e-16   2.45494e-11 DIIS
  Energy and wave function converged.


  ==> Post-Iterations <==

   Electrons on quadrature grid:
      Nalpha   =    1.0000000000 ; deviation = 2.790e-12
      Nbeta    =    0.0000000000 ; deviation = 0.000e+00
      Ntotal   =    1.0000000000 ; deviation = 2.790e-12 

   @Spin Contamination Metric:   0.000000000E+00
   @S^2 Expected:                7.500000000E-01
   @S^2 Observed:                7.500000000E-01
   @S   Expected:                5.000000000E-01
   @S   Observed:                5.000000000E-01

    Orbital Energies [Eh]
    ---------------------

    Alpha Occupied:                                                       

       1A     -0.319610  

    Alpha Virtual:                                                        

       2A      0.149573     3A      0.149578     4A      0.149578  
       5A      0.419613     6A      1.560197     7A      1.560197  
       8A      1.560197  

    Beta Occupied:                                                        

    

    Beta Virtual:                                                         

       1A     -0.015665     2A      0.221508     3A      0.221508  
       4A      0.221510     5A      0.661815     6A      1.806738  
       7A      1.806738     8A      1.806738  

    Final Occupation by Irrep:
              A 
    DOCC [     0 ]
    SOCC [     1 ]
    NA   [     1 ]
    NB   [     0 ]

  @DF-UKS Final Energy:    -0.50131643920358

   => Energetics <=

    Nuclear Repulsion Energy =              0.0000000000000000
    One-Electron Energy =                  -0.4992733078634788
    Two-Electron Energy =                   0.2490960637227666
    DFT Exchange-Correlation Energy =      -0.2511391950628681
    Empirical Dispersion Energy =           0.0000000000000000
    VV10 Nonlocal Energy =                  0.0000000000000000
    Total Energy =                         -0.5013164392035803

  UHF NO Occupations:
  HONO-0 :    1  A 1.0000000
  LUNO+0 :    2  A 0.0000000
  LUNO+1 :    3  A 0.0000000
  LUNO+2 :    4  A 0.0000000
  LUNO+3 :    5  A 0.0000000


Computation Completed


Properties will be evaluated at   0.000000,   0.000000,   0.000000 [a0]

Properties computed using the SCF density matrix


 Multipole Moments:

 ------------------------------------------------------------------------------------
     Multipole            Electronic (a.u.)      Nuclear  (a.u.)        Total (a.u.)
 ------------------------------------------------------------------------------------

 L = 1.  Multiply by 2.5417464519 to convert [e a0] to [Debye]
 Dipole X            :          0.0046407            0.0000000            0.0046407
 Dipole Y            :          0.0000000            0.0000000            0.0000000
 Dipole Z            :         -0.0000000            0.0000000           -0.0000000
 Magnitude           :                                                    0.0046407

 ------------------------------------------------------------------------------------

*** tstop() called on PNNL-KM3X724WWL at Tue Jul 28 16:59:53 2026
Module time:
	user time   =       0.14 seconds =       0.00 minutes
	system time =       0.04 seconds =       0.00 minutes
	total time  =          0 seconds =       0.00 minutes
Total time:
	user time   =       0.43 seconds =       0.01 minutes
	system time =       0.13 seconds =       0.00 minutes
	total time  =          1 seconds =       0.02 minutes

Scratch directory: /tmp/
   => Libint2 <=

    Primary   basis highest AM E, G, H:  7, 6, 3
    Auxiliary basis highest AM E, G, H:  7, 7, 4
    Onebody   basis highest AM E, G, H:  -, -, -
    Solid Harmonics ordering:            Gaussian

*** tstart() called on PNNL-KM3X724WWL
*** at Tue Jul 28 16:59:53 2026

   => Loading Basis Set <=

    Name: DEF2-SVPD
    Role: ORBITAL
    Keyword: BASIS
    atoms 1 entry H          line    14 file /opt/miniconda3/envs/rsfff/share/psi4/basis/def2-svpd.gbs 


         ---------------------------------------------------------
                                   SCF
               by Justin Turney, Rob Parrish, Andy Simmonett
                          and Daniel G. A. Smith
                              UKS Reference
                       14 Threads,   7629 MiB Core
         ---------------------------------------------------------

  ==> Geometry <==

    Molecular point group: c1
    Geometry (in Angstrom), charge = 0, multiplicity = 2:

       Center              X                  Y                   Z               Mass       
    ------------   -----------------  -----------------  -----------------  -----------------
         H            0.000000000000     0.000000000000     0.000000000000     1.007825032230

  Running in c1 symmetry.

  Rotational constants: A = ************  B = ************  C = ************ [cm^-1]
  Rotational constants: A = ************  B = ************  C = ************ [MHz]
  Nuclear repulsion =    0.000000000000000

  Charge       = 0
  Multiplicity = 2
  Electrons    = 1
  Nalpha       = 1
  Nbeta        = 0

  ==> Algorithm <==

  SCF Algorithm Type is DF.
  DIIS enabled.
  MOM disabled.
  Fractional occupation disabled.
  Guess Type is CORE.
  Energy threshold   = 1.00e-09
  Density threshold  = 1.00e-09
  Integral threshold = 1.00e-12

  ==> Primary Basis <==

  Basis Set: DEF2-SVPD
    Blend: DEF2-SVPD
    Number of shells: 4
    Number of basis functions: 8
    Number of Cartesian functions: 8
    Spherical Harmonics?: true
    Max angular momentum: 1

  ==> DFT Potential <==

   => LibXC <=

    Version 7.0.0
    S. Lehtola, C. Steigemann, M. J.T. Oliveira, and M. A.L. Marques.,  SoftwareX 7, 1–5 (2018) (10.1016/j.softx.2017.11.002)

   => Composite Functional: B3LYP <= 

    B3LYP Hyb-GGA Exchange-Correlation Functional

    P. J. Stephens, F. J. Devlin, C. F. Chabalowski, and M. J. Frisch.,  J. Phys. Chem. 98, 11623 (1994) (10.1021/j100096a001)

    Deriv               =              1
    GGA                 =           TRUE
    Meta                =          FALSE

    Exchange Hybrid     =           TRUE
    MP2 Hybrid          =          FALSE

   => Exchange Functionals <=

    0.0800   Slater exchange
    0.7200         Becke 88

   => Exact (HF) Exchange <=

    0.2000               HF 

   => Correlation Functionals <=

    0.1900   Vosko, Wilk & Nusair (VWN5_RPA)
    0.8100   Lee, Yang & Parr

   => LibXC Density Thresholds  <==

    XC_HYB_GGA_XC_B3LYP:  1.00E-15 

   => Molecular Quadrature <=

    Radial Scheme          =       TREUTLER
    Pruning Scheme         =           NONE
    Nuclear Scheme         =       TREUTLER

    Blocking Scheme        =         OCTREE
    BS radius alpha        =              1
    Pruning alpha          =              1
    Radial Points          =             75
    Spherical Points       =            302
    Total Points           =          22348
    Total Blocks           =            213
    Max Points             =            252
    Max Functions          =              8
    Weights Tolerance      =       1.00E-15

   => Loading Basis Set <=

    Name: (DEF2-SVPD AUX)
    Role: JKFIT
    Keyword: DF_BASIS_SCF
    atoms 1 entry H          line    18 file /opt/miniconda3/envs/rsfff/share/psi4/basis/def2-universal-jkfit.gbs 

  ==> Integral Setup <==

  DFHelper Memory: AOs need 0.000 GiB; user supplied 5.583 GiB. 
  SCF_SUBTYPE=INCORE selected. In-core MEM_DF algorithm will be used.
  Using in-core AOs.

  ==> MemDFJK: Density-Fitted J/K Matrices <==

    J tasked:                   Yes
    K tasked:                   Yes
    wK tasked:                   No
    OpenMP threads:              14
    Memory [MiB]:              5716
    Algorithm:                 Core
    Schwarz Cutoff:           1E-12
    Mask sparsity (%):       0.0000
    Fitting Condition:        1E-10

   => Auxiliary Basis Set <=

  Basis Set: (DEF2-SVPD AUX)
    Blend: DEF2-UNIVERSAL-JKFIT
    Number of shells: 6
    Number of basis functions: 18
    Number of Cartesian functions: 20
    Spherical Harmonics?: true
    Max angular momentum: 2

  Cached 100.0% of DFT collocation blocks in 0.005 [GiB].

  Perturbing V by 0.001000 mu(x).
  Minimum eigenvalue in the overlap matrix is 3.1520017525E-01.
  Reciprocal condition number of the overlap matrix is 1.8708464390E-01.
    Using symmetric orthogonalization.

  ==> Pre-Iterations <==

  SCF Guess: Core (One-Electron) Hamiltonian.

   -------------------------------------------------------
    Irrep   Nso     Nmo     Nalpha   Nbeta   Ndocc  Nsocc
   -------------------------------------------------------
     A          8       8       1       0       0       1
   -------------------------------------------------------
    Total       8       8       1       0       0       1
   -------------------------------------------------------

  ==> Iterations <==

                           Total Energy        Delta E     RMS |[F,P]|

   @DF-UKS iter   1:    -0.50130876622919   -5.01309e-01   2.93782e-04 ADIIS/DIIS
   @DF-UKS iter   2:    -0.50131643380391   -7.66757e-06   7.74517e-06 DIIS
   @DF-UKS iter   3:    -0.50131643919704   -5.39312e-09   2.30741e-07 DIIS
   @DF-UKS iter   4:    -0.50131643920358   -6.54365e-12   2.66199e-09 DIIS
   @DF-UKS iter   5:    -0.50131643920358   -7.77156e-16   2.45495e-11 DIIS
  Energy and wave function converged.


  ==> Post-Iterations <==

   Electrons on quadrature grid:
      Nalpha   =    1.0000000000 ; deviation = 2.789e-12
      Nbeta    =    0.0000000000 ; deviation = 0.000e+00
      Ntotal   =    1.0000000000 ; deviation = 2.789e-12 

   @Spin Contamination Metric:   0.000000000E+00
   @S^2 Expected:                7.500000000E-01
   @S^2 Observed:                7.500000000E-01
   @S   Expected:                5.000000000E-01
   @S   Observed:                5.000000000E-01

    Orbital Energies [Eh]
    ---------------------

    Alpha Occupied:                                                       

       1A     -0.319610  

    Alpha Virtual:                                                        

       2A      0.149573     3A      0.149578     4A      0.149578  
       5A      0.419613     6A      1.560197     7A      1.560197  
       8A      1.560197  

    Beta Occupied:                                                        

    

    Beta Virtual:                                                         

       1A     -0.015665     2A      0.221508     3A      0.221508  
       4A      0.221510     5A      0.661815     6A      1.806738  
       7A      1.806738     8A      1.806738  

    Final Occupation by Irrep:
              A 
    DOCC [     0 ]
    SOCC [     1 ]
    NA   [     1 ]
    NB   [     0 ]

  @DF-UKS Final Energy:    -0.50131643920358

   => Energetics <=

    Nuclear Repulsion Energy =              0.0000000000000000
    One-Electron Energy =                  -0.4992733078634783
    Two-Electron Energy =                   0.2490960637227665
    DFT Exchange-Correlation Energy =      -0.2511391950628681
    Empirical Dispersion Energy =           0.0000000000000000
    VV10 Nonlocal Energy =                  0.0000000000000000
    Total Energy =                         -0.5013164392035799

  UHF NO Occupations:
  HONO-0 :    1  A 1.0000000
  LUNO+0 :    2  A 0.0000000
  LUNO+1 :    3  A 0.0000000
  LUNO+2 :    4  A 0.0000000
  LUNO+3 :    5  A 0.0000000


Computation Completed


Properties will be evaluated at   0.000000,   0.000000,   0.000000 [a0]

Properties computed using the SCF density matrix


 Multipole Moments:

 ------------------------------------------------------------------------------------
     Multipole            Electronic (a.u.)      Nuclear  (a.u.)        Total (a.u.)
 ------------------------------------------------------------------------------------

 L = 1.  Multiply by 2.5417464519 to convert [e a0] to [Debye]
 Dipole X            :         -0.0046407            0.0000000           -0.0046407
 Dipole Y            :         -0.0000000            0.0000000           -0.0000000
 Dipole Z            :         -0.0000000            0.0000000           -0.0000000
 Magnitude           :                                                    0.0046407

 ------------------------------------------------------------------------------------

*** tstop() called on PNNL-KM3X724WWL at Tue Jul 28 16:59:53 2026
Module time:
	user time   =       0.10 seconds =       0.00 minutes
	system time =       0.04 seconds =       0.00 minutes
	total time  =          0 seconds =       0.00 minutes
Total time:
	user time   =       0.55 seconds =       0.01 minutes
	system time =       0.17 seconds =       0.00 minutes
	total time  =          1 seconds =       0.02 minutes

Scratch directory: /tmp/
   => Libint2 <=

    Primary   basis highest AM E, G, H:  7, 6, 3
    Auxiliary basis highest AM E, G, H:  7, 7, 4
    Onebody   basis highest AM E, G, H:  -, -, -
    Solid Harmonics ordering:            Gaussian

*** tstart() called on PNNL-KM3X724WWL
*** at Tue Jul 28 16:59:53 2026

   => Loading Basis Set <=

    Name: DEF2-SVPD
    Role: ORBITAL
    Keyword: BASIS
    atoms 1 entry H          line    14 file /opt/miniconda3/envs/rsfff/share/psi4/basis/def2-svpd.gbs 


         ---------------------------------------------------------
                                   SCF
               by Justin Turney, Rob Parrish, Andy Simmonett
                          and Daniel G. A. Smith
                              UKS Reference
                       14 Threads,   7629 MiB Core
         ---------------------------------------------------------

  ==> Geometry <==

    Molecular point group: c1
    Geometry (in Angstrom), charge = 0, multiplicity = 2:

       Center              X                  Y                   Z               Mass       
    ------------   -----------------  -----------------  -----------------  -----------------
         H            0.000000000000     0.000000000000     0.000000000000     1.007825032230

  Running in c1 symmetry.

  Rotational constants: A = ************  B = ************  C = ************ [cm^-1]
  Rotational constants: A = ************  B = ************  C = ************ [MHz]
  Nuclear repulsion =    0.000000000000000

  Charge       = 0
  Multiplicity = 2
  Electrons    = 1
  Nalpha       = 1
  Nbeta        = 0

  ==> Algorithm <==

  SCF Algorithm Type is DF.
  DIIS enabled.
  MOM disabled.
  Fractional occupation disabled.
  Guess Type is CORE.
  Energy threshold   = 1.00e-09
  Density threshold  = 1.00e-09
  Integral threshold = 1.00e-12

  ==> Primary Basis <==

  Basis Set: DEF2-SVPD
    Blend: DEF2-SVPD
    Number of shells: 4
    Number of basis functions: 8
    Number of Cartesian functions: 8
    Spherical Harmonics?: true
    Max angular momentum: 1

  ==> DFT Potential <==

   => LibXC <=

    Version 7.0.0
    S. Lehtola, C. Steigemann, M. J.T. Oliveira, and M. A.L. Marques.,  SoftwareX 7, 1–5 (2018) (10.1016/j.softx.2017.11.002)

   => Composite Functional: B3LYP <= 

    B3LYP Hyb-GGA Exchange-Correlation Functional

    P. J. Stephens, F. J. Devlin, C. F. Chabalowski, and M. J. Frisch.,  J. Phys. Chem. 98, 11623 (1994) (10.1021/j100096a001)

    Deriv               =              1
    GGA                 =           TRUE
    Meta                =          FALSE

    Exchange Hybrid     =           TRUE
    MP2 Hybrid          =          FALSE

   => Exchange Functionals <=

    0.0800   Slater exchange
    0.7200         Becke 88

   => Exact (HF) Exchange <=

    0.2000               HF 

   => Correlation Functionals <=

    0.1900   Vosko, Wilk & Nusair (VWN5_RPA)
    0.8100   Lee, Yang & Parr

   => LibXC Density Thresholds  <==

    XC_HYB_GGA_XC_B3LYP:  1.00E-15 

   => Molecular Quadrature <=

    Radial Scheme          =       TREUTLER
    Pruning Scheme         =           NONE
    Nuclear Scheme         =       TREUTLER

    Blocking Scheme        =         OCTREE
    BS radius alpha        =              1
    Pruning alpha          =              1
    Radial Points          =             75
    Spherical Points       =            302
    Total Points           =          22348
    Total Blocks           =            213
    Max Points             =            252
    Max Functions          =              8
    Weights Tolerance      =       1.00E-15

   => Loading Basis Set <=

    Name: (DEF2-SVPD AUX)
    Role: JKFIT
    Keyword: DF_BASIS_SCF
    atoms 1 entry H          line    18 file /opt/miniconda3/envs/rsfff/share/psi4/basis/def2-universal-jkfit.gbs 

  ==> Integral Setup <==

  DFHelper Memory: AOs need 0.000 GiB; user supplied 5.583 GiB. 
  SCF_SUBTYPE=INCORE selected. In-core MEM_DF algorithm will be used.
  Using in-core AOs.

  ==> MemDFJK: Density-Fitted J/K Matrices <==

    J tasked:                   Yes
    K tasked:                   Yes
    wK tasked:                   No
    OpenMP threads:              14
    Memory [MiB]:              5716
    Algorithm:                 Core
    Schwarz Cutoff:           1E-12
    Mask sparsity (%):       0.0000
    Fitting Condition:        1E-10

   => Auxiliary Basis Set <=

  Basis Set: (DEF2-SVPD AUX)
    Blend: DEF2-UNIVERSAL-JKFIT
    Number of shells: 6
    Number of basis functions: 18
    Number of Cartesian functions: 20
    Spherical Harmonics?: true
    Max angular momentum: 2

  Cached 100.0% of DFT collocation blocks in 0.005 [GiB].

  Perturbing V by -0.001000 mu(y).
  Minimum eigenvalue in the overlap matrix is 3.1520017525E-01.
  Reciprocal condition number of the overlap matrix is 1.8708464390E-01.
    Using symmetric orthogonalization.

  ==> Pre-Iterations <==

  SCF Guess: Core (One-Electron) Hamiltonian.

   -------------------------------------------------------
    Irrep   Nso     Nmo     Nalpha   Nbeta   Ndocc  Nsocc
   -------------------------------------------------------
     A          8       8       1       0       0       1
   -------------------------------------------------------
    Total       8       8       1       0       0       1
   -------------------------------------------------------

  ==> Iterations <==

                           Total Energy        Delta E     RMS |[F,P]|

   @DF-UKS iter   1:    -0.50130876622919   -5.01309e-01   2.93782e-04 ADIIS/DIIS
   @DF-UKS iter   2:    -0.50131643380391   -7.66757e-06   7.74517e-06 DIIS
   @DF-UKS iter   3:    -0.50131643919704   -5.39312e-09   2.30741e-07 DIIS
   @DF-UKS iter   4:    -0.50131643920358   -6.54410e-12   2.66199e-09 DIIS
   @DF-UKS iter   5:    -0.50131643920358   -8.88178e-16   2.45495e-11 DIIS
  Energy and wave function converged.


  ==> Post-Iterations <==

   Electrons on quadrature grid:
      Nalpha   =    1.0000000000 ; deviation = 2.789e-12
      Nbeta    =    0.0000000000 ; deviation = 0.000e+00
      Ntotal   =    1.0000000000 ; deviation = 2.789e-12 

   @Spin Contamination Metric:   0.000000000E+00
   @S^2 Expected:                7.500000000E-01
   @S^2 Observed:                7.500000000E-01
   @S   Expected:                5.000000000E-01
   @S   Observed:                5.000000000E-01

    Orbital Energies [Eh]
    ---------------------

    Alpha Occupied:                                                       

       1A     -0.319610  

    Alpha Virtual:                                                        

       2A      0.149573     3A      0.149578     4A      0.149578  
       5A      0.419613     6A      1.560197     7A      1.560197  
       8A      1.560197  

    Beta Occupied:                                                        

    

    Beta Virtual:                                                         

       1A     -0.015665     2A      0.221508     3A      0.221508  
       4A      0.221510     5A      0.661815     6A      1.806738  
       7A      1.806738     8A      1.806738  

    Final Occupation by Irrep:
              A 
    DOCC [     0 ]
    SOCC [     1 ]
    NA   [     1 ]
    NB   [     0 ]

  @DF-UKS Final Energy:    -0.50131643920358

   => Energetics <=

    Nuclear Repulsion Energy =              0.0000000000000000
    One-Electron Energy =                  -0.4992733078634787
    Two-Electron Energy =                   0.2490960637227669
    DFT Exchange-Correlation Energy =      -0.2511391950628684
    Empirical Dispersion Energy =           0.0000000000000000
    VV10 Nonlocal Energy =                  0.0000000000000000
    Total Energy =                         -0.5013164392035803

  UHF NO Occupations:
  HONO-0 :    1  A 1.0000000
  LUNO+0 :    2  A 0.0000000
  LUNO+1 :    3  A 0.0000000
  LUNO+2 :    4  A 0.0000000
  LUNO+3 :    5  A 0.0000000


Computation Completed


Properties will be evaluated at   0.000000,   0.000000,   0.000000 [a0]

Properties computed using the SCF density matrix


 Multipole Moments:

 ------------------------------------------------------------------------------------
     Multipole            Electronic (a.u.)      Nuclear  (a.u.)        Total (a.u.)
 ------------------------------------------------------------------------------------

 L = 1.  Multiply by 2.5417464519 to convert [e a0] to [Debye]
 Dipole X            :         -0.0000000            0.0000000           -0.0000000
 Dipole Y            :          0.0046407            0.0000000            0.0046407
 Dipole Z            :          0.0000000            0.0000000            0.0000000
 Magnitude           :                                                    0.0046407

 ------------------------------------------------------------------------------------

*** tstop() called on PNNL-KM3X724WWL at Tue Jul 28 16:59:53 2026
Module time:
	user time   =       0.10 seconds =       0.00 minutes
	system time =       0.04 seconds =       0.00 minutes
	total time  =          0 seconds =       0.00 minutes
Total time:
	user time   =       0.67 seconds =       0.01 minutes
	system time =       0.21 seconds =       0.00 minutes
	total time  =          1 seconds =       0.02 minutes

Scratch directory: /tmp/
   => Libint2 <=

    Primary   basis highest AM E, G, H:  7, 6, 3
    Auxiliary basis highest AM E, G, H:  7, 7, 4
    Onebody   basis highest AM E, G, H:  -, -, -
    Solid Harmonics ordering:            Gaussian

*** tstart() called on PNNL-KM3X724WWL
*** at Tue Jul 28 16:59:53 2026

   => Loading Basis Set <=

    Name: DEF2-SVPD
    Role: ORBITAL
    Keyword: BASIS
    atoms 1 entry H          line    14 file /opt/miniconda3/envs/rsfff/share/psi4/basis/def2-svpd.gbs 


         ---------------------------------------------------------
                                   SCF
               by Justin Turney, Rob Parrish, Andy Simmonett
                          and Daniel G. A. Smith
                              UKS Reference
                       14 Threads,   7629 MiB Core
         ---------------------------------------------------------

  ==> Geometry <==

    Molecular point group: c1
    Geometry (in Angstrom), charge = 0, multiplicity = 2:

       Center              X                  Y                   Z               Mass       
    ------------   -----------------  -----------------  -----------------  -----------------
         H            0.000000000000     0.000000000000     0.000000000000     1.007825032230

  Running in c1 symmetry.

  Rotational constants: A = ************  B = ************  C = ************ [cm^-1]
  Rotational constants: A = ************  B = ************  C = ************ [MHz]
  Nuclear repulsion =    0.000000000000000

  Charge       = 0
  Multiplicity = 2
  Electrons    = 1
  Nalpha       = 1
  Nbeta        = 0

  ==> Algorithm <==

  SCF Algorithm Type is DF.
  DIIS enabled.
  MOM disabled.
  Fractional occupation disabled.
  Guess Type is CORE.
  Energy threshold   = 1.00e-09
  Density threshold  = 1.00e-09
  Integral threshold = 1.00e-12

  ==> Primary Basis <==

  Basis Set: DEF2-SVPD
    Blend: DEF2-SVPD
    Number of shells: 4
    Number of basis functions: 8
    Number of Cartesian functions: 8
    Spherical Harmonics?: true
    Max angular momentum: 1

  ==> DFT Potential <==

   => LibXC <=

    Version 7.0.0
    S. Lehtola, C. Steigemann, M. J.T. Oliveira, and M. A.L. Marques.,  SoftwareX 7, 1–5 (2018) (10.1016/j.softx.2017.11.002)

   => Composite Functional: B3LYP <= 

    B3LYP Hyb-GGA Exchange-Correlation Functional

    P. J. Stephens, F. J. Devlin, C. F. Chabalowski, and M. J. Frisch.,  J. Phys. Chem. 98, 11623 (1994) (10.1021/j100096a001)

    Deriv               =              1
    GGA                 =           TRUE
    Meta                =          FALSE

    Exchange Hybrid     =           TRUE
    MP2 Hybrid          =          FALSE

   => Exchange Functionals <=

    0.0800   Slater exchange
    0.7200         Becke 88

   => Exact (HF) Exchange <=

    0.2000               HF 

   => Correlation Functionals <=

    0.1900   Vosko, Wilk & Nusair (VWN5_RPA)
    0.8100   Lee, Yang & Parr

   => LibXC Density Thresholds  <==

    XC_HYB_GGA_XC_B3LYP:  1.00E-15 

   => Molecular Quadrature <=

    Radial Scheme          =       TREUTLER
    Pruning Scheme         =           NONE
    Nuclear Scheme         =       TREUTLER

    Blocking Scheme        =         OCTREE
    BS radius alpha        =              1
    Pruning alpha          =              1
    Radial Points          =             75
    Spherical Points       =            302
    Total Points           =          22348
    Total Blocks           =            213
    Max Points             =            252
    Max Functions          =              8
    Weights Tolerance      =       1.00E-15

   => Loading Basis Set <=

    Name: (DEF2-SVPD AUX)
    Role: JKFIT
    Keyword: DF_BASIS_SCF
    atoms 1 entry H          line    18 file /opt/miniconda3/envs/rsfff/share/psi4/basis/def2-universal-jkfit.gbs 

  ==> Integral Setup <==

  DFHelper Memory: AOs need 0.000 GiB; user supplied 5.583 GiB. 
  SCF_SUBTYPE=INCORE selected. In-core MEM_DF algorithm will be used.
  Using in-core AOs.

  ==> MemDFJK: Density-Fitted J/K Matrices <==

    J tasked:                   Yes
    K tasked:                   Yes
    wK tasked:                   No
    OpenMP threads:              14
    Memory [MiB]:              5716
    Algorithm:                 Core
    Schwarz Cutoff:           1E-12
    Mask sparsity (%):       0.0000
    Fitting Condition:        1E-10

   => Auxiliary Basis Set <=

  Basis Set: (DEF2-SVPD AUX)
    Blend: DEF2-UNIVERSAL-JKFIT
    Number of shells: 6
    Number of basis functions: 18
    Number of Cartesian functions: 20
    Spherical Harmonics?: true
    Max angular momentum: 2

  Cached 100.0% of DFT collocation blocks in 0.005 [GiB].

  Perturbing V by 0.001000 mu(y).
  Minimum eigenvalue in the overlap matrix is 3.1520017525E-01.
  Reciprocal condition number of the overlap matrix is 1.8708464390E-01.
    Using symmetric orthogonalization.

  ==> Pre-Iterations <==

  SCF Guess: Core (One-Electron) Hamiltonian.

   -------------------------------------------------------
    Irrep   Nso     Nmo     Nalpha   Nbeta   Ndocc  Nsocc
   -------------------------------------------------------
     A          8       8       1       0       0       1
   -------------------------------------------------------
    Total       8       8       1       0       0       1
   -------------------------------------------------------

  ==> Iterations <==

                           Total Energy        Delta E     RMS |[F,P]|

   @DF-UKS iter   1:    -0.50130876622919   -5.01309e-01   2.93782e-04 ADIIS/DIIS
   @DF-UKS iter   2:    -0.50131643380391   -7.66757e-06   7.74517e-06 DIIS
   @DF-UKS iter   3:    -0.50131643919704   -5.39312e-09   2.30741e-07 DIIS
   @DF-UKS iter   4:    -0.50131643920358   -6.54421e-12   2.66199e-09 DIIS
   @DF-UKS iter   5:    -0.50131643920358   -7.77156e-16   2.45495e-11 DIIS
  Energy and wave function converged.


  ==> Post-Iterations <==

   Electrons on quadrature grid:
      Nalpha   =    1.0000000000 ; deviation = 2.789e-12
      Nbeta    =    0.0000000000 ; deviation = 0.000e+00
      Ntotal   =    1.0000000000 ; deviation = 2.789e-12 

   @Spin Contamination Metric:   0.000000000E+00
   @S^2 Expected:                7.500000000E-01
   @S^2 Observed:                7.500000000E-01
   @S   Expected:                5.000000000E-01
   @S   Observed:                5.000000000E-01

    Orbital Energies [Eh]
    ---------------------

    Alpha Occupied:                                                       

       1A     -0.319610  

    Alpha Virtual:                                                        

       2A      0.149573     3A      0.149578     4A      0.149578  
       5A      0.419613     6A      1.560197     7A      1.560197  
       8A      1.560197  

    Beta Occupied:                                                        

    

    Beta Virtual:                                                         

       1A     -0.015665     2A      0.221508     3A      0.221508  
       4A      0.221510     5A      0.661815     6A      1.806738  
       7A      1.806738     8A      1.806738  

    Final Occupation by Irrep:
              A 
    DOCC [     0 ]
    SOCC [     1 ]
    NA   [     1 ]
    NB   [     0 ]

  @DF-UKS Final Energy:    -0.50131643920358

   => Energetics <=

    Nuclear Repulsion Energy =              0.0000000000000000
    One-Electron Energy =                  -0.4992733078634787
    Two-Electron Energy =                   0.2490960637227669
    DFT Exchange-Correlation Energy =      -0.2511391950628683
    Empirical Dispersion Energy =           0.0000000000000000
    VV10 Nonlocal Energy =                  0.0000000000000000
    Total Energy =                         -0.5013164392035802

  UHF NO Occupations:
  HONO-0 :    1  A 1.0000000
  LUNO+0 :    2  A 0.0000000
  LUNO+1 :    3  A 0.0000000
  LUNO+2 :    4  A 0.0000000
  LUNO+3 :    5  A 0.0000000


Computation Completed


Properties will be evaluated at   0.000000,   0.000000,   0.000000 [a0]

Properties computed using the SCF density matrix


 Multipole Moments:

 ------------------------------------------------------------------------------------
     Multipole            Electronic (a.u.)      Nuclear  (a.u.)        Total (a.u.)
 ------------------------------------------------------------------------------------

 L = 1.  Multiply by 2.5417464519 to convert [e a0] to [Debye]
 Dipole X            :          0.0000000            0.0000000            0.0000000
 Dipole Y            :         -0.0046407            0.0000000           -0.0046407
 Dipole Z            :         -0.0000000            0.0000000           -0.0000000
 Magnitude           :                                                    0.0046407

 ------------------------------------------------------------------------------------

*** tstop() called on PNNL-KM3X724WWL at Tue Jul 28 16:59:53 2026
Module time:
	user time   =       0.10 seconds =       0.00 minutes
	system time =       0.03 seconds =       0.00 minutes
	total time  =          0 seconds =       0.00 minutes
Total time:
	user time   =       0.79 seconds =       0.01 minutes
	system time =       0.24 seconds =       0.00 minutes
	total time  =          1 seconds =       0.02 minutes

Scratch directory: /tmp/
   => Libint2 <=

    Primary   basis highest AM E, G, H:  7, 6, 3
    Auxiliary basis highest AM E, G, H:  7, 7, 4
    Onebody   basis highest AM E, G, H:  -, -, -
    Solid Harmonics ordering:            Gaussian

*** tstart() called on PNNL-KM3X724WWL
*** at Tue Jul 28 16:59:53 2026

   => Loading Basis Set <=

    Name: DEF2-SVPD
    Role: ORBITAL
    Keyword: BASIS
    atoms 1 entry H          line    14 file /opt/miniconda3/envs/rsfff/share/psi4/basis/def2-svpd.gbs 


         ---------------------------------------------------------
                                   SCF
               by Justin Turney, Rob Parrish, Andy Simmonett
                          and Daniel G. A. Smith
                              UKS Reference
                       14 Threads,   7629 MiB Core
         ---------------------------------------------------------

  ==> Geometry <==

    Molecular point group: c1
    Geometry (in Angstrom), charge = 0, multiplicity = 2:

       Center              X                  Y                   Z               Mass       
    ------------   -----------------  -----------------  -----------------  -----------------
         H            0.000000000000     0.000000000000     0.000000000000     1.007825032230

  Running in c1 symmetry.

  Rotational constants: A = ************  B = ************  C = ************ [cm^-1]
  Rotational constants: A = ************  B = ************  C = ************ [MHz]
  Nuclear repulsion =    0.000000000000000

  Charge       = 0
  Multiplicity = 2
  Electrons    = 1
  Nalpha       = 1
  Nbeta        = 0

  ==> Algorithm <==

  SCF Algorithm Type is DF.
  DIIS enabled.
  MOM disabled.
  Fractional occupation disabled.
  Guess Type is CORE.
  Energy threshold   = 1.00e-09
  Density threshold  = 1.00e-09
  Integral threshold = 1.00e-12

  ==> Primary Basis <==

  Basis Set: DEF2-SVPD
    Blend: DEF2-SVPD
    Number of shells: 4
    Number of basis functions: 8
    Number of Cartesian functions: 8
    Spherical Harmonics?: true
    Max angular momentum: 1

  ==> DFT Potential <==

   => LibXC <=

    Version 7.0.0
    S. Lehtola, C. Steigemann, M. J.T. Oliveira, and M. A.L. Marques.,  SoftwareX 7, 1–5 (2018) (10.1016/j.softx.2017.11.002)

   => Composite Functional: B3LYP <= 

    B3LYP Hyb-GGA Exchange-Correlation Functional

    P. J. Stephens, F. J. Devlin, C. F. Chabalowski, and M. J. Frisch.,  J. Phys. Chem. 98, 11623 (1994) (10.1021/j100096a001)

    Deriv               =              1
    GGA                 =           TRUE
    Meta                =          FALSE

    Exchange Hybrid     =           TRUE
    MP2 Hybrid          =          FALSE

   => Exchange Functionals <=

    0.0800   Slater exchange
    0.7200         Becke 88

   => Exact (HF) Exchange <=

    0.2000               HF 

   => Correlation Functionals <=

    0.1900   Vosko, Wilk & Nusair (VWN5_RPA)
    0.8100   Lee, Yang & Parr

   => LibXC Density Thresholds  <==

    XC_HYB_GGA_XC_B3LYP:  1.00E-15 

   => Molecular Quadrature <=

    Radial Scheme          =       TREUTLER
    Pruning Scheme         =           NONE
    Nuclear Scheme         =       TREUTLER

    Blocking Scheme        =         OCTREE
    BS radius alpha        =              1
    Pruning alpha          =              1
    Radial Points          =             75
    Spherical Points       =            302
    Total Points           =          22348
    Total Blocks           =            213
    Max Points             =            252
    Max Functions          =              8
    Weights Tolerance      =       1.00E-15

   => Loading Basis Set <=

    Name: (DEF2-SVPD AUX)
    Role: JKFIT
    Keyword: DF_BASIS_SCF
    atoms 1 entry H          line    18 file /opt/miniconda3/envs/rsfff/share/psi4/basis/def2-universal-jkfit.gbs 

  ==> Integral Setup <==

  DFHelper Memory: AOs need 0.000 GiB; user supplied 5.583 GiB. 
  SCF_SUBTYPE=INCORE selected. In-core MEM_DF algorithm will be used.
  Using in-core AOs.

  ==> MemDFJK: Density-Fitted J/K Matrices <==

    J tasked:                   Yes
    K tasked:                   Yes
    wK tasked:                   No
    OpenMP threads:              14
    Memory [MiB]:              5716
    Algorithm:                 Core
    Schwarz Cutoff:           1E-12
    Mask sparsity (%):       0.0000
    Fitting Condition:        1E-10

   => Auxiliary Basis Set <=

  Basis Set: (DEF2-SVPD AUX)
    Blend: DEF2-UNIVERSAL-JKFIT
    Number of shells: 6
    Number of basis functions: 18
    Number of Cartesian functions: 20
    Spherical Harmonics?: true
    Max angular momentum: 2

  Cached 100.0% of DFT collocation blocks in 0.005 [GiB].

  Perturbing V by -0.001000 mu(z).
  Minimum eigenvalue in the overlap matrix is 3.1520017525E-01.
  Reciprocal condition number of the overlap matrix is 1.8708464390E-01.
    Using symmetric orthogonalization.

  ==> Pre-Iterations <==

  SCF Guess: Core (One-Electron) Hamiltonian.

   -------------------------------------------------------
    Irrep   Nso     Nmo     Nalpha   Nbeta   Ndocc  Nsocc
   -------------------------------------------------------
     A          8       8       1       0       0       1
   -------------------------------------------------------
    Total       8       8       1       0       0       1
   -------------------------------------------------------

  ==> Iterations <==

                           Total Energy        Delta E     RMS |[F,P]|

   @DF-UKS iter   1:    -0.50130876622919   -5.01309e-01   2.93782e-04 ADIIS/DIIS
   @DF-UKS iter   2:    -0.50131643380391   -7.66757e-06   7.74517e-06 DIIS
   @DF-UKS iter   3:    -0.50131643919704   -5.39312e-09   2.30741e-07 DIIS
   @DF-UKS iter   4:    -0.50131643920358   -6.54365e-12   2.66199e-09 DIIS
   @DF-UKS iter   5:    -0.50131643920358   -8.88178e-16   2.45494e-11 DIIS
  Energy and wave function converged.


  ==> Post-Iterations <==

   Electrons on quadrature grid:
      Nalpha   =    1.0000000000 ; deviation = 2.789e-12
      Nbeta    =    0.0000000000 ; deviation = 0.000e+00
      Ntotal   =    1.0000000000 ; deviation = 2.789e-12 

   @Spin Contamination Metric:   0.000000000E+00
   @S^2 Expected:                7.500000000E-01
   @S^2 Observed:                7.500000000E-01
   @S   Expected:                5.000000000E-01
   @S   Observed:                5.000000000E-01

    Orbital Energies [Eh]
    ---------------------

    Alpha Occupied:                                                       

       1A     -0.319610  

    Alpha Virtual:                                                        

       2A      0.149573     3A      0.149578     4A      0.149578  
       5A      0.419613     6A      1.560197     7A      1.560197  
       8A      1.560197  

    Beta Occupied:                                                        

    

    Beta Virtual:                                                         

       1A     -0.015665     2A      0.221508     3A      0.221508  
       4A      0.221510     5A      0.661815     6A      1.806738  
       7A      1.806738     8A      1.806738  

    Final Occupation by Irrep:
              A 
    DOCC [     0 ]
    SOCC [     1 ]
    NA   [     1 ]
    NB   [     0 ]

  @DF-UKS Final Energy:    -0.50131643920358

   => Energetics <=

    Nuclear Repulsion Energy =              0.0000000000000000
    One-Electron Energy =                  -0.4992733078634784
    Two-Electron Energy =                   0.2490960637227664
    DFT Exchange-Correlation Energy =      -0.2511391950628680
    Empirical Dispersion Energy =           0.0000000000000000
    VV10 Nonlocal Energy =                  0.0000000000000000
    Total Energy =                         -0.5013164392035800

  UHF NO Occupations:
  HONO-0 :    1  A 1.0000000
  LUNO+0 :    2  A 0.0000000
  LUNO+1 :    3  A 0.0000000
  LUNO+2 :    4  A 0.0000000
  LUNO+3 :    5  A 0.0000000


Computation Completed


Properties will be evaluated at   0.000000,   0.000000,   0.000000 [a0]

Properties computed using the SCF density matrix


 Multipole Moments:

 ------------------------------------------------------------------------------------
     Multipole            Electronic (a.u.)      Nuclear  (a.u.)        Total (a.u.)
 ------------------------------------------------------------------------------------

 L = 1.  Multiply by 2.5417464519 to convert [e a0] to [Debye]
 Dipole X            :         -0.0000000            0.0000000           -0.0000000
 Dipole Y            :         -0.0000000            0.0000000           -0.0000000
 Dipole Z            :          0.0046407            0.0000000            0.0046407
 Magnitude           :                                                    0.0046407

 ------------------------------------------------------------------------------------

*** tstop() called on PNNL-KM3X724WWL at Tue Jul 28 16:59:53 2026
Module time:
	user time   =       0.10 seconds =       0.00 minutes
	system time =       0.03 seconds =       0.00 minutes
	total time  =          0 seconds =       0.00 minutes
Total time:
	user time   =       0.91 seconds =       0.02 minutes
	system time =       0.28 seconds =       0.00 minutes
	total time  =          1 seconds =       0.02 minutes

Scratch directory: /tmp/
   => Libint2 <=

    Primary   basis highest AM E, G, H:  7, 6, 3
    Auxiliary basis highest AM E, G, H:  7, 7, 4
    Onebody   basis highest AM E, G, H:  -, -, -
    Solid Harmonics ordering:            Gaussian

*** tstart() called on PNNL-KM3X724WWL
*** at Tue Jul 28 16:59:53 2026

   => Loading Basis Set <=

    Name: DEF2-SVPD
    Role: ORBITAL
    Keyword: BASIS
    atoms 1 entry H          line    14 file /opt/miniconda3/envs/rsfff/share/psi4/basis/def2-svpd.gbs 


         ---------------------------------------------------------
                                   SCF
               by Justin Turney, Rob Parrish, Andy Simmonett
                          and Daniel G. A. Smith
                              UKS Reference
                       14 Threads,   7629 MiB Core
         ---------------------------------------------------------

  ==> Geometry <==

    Molecular point group: c1
    Geometry (in Angstrom), charge = 0, multiplicity = 2:

       Center              X                  Y                   Z               Mass       
    ------------   -----------------  -----------------  -----------------  -----------------
         H            0.000000000000     0.000000000000     0.000000000000     1.007825032230

  Running in c1 symmetry.

  Rotational constants: A = ************  B = ************  C = ************ [cm^-1]
  Rotational constants: A = ************  B = ************  C = ************ [MHz]
  Nuclear repulsion =    0.000000000000000

  Charge       = 0
  Multiplicity = 2
  Electrons    = 1
  Nalpha       = 1
  Nbeta        = 0

  ==> Algorithm <==

  SCF Algorithm Type is DF.
  DIIS enabled.
  MOM disabled.
  Fractional occupation disabled.
  Guess Type is CORE.
  Energy threshold   = 1.00e-09
  Density threshold  = 1.00e-09
  Integral threshold = 1.00e-12

  ==> Primary Basis <==

  Basis Set: DEF2-SVPD
    Blend: DEF2-SVPD
    Number of shells: 4
    Number of basis functions: 8
    Number of Cartesian functions: 8
    Spherical Harmonics?: true
    Max angular momentum: 1

  ==> DFT Potential <==

   => LibXC <=

    Version 7.0.0
    S. Lehtola, C. Steigemann, M. J.T. Oliveira, and M. A.L. Marques.,  SoftwareX 7, 1–5 (2018) (10.1016/j.softx.2017.11.002)

   => Composite Functional: B3LYP <= 

    B3LYP Hyb-GGA Exchange-Correlation Functional

    P. J. Stephens, F. J. Devlin, C. F. Chabalowski, and M. J. Frisch.,  J. Phys. Chem. 98, 11623 (1994) (10.1021/j100096a001)

    Deriv               =              1
    GGA                 =           TRUE
    Meta                =          FALSE

    Exchange Hybrid     =           TRUE
    MP2 Hybrid          =          FALSE

   => Exchange Functionals <=

    0.0800   Slater exchange
    0.7200         Becke 88

   => Exact (HF) Exchange <=

    0.2000               HF 

   => Correlation Functionals <=

    0.1900   Vosko, Wilk & Nusair (VWN5_RPA)
    0.8100   Lee, Yang & Parr

   => LibXC Density Thresholds  <==

    XC_HYB_GGA_XC_B3LYP:  1.00E-15 

   => Molecular Quadrature <=

    Radial Scheme          =       TREUTLER
    Pruning Scheme         =           NONE
    Nuclear Scheme         =       TREUTLER

    Blocking Scheme        =         OCTREE
    BS radius alpha        =              1
    Pruning alpha          =              1
    Radial Points          =             75
    Spherical Points       =            302
    Total Points           =          22348
    Total Blocks           =            213
    Max Points             =            252
    Max Functions          =              8
    Weights Tolerance      =       1.00E-15

   => Loading Basis Set <=

    Name: (DEF2-SVPD AUX)
    Role: JKFIT
    Keyword: DF_BASIS_SCF
    atoms 1 entry H          line    18 file /opt/miniconda3/envs/rsfff/share/psi4/basis/def2-universal-jkfit.gbs 

  ==> Integral Setup <==

  DFHelper Memory: AOs need 0.000 GiB; user supplied 5.583 GiB. 
  SCF_SUBTYPE=INCORE selected. In-core MEM_DF algorithm will be used.
  Using in-core AOs.

  ==> MemDFJK: Density-Fitted J/K Matrices <==

    J tasked:                   Yes
    K tasked:                   Yes
    wK tasked:                   No
    OpenMP threads:              14
    Memory [MiB]:              5716
    Algorithm:                 Core
    Schwarz Cutoff:           1E-12
    Mask sparsity (%):       0.0000
    Fitting Condition:        1E-10

   => Auxiliary Basis Set <=

  Basis Set: (DEF2-SVPD AUX)
    Blend: DEF2-UNIVERSAL-JKFIT
    Number of shells: 6
    Number of basis functions: 18
    Number of Cartesian functions: 20
    Spherical Harmonics?: true
    Max angular momentum: 2

  Cached 100.0% of DFT collocation blocks in 0.005 [GiB].

  Perturbing V by 0.001000 mu(z).
  Minimum eigenvalue in the overlap matrix is 3.1520017525E-01.
  Reciprocal condition number of the overlap matrix is 1.8708464390E-01.
    Using symmetric orthogonalization.

  ==> Pre-Iterations <==

  SCF Guess: Core (One-Electron) Hamiltonian.

   -------------------------------------------------------
    Irrep   Nso     Nmo     Nalpha   Nbeta   Ndocc  Nsocc
   -------------------------------------------------------
     A          8       8       1       0       0       1
   -------------------------------------------------------
    Total       8       8       1       0       0       1
   -------------------------------------------------------

  ==> Iterations <==

                           Total Energy        Delta E     RMS |[F,P]|

   @DF-UKS iter   1:    -0.50130876622919   -5.01309e-01   2.93782e-04 ADIIS/DIIS
   @DF-UKS iter   2:    -0.50131643380391   -7.66757e-06   7.74517e-06 DIIS
   @DF-UKS iter   3:    -0.50131643919704   -5.39312e-09   2.30741e-07 DIIS
   @DF-UKS iter   4:    -0.50131643920358   -6.54332e-12   2.66199e-09 DIIS
   @DF-UKS iter   5:    -0.50131643920358   -1.11022e-15   2.45494e-11 DIIS
  Energy and wave function converged.


  ==> Post-Iterations <==

   Electrons on quadrature grid:
      Nalpha   =    1.0000000000 ; deviation = 2.789e-12
      Nbeta    =    0.0000000000 ; deviation = 0.000e+00
      Ntotal   =    1.0000000000 ; deviation = 2.789e-12 

   @Spin Contamination Metric:   0.000000000E+00
   @S^2 Expected:                7.500000000E-01
   @S^2 Observed:                7.500000000E-01
   @S   Expected:                5.000000000E-01
   @S   Observed:                5.000000000E-01

    Orbital Energies [Eh]
    ---------------------

    Alpha Occupied:                                                       

       1A     -0.319610  

    Alpha Virtual:                                                        

       2A      0.149573     3A      0.149578     4A      0.149578  
       5A      0.419613     6A      1.560197     7A      1.560197  
       8A      1.560197  

    Beta Occupied:                                                        

    

    Beta Virtual:                                                         

       1A     -0.015665     2A      0.221508     3A      0.221508  
       4A      0.221510     5A      0.661815     6A      1.806738  
       7A      1.806738     8A      1.806738  

    Final Occupation by Irrep:
              A 
    DOCC [     0 ]
    SOCC [     1 ]
    NA   [     1 ]
    NB   [     0 ]

  @DF-UKS Final Energy:    -0.50131643920358

   => Energetics <=

    Nuclear Repulsion Energy =              0.0000000000000000
    One-Electron Energy =                  -0.4992733078634786
    Two-Electron Energy =                   0.2490960637227665
    DFT Exchange-Correlation Energy =      -0.2511391950628681
    Empirical Dispersion Energy =           0.0000000000000000
    VV10 Nonlocal Energy =                  0.0000000000000000
    Total Energy =                         -0.5013164392035803

  UHF NO Occupations:
  HONO-0 :    1  A 1.0000000
  LUNO+0 :    2  A 0.0000000
  LUNO+1 :    3  A 0.0000000
  LUNO+2 :    4  A 0.0000000
  LUNO+3 :    5  A 0.0000000


Computation Completed


Properties will be evaluated at   0.000000,   0.000000,   0.000000 [a0]

Properties computed using the SCF density matrix


 Multipole Moments:

 ------------------------------------------------------------------------------------
     Multipole            Electronic (a.u.)      Nuclear  (a.u.)        Total (a.u.)
 ------------------------------------------------------------------------------------

 L = 1.  Multiply by 2.5417464519 to convert [e a0] to [Debye]
 Dipole X            :         -0.0000000            0.0000000           -0.0000000
 Dipole Y            :         -0.0000000            0.0000000           -0.0000000
 Dipole Z            :         -0.0046407            0.0000000           -0.0046407
 Magnitude           :                                                    0.0046407

 ------------------------------------------------------------------------------------

*** tstop() called on PNNL-KM3X724WWL at Tue Jul 28 16:59:53 2026
Module time:
	user time   =       0.10 seconds =       0.00 minutes
	system time =       0.04 seconds =       0.00 minutes
	total time  =          0 seconds =       0.00 minutes
Total time:
	user time   =       1.03 seconds =       0.02 minutes
	system time =       0.32 seconds =       0.01 minutes
	total time  =          1 seconds =       0.02 minutes

Scratch directory: /tmp/
   => Libint2 <=

    Primary   basis highest AM E, G, H:  7, 6, 3
    Auxiliary basis highest AM E, G, H:  7, 7, 4
    Onebody   basis highest AM E, G, H:  -, -, -
    Solid Harmonics ordering:            Gaussian

*** tstart() called on PNNL-KM3X724WWL
*** at Tue Jul 28 16:59:53 2026

   => Loading Basis Set <=

    Name: DEF2-SVPD
    Role: ORBITAL
    Keyword: BASIS
    atoms 1 entry H          line    14 file /opt/miniconda3/envs/rsfff/share/psi4/basis/def2-svpd.gbs 


         ---------------------------------------------------------
                                   SCF
               by Justin Turney, Rob Parrish, Andy Simmonett
                          and Daniel G. A. Smith
                              RKS Reference
                       14 Threads,   7629 MiB Core
         ---------------------------------------------------------

  ==> Geometry <==

    Molecular point group: c1
    Geometry (in Angstrom), charge = -1, multiplicity = 1:

       Center              X                  Y                   Z               Mass       
    ------------   -----------------  -----------------  -----------------  -----------------
         H            0.000000000000     0.000000000000     0.000000000000     1.007825032230

  Running in c1 symmetry.

  Rotational constants: A = ************  B = ************  C = ************ [cm^-1]
  Rotational constants: A = ************  B = ************  C = ************ [MHz]
  Nuclear repulsion =    0.000000000000000

  Charge       = -1
  Multiplicity = 1
  Electrons    = 2
  Nalpha       = 1
  Nbeta        = 1

  ==> Algorithm <==

  SCF Algorithm Type is DF.
  DIIS enabled.
  MOM disabled.
  Fractional occupation disabled.
  Guess Type is CORE.
  Energy threshold   = 1.00e-09
  Density threshold  = 1.00e-09
  Integral threshold = 1.00e-12

  ==> Primary Basis <==

  Basis Set: DEF2-SVPD
    Blend: DEF2-SVPD
    Number of shells: 4
    Number of basis functions: 8
    Number of Cartesian functions: 8
    Spherical Harmonics?: true
    Max angular momentum: 1

  ==> DFT Potential <==

   => LibXC <=

    Version 7.0.0
    S. Lehtola, C. Steigemann, M. J.T. Oliveira, and M. A.L. Marques.,  SoftwareX 7, 1–5 (2018) (10.1016/j.softx.2017.11.002)

   => Composite Functional: B3LYP <= 

    B3LYP Hyb-GGA Exchange-Correlation Functional

    P. J. Stephens, F. J. Devlin, C. F. Chabalowski, and M. J. Frisch.,  J. Phys. Chem. 98, 11623 (1994) (10.1021/j100096a001)

    Deriv               =              1
    GGA                 =           TRUE
    Meta                =          FALSE

    Exchange Hybrid     =           TRUE
    MP2 Hybrid          =          FALSE

   => Exchange Functionals <=

    0.0800   Slater exchange
    0.7200         Becke 88

   => Exact (HF) Exchange <=

    0.2000               HF 

   => Correlation Functionals <=

    0.1900   Vosko, Wilk & Nusair (VWN5_RPA)
    0.8100   Lee, Yang & Parr

   => LibXC Density Thresholds  <==

    XC_HYB_GGA_XC_B3LYP:  1.00E-15 

   => Molecular Quadrature <=

    Radial Scheme          =       TREUTLER
    Pruning Scheme         =           NONE
    Nuclear Scheme         =       TREUTLER

    Blocking Scheme        =         OCTREE
    BS radius alpha        =              1
    Pruning alpha          =              1
    Radial Points          =             75
    Spherical Points       =            302
    Total Points           =          22348
    Total Blocks           =            213
    Max Points             =            252
    Max Functions          =              8
    Weights Tolerance      =       1.00E-15

   => Loading Basis Set <=

    Name: (DEF2-SVPD AUX)
    Role: JKFIT
    Keyword: DF_BASIS_SCF
    atoms 1 entry H          line    18 file /opt/miniconda3/envs/rsfff/share/psi4/basis/def2-universal-jkfit.gbs 

  ==> Integral Setup <==

  DFHelper Memory: AOs need 0.000 GiB; user supplied 5.583 GiB. 
  SCF_SUBTYPE=INCORE selected. In-core MEM_DF algorithm will be used.
  Using in-core AOs.

  ==> MemDFJK: Density-Fitted J/K Matrices <==

    J tasked:                   Yes
    K tasked:                   Yes
    wK tasked:                   No
    OpenMP threads:              14
    Memory [MiB]:              5716
    Algorithm:                 Core
    Schwarz Cutoff:           1E-12
    Mask sparsity (%):       0.0000
    Fitting Condition:        1E-10

   => Auxiliary Basis Set <=

  Basis Set: (DEF2-SVPD AUX)
    Blend: DEF2-UNIVERSAL-JKFIT
    Number of shells: 6
    Number of basis functions: 18
    Number of Cartesian functions: 20
    Spherical Harmonics?: true
    Max angular momentum: 2

  Cached 100.0% of DFT collocation blocks in 0.005 [GiB].

  Minimum eigenvalue in the overlap matrix is 3.1520017525E-01.
  Reciprocal condition number of the overlap matrix is 1.8708464390E-01.
    Using symmetric orthogonalization.

  ==> Pre-Iterations <==

  SCF Guess: Core (One-Electron) Hamiltonian.

   -------------------------------------------------------
    Irrep   Nso     Nmo     Nalpha   Nbeta   Ndocc  Nsocc
   -------------------------------------------------------
     A          8       8       1       1       1       0
   -------------------------------------------------------
    Total       8       8       1       1       1       0
   -------------------------------------------------------

  ==> Iterations <==

                           Total Energy        Delta E     RMS |[F,P]|

   @DF-RKS iter   1:    -0.41745031912276   -4.17450e-01   3.18549e-02 ADIIS/DIIS
   @DF-RKS iter   2:    -0.48235696306981   -6.49066e-02   9.40804e-03 ADIIS/DIIS
   @DF-RKS iter   3:    -0.48884923021237   -6.49227e-03   9.98001e-05 DIIS
   @DF-RKS iter   4:    -0.48884993561040   -7.05398e-07   1.28832e-06 DIIS
   @DF-RKS iter   5:    -0.48884993572793   -1.17527e-10   1.06808e-08 DIIS
   @DF-RKS iter   6:    -0.48884993572794   -8.10463e-15   6.57514e-11 DIIS
  Energy and wave function converged.


  ==> Post-Iterations <==

   Electrons on quadrature grid:
      Ntotal   =    2.0000000000 ; deviation = 1.201e-11 

    Orbital Energies [Eh]
    ---------------------

    Doubly Occupied:                                                      

       1A      0.143360  

    Virtual:                                                              

       2A      0.441565     3A      0.441565     4A      0.441565  
       5A      0.852280     6A      2.058595     7A      2.058595  
       8A      2.058595  

    Final Occupation by Irrep:
              A 
    DOCC [     1 ]
    NA   [     1 ]
    NB   [     1 ]

  @DF-RKS Final Energy:    -0.48884993572794

   => Energetics <=

    Nuclear Repulsion Energy =              0.0000000000000000
    One-Electron Energy =                  -0.9463596336003339
    Two-Electron Energy =                   0.8956075669347630
    DFT Exchange-Correlation Energy =      -0.4380978690623661
    Empirical Dispersion Energy =           0.0000000000000000
    VV10 Nonlocal Energy =                  0.0000000000000000
    Total Energy =                         -0.4888499357279371

Computation Completed


Properties will be evaluated at   0.000000,   0.000000,   0.000000 [a0]

Properties computed using the SCF density matrix


 Multipole Moments:

 ------------------------------------------------------------------------------------
     Multipole            Electronic (a.u.)      Nuclear  (a.u.)        Total (a.u.)
 ------------------------------------------------------------------------------------

 L = 1.  Multiply by 2.5417464519 to convert [e a0] to [Debye]
 Dipole X            :         -0.0000000            0.0000000           -0.0000000
 Dipole Y            :         -0.0000000            0.0000000           -0.0000000
 Dipole Z            :         -0.0000000            0.0000000           -0.0000000
 Magnitude           :                                                    0.0000000

 ------------------------------------------------------------------------------------

*** tstop() called on PNNL-KM3X724WWL at Tue Jul 28 16:59:53 2026
Module time:
	user time   =       0.10 seconds =       0.00 minutes
	system time =       0.03 seconds =       0.00 minutes
	total time  =          0 seconds =       0.00 minutes
Total time:
	user time   =       1.15 seconds =       0.02 minutes
	system time =       0.35 seconds =       0.01 minutes
	total time  =          1 seconds =       0.02 minutes

Scratch directory: /tmp/
   => Libint2 <=

    Primary   basis highest AM E, G, H:  7, 6, 3
    Auxiliary basis highest AM E, G, H:  7, 7, 4
    Onebody   basis highest AM E, G, H:  -, -, -
    Solid Harmonics ordering:            Gaussian

*** tstart() called on PNNL-KM3X724WWL
*** at Tue Jul 28 16:59:53 2026

   => Loading Basis Set <=

    Name: DEF2-SVPD
    Role: ORBITAL
    Keyword: BASIS
    atoms 1 entry H          line    14 file /opt/miniconda3/envs/rsfff/share/psi4/basis/def2-svpd.gbs 


         ---------------------------------------------------------
                                   SCF
               by Justin Turney, Rob Parrish, Andy Simmonett
                          and Daniel G. A. Smith
                              RKS Reference
                       14 Threads,   7629 MiB Core
         ---------------------------------------------------------

  ==> Geometry <==

    Molecular point group: c1
    Geometry (in Angstrom), charge = -1, multiplicity = 1:

       Center              X                  Y                   Z               Mass       
    ------------   -----------------  -----------------  -----------------  -----------------
         H            0.000000000000     0.000000000000     0.000000000000     1.007825032230

  Running in c1 symmetry.

  Rotational constants: A = ************  B = ************  C = ************ [cm^-1]
  Rotational constants: A = ************  B = ************  C = ************ [MHz]
  Nuclear repulsion =    0.000000000000000

  Charge       = -1
  Multiplicity = 1
  Electrons    = 2
  Nalpha       = 1
  Nbeta        = 1

  ==> Algorithm <==

  SCF Algorithm Type is DF.
  DIIS enabled.
  MOM disabled.
  Fractional occupation disabled.
  Guess Type is CORE.
  Energy threshold   = 1.00e-09
  Density threshold  = 1.00e-09
  Integral threshold = 1.00e-12

  ==> Primary Basis <==

  Basis Set: DEF2-SVPD
    Blend: DEF2-SVPD
    Number of shells: 4
    Number of basis functions: 8
    Number of Cartesian functions: 8
    Spherical Harmonics?: true
    Max angular momentum: 1

  ==> DFT Potential <==

   => LibXC <=

    Version 7.0.0
    S. Lehtola, C. Steigemann, M. J.T. Oliveira, and M. A.L. Marques.,  SoftwareX 7, 1–5 (2018) (10.1016/j.softx.2017.11.002)

   => Composite Functional: B3LYP <= 

    B3LYP Hyb-GGA Exchange-Correlation Functional

    P. J. Stephens, F. J. Devlin, C. F. Chabalowski, and M. J. Frisch.,  J. Phys. Chem. 98, 11623 (1994) (10.1021/j100096a001)

    Deriv               =              1
    GGA                 =           TRUE
    Meta                =          FALSE

    Exchange Hybrid     =           TRUE
    MP2 Hybrid          =          FALSE

   => Exchange Functionals <=

    0.0800   Slater exchange
    0.7200         Becke 88

   => Exact (HF) Exchange <=

    0.2000               HF 

   => Correlation Functionals <=

    0.1900   Vosko, Wilk & Nusair (VWN5_RPA)
    0.8100   Lee, Yang & Parr

   => LibXC Density Thresholds  <==

    XC_HYB_GGA_XC_B3LYP:  1.00E-15 

   => Molecular Quadrature <=

    Radial Scheme          =       TREUTLER
    Pruning Scheme         =           NONE
    Nuclear Scheme         =       TREUTLER

    Blocking Scheme        =         OCTREE
    BS radius alpha        =              1
    Pruning alpha          =              1
    Radial Points          =             75
    Spherical Points       =            302
    Total Points           =          22348
    Total Blocks           =            213
    Max Points             =            252
    Max Functions          =              8
    Weights Tolerance      =       1.00E-15

   => Loading Basis Set <=

    Name: (DEF2-SVPD AUX)
    Role: JKFIT
    Keyword: DF_BASIS_SCF
    atoms 1 entry H          line    18 file /opt/miniconda3/envs/rsfff/share/psi4/basis/def2-universal-jkfit.gbs 

  ==> Integral Setup <==

  DFHelper Memory: AOs need 0.000 GiB; user supplied 5.583 GiB. 
  SCF_SUBTYPE=INCORE selected. In-core MEM_DF algorithm will be used.
  Using in-core AOs.

  ==> MemDFJK: Density-Fitted J/K Matrices <==

    J tasked:                   Yes
    K tasked:                   Yes
    wK tasked:                   No
    OpenMP threads:              14
    Memory [MiB]:              5716
    Algorithm:                 Core
    Schwarz Cutoff:           1E-12
    Mask sparsity (%):       0.0000
    Fitting Condition:        1E-10

   => Auxiliary Basis Set <=

  Basis Set: (DEF2-SVPD AUX)
    Blend: DEF2-UNIVERSAL-JKFIT
    Number of shells: 6
    Number of basis functions: 18
    Number of Cartesian functions: 20
    Spherical Harmonics?: true
    Max angular momentum: 2

  Cached 100.0% of DFT collocation blocks in 0.005 [GiB].

  Perturbing V by -0.001000 mu(x).
  Minimum eigenvalue in the overlap matrix is 3.1520017525E-01.
  Reciprocal condition number of the overlap matrix is 1.8708464390E-01.
    Using symmetric orthogonalization.

  ==> Pre-Iterations <==

  SCF Guess: Core (One-Electron) Hamiltonian.

   -------------------------------------------------------
    Irrep   Nso     Nmo     Nalpha   Nbeta   Ndocc  Nsocc
   -------------------------------------------------------
     A          8       8       1       1       1       0
   -------------------------------------------------------
    Total       8       8       1       1       1       0
   -------------------------------------------------------

  ==> Iterations <==

                           Total Energy        Delta E     RMS |[F,P]|

   @DF-RKS iter   1:    -0.41745943007112   -4.17459e-01   3.18547e-02 ADIIS/DIIS
   @DF-RKS iter   2:    -0.48236427711195   -6.49048e-02   9.40859e-03 ADIIS/DIIS
   @DF-RKS iter   3:    -0.48885785079468   -6.49357e-03   1.00884e-04 ADIIS/DIIS
   @DF-RKS iter   4:    -0.48885814568199   -2.94887e-07   7.74681e-05 DIIS
   @DF-RKS iter   5:    -0.48885857054833   -4.24866e-07   1.63711e-06 DIIS
   @DF-RKS iter   6:    -0.48885857073802   -1.89686e-10   3.89742e-08 DIIS
   @DF-RKS iter   7:    -0.48885857073813   -1.07525e-13   1.14271e-12 DIIS
  Energy and wave function converged.


  ==> Post-Iterations <==

   Electrons on quadrature grid:
      Ntotal   =    2.0000000000 ; deviation = 1.202e-11 

    Orbital Energies [Eh]
    ---------------------

    Doubly Occupied:                                                      

       1A      0.143353  

    Virtual:                                                              

       2A      0.441563     3A      0.441563     4A      0.441565  
       5A      0.852277     6A      2.058589     7A      2.058589  
       8A      2.058590  

    Final Occupation by Irrep:
              A 
    DOCC [     1 ]
    NA   [     1 ]
    NB   [     1 ]

  @DF-RKS Final Energy:    -0.48885857073813

   => Energetics <=

    Nuclear Repulsion Energy =              0.0000000000000000
    One-Electron Energy =                  -0.9463649395946352
    Two-Electron Energy =                   0.8956021463183882
    DFT Exchange-Correlation Energy =      -0.4380957774618819
    Empirical Dispersion Energy =           0.0000000000000000
    VV10 Nonlocal Energy =                  0.0000000000000000
    Total Energy =                         -0.4888585707381289

Computation Completed


Properties will be evaluated at   0.000000,   0.000000,   0.000000 [a0]

Properties computed using the SCF density matrix


 Multipole Moments:

 ------------------------------------------------------------------------------------
     Multipole            Electronic (a.u.)      Nuclear  (a.u.)        Total (a.u.)
 ------------------------------------------------------------------------------------

 L = 1.  Multiply by 2.5417464519 to convert [e a0] to [Debye]
 Dipole X            :          0.0172698            0.0000000            0.0172698
 Dipole Y            :         -0.0000000            0.0000000           -0.0000000
 Dipole Z            :          0.0000000            0.0000000            0.0000000
 Magnitude           :                                                    0.0172698

 ------------------------------------------------------------------------------------

*** tstop() called on PNNL-KM3X724WWL at Tue Jul 28 16:59:53 2026
Module time:
	user time   =       0.13 seconds =       0.00 minutes
	system time =       0.03 seconds =       0.00 minutes
	total time  =          0 seconds =       0.00 minutes
Total time:
	user time   =       1.30 seconds =       0.02 minutes
	system time =       0.38 seconds =       0.01 minutes
	total time  =          1 seconds =       0.02 minutes

Scratch directory: /tmp/
   => Libint2 <=

    Primary   basis highest AM E, G, H:  7, 6, 3
    Auxiliary basis highest AM E, G, H:  7, 7, 4
    Onebody   basis highest AM E, G, H:  -, -, -
    Solid Harmonics ordering:            Gaussian

*** tstart() called on PNNL-KM3X724WWL
*** at Tue Jul 28 16:59:53 2026

   => Loading Basis Set <=

    Name: DEF2-SVPD
    Role: ORBITAL
    Keyword: BASIS
    atoms 1 entry H          line    14 file /opt/miniconda3/envs/rsfff/share/psi4/basis/def2-svpd.gbs 


         ---------------------------------------------------------
                                   SCF
               by Justin Turney, Rob Parrish, Andy Simmonett
                          and Daniel G. A. Smith
                              RKS Reference
                       14 Threads,   7629 MiB Core
         ---------------------------------------------------------

  ==> Geometry <==

    Molecular point group: c1
    Geometry (in Angstrom), charge = -1, multiplicity = 1:

       Center              X                  Y                   Z               Mass       
    ------------   -----------------  -----------------  -----------------  -----------------
         H            0.000000000000     0.000000000000     0.000000000000     1.007825032230

  Running in c1 symmetry.

  Rotational constants: A = ************  B = ************  C = ************ [cm^-1]
  Rotational constants: A = ************  B = ************  C = ************ [MHz]
  Nuclear repulsion =    0.000000000000000

  Charge       = -1
  Multiplicity = 1
  Electrons    = 2
  Nalpha       = 1
  Nbeta        = 1

  ==> Algorithm <==

  SCF Algorithm Type is DF.
  DIIS enabled.
  MOM disabled.
  Fractional occupation disabled.
  Guess Type is CORE.
  Energy threshold   = 1.00e-09
  Density threshold  = 1.00e-09
  Integral threshold = 1.00e-12

  ==> Primary Basis <==

  Basis Set: DEF2-SVPD
    Blend: DEF2-SVPD
    Number of shells: 4
    Number of basis functions: 8
    Number of Cartesian functions: 8
    Spherical Harmonics?: true
    Max angular momentum: 1

  ==> DFT Potential <==

   => LibXC <=

    Version 7.0.0
    S. Lehtola, C. Steigemann, M. J.T. Oliveira, and M. A.L. Marques.,  SoftwareX 7, 1–5 (2018) (10.1016/j.softx.2017.11.002)

   => Composite Functional: B3LYP <= 

    B3LYP Hyb-GGA Exchange-Correlation Functional

    P. J. Stephens, F. J. Devlin, C. F. Chabalowski, and M. J. Frisch.,  J. Phys. Chem. 98, 11623 (1994) (10.1021/j100096a001)

    Deriv               =              1
    GGA                 =           TRUE
    Meta                =          FALSE

    Exchange Hybrid     =           TRUE
    MP2 Hybrid          =          FALSE

   => Exchange Functionals <=

    0.0800   Slater exchange
    0.7200         Becke 88

   => Exact (HF) Exchange <=

    0.2000               HF 

   => Correlation Functionals <=

    0.1900   Vosko, Wilk & Nusair (VWN5_RPA)
    0.8100   Lee, Yang & Parr

   => LibXC Density Thresholds  <==

    XC_HYB_GGA_XC_B3LYP:  1.00E-15 

   => Molecular Quadrature <=

    Radial Scheme          =       TREUTLER
    Pruning Scheme         =           NONE
    Nuclear Scheme         =       TREUTLER

    Blocking Scheme        =         OCTREE
    BS radius alpha        =              1
    Pruning alpha          =              1
    Radial Points          =             75
    Spherical Points       =            302
    Total Points           =          22348
    Total Blocks           =            213
    Max Points             =            252
    Max Functions          =              8
    Weights Tolerance      =       1.00E-15

   => Loading Basis Set <=

    Name: (DEF2-SVPD AUX)
    Role: JKFIT
    Keyword: DF_BASIS_SCF
    atoms 1 entry H          line    18 file /opt/miniconda3/envs/rsfff/share/psi4/basis/def2-universal-jkfit.gbs 

  ==> Integral Setup <==

  DFHelper Memory: AOs need 0.000 GiB; user supplied 5.583 GiB. 
  SCF_SUBTYPE=INCORE selected. In-core MEM_DF algorithm will be used.
  Using in-core AOs.

  ==> MemDFJK: Density-Fitted J/K Matrices <==

    J tasked:                   Yes
    K tasked:                   Yes
    wK tasked:                   No
    OpenMP threads:              14
    Memory [MiB]:              5716
    Algorithm:                 Core
    Schwarz Cutoff:           1E-12
    Mask sparsity (%):       0.0000
    Fitting Condition:        1E-10

   => Auxiliary Basis Set <=

  Basis Set: (DEF2-SVPD AUX)
    Blend: DEF2-UNIVERSAL-JKFIT
    Number of shells: 6
    Number of basis functions: 18
    Number of Cartesian functions: 20
    Spherical Harmonics?: true
    Max angular momentum: 2

  Cached 100.0% of DFT collocation blocks in 0.005 [GiB].

  Perturbing V by 0.001000 mu(x).
  Minimum eigenvalue in the overlap matrix is 3.1520017525E-01.
  Reciprocal condition number of the overlap matrix is 1.8708464390E-01.
    Using symmetric orthogonalization.

  ==> Pre-Iterations <==

  SCF Guess: Core (One-Electron) Hamiltonian.

   -------------------------------------------------------
    Irrep   Nso     Nmo     Nalpha   Nbeta   Ndocc  Nsocc
   -------------------------------------------------------
     A          8       8       1       1       1       0
   -------------------------------------------------------
    Total       8       8       1       1       1       0
   -------------------------------------------------------

  ==> Iterations <==

                           Total Energy        Delta E     RMS |[F,P]|

   @DF-RKS iter   1:    -0.41745943007112   -4.17459e-01   3.18547e-02 ADIIS/DIIS
   @DF-RKS iter   2:    -0.48236427711195   -6.49048e-02   9.40859e-03 ADIIS/DIIS
   @DF-RKS iter   3:    -0.48885785079468   -6.49357e-03   1.00884e-04 ADIIS/DIIS
   @DF-RKS iter   4:    -0.48885814568199   -2.94887e-07   7.74681e-05 DIIS
   @DF-RKS iter   5:    -0.48885857054833   -4.24866e-07   1.63711e-06 DIIS
   @DF-RKS iter   6:    -0.48885857073802   -1.89686e-10   3.89739e-08 DIIS
   @DF-RKS iter   7:    -0.48885857073813   -1.07581e-13   1.55296e-12 DIIS
  Energy and wave function converged.


  ==> Post-Iterations <==

   Electrons on quadrature grid:
      Ntotal   =    2.0000000000 ; deviation = 1.202e-11 

    Orbital Energies [Eh]
    ---------------------

    Doubly Occupied:                                                      

       1A      0.143353  

    Virtual:                                                              

       2A      0.441563     3A      0.441563     4A      0.441565  
       5A      0.852277     6A      2.058589     7A      2.058589  
       8A      2.058590  

    Final Occupation by Irrep:
              A 
    DOCC [     1 ]
    NA   [     1 ]
    NB   [     1 ]

  @DF-RKS Final Energy:    -0.48885857073813

   => Energetics <=

    Nuclear Repulsion Energy =              0.0000000000000000
    One-Electron Energy =                  -0.9463649395932932
    Two-Electron Energy =                   0.8956021463158362
    DFT Exchange-Correlation Energy =      -0.4380957774606716
    Empirical Dispersion Energy =           0.0000000000000000
    VV10 Nonlocal Energy =                  0.0000000000000000
    Total Energy =                         -0.4888585707381286

Computation Completed


Properties will be evaluated at   0.000000,   0.000000,   0.000000 [a0]

Properties computed using the SCF density matrix


 Multipole Moments:

 ------------------------------------------------------------------------------------
     Multipole            Electronic (a.u.)      Nuclear  (a.u.)        Total (a.u.)
 ------------------------------------------------------------------------------------

 L = 1.  Multiply by 2.5417464519 to convert [e a0] to [Debye]
 Dipole X            :         -0.0172698            0.0000000           -0.0172698
 Dipole Y            :          0.0000000            0.0000000            0.0000000
 Dipole Z            :         -0.0000000            0.0000000           -0.0000000
 Magnitude           :                                                    0.0172698

 ------------------------------------------------------------------------------------

*** tstop() called on PNNL-KM3X724WWL at Tue Jul 28 16:59:53 2026
Module time:
	user time   =       0.12 seconds =       0.00 minutes
	system time =       0.04 seconds =       0.00 minutes
	total time  =          0 seconds =       0.00 minutes
Total time:
	user time   =       1.43 seconds =       0.02 minutes
	system time =       0.42 seconds =       0.01 minutes
	total time  =          1 seconds =       0.02 minutes

Scratch directory: /tmp/
   => Libint2 <=

    Primary   basis highest AM E, G, H:  7, 6, 3
    Auxiliary basis highest AM E, G, H:  7, 7, 4
    Onebody   basis highest AM E, G, H:  -, -, -
    Solid Harmonics ordering:            Gaussian

*** tstart() called on PNNL-KM3X724WWL
*** at Tue Jul 28 16:59:53 2026

   => Loading Basis Set <=

    Name: DEF2-SVPD
    Role: ORBITAL
    Keyword: BASIS
    atoms 1 entry H          line    14 file /opt/miniconda3/envs/rsfff/share/psi4/basis/def2-svpd.gbs 


         ---------------------------------------------------------
                                   SCF
               by Justin Turney, Rob Parrish, Andy Simmonett
                          and Daniel G. A. Smith
                              RKS Reference
                       14 Threads,   7629 MiB Core
         ---------------------------------------------------------

  ==> Geometry <==

    Molecular point group: c1
    Geometry (in Angstrom), charge = -1, multiplicity = 1:

       Center              X                  Y                   Z               Mass       
    ------------   -----------------  -----------------  -----------------  -----------------
         H            0.000000000000     0.000000000000     0.000000000000     1.007825032230

  Running in c1 symmetry.

  Rotational constants: A = ************  B = ************  C = ************ [cm^-1]
  Rotational constants: A = ************  B = ************  C = ************ [MHz]
  Nuclear repulsion =    0.000000000000000

  Charge       = -1
  Multiplicity = 1
  Electrons    = 2
  Nalpha       = 1
  Nbeta        = 1

  ==> Algorithm <==

  SCF Algorithm Type is DF.
  DIIS enabled.
  MOM disabled.
  Fractional occupation disabled.
  Guess Type is CORE.
  Energy threshold   = 1.00e-09
  Density threshold  = 1.00e-09
  Integral threshold = 1.00e-12

  ==> Primary Basis <==

  Basis Set: DEF2-SVPD
    Blend: DEF2-SVPD
    Number of shells: 4
    Number of basis functions: 8
    Number of Cartesian functions: 8
    Spherical Harmonics?: true
    Max angular momentum: 1

  ==> DFT Potential <==

   => LibXC <=

    Version 7.0.0
    S. Lehtola, C. Steigemann, M. J.T. Oliveira, and M. A.L. Marques.,  SoftwareX 7, 1–5 (2018) (10.1016/j.softx.2017.11.002)

   => Composite Functional: B3LYP <= 

    B3LYP Hyb-GGA Exchange-Correlation Functional

    P. J. Stephens, F. J. Devlin, C. F. Chabalowski, and M. J. Frisch.,  J. Phys. Chem. 98, 11623 (1994) (10.1021/j100096a001)

    Deriv               =              1
    GGA                 =           TRUE
    Meta                =          FALSE

    Exchange Hybrid     =           TRUE
    MP2 Hybrid          =          FALSE

   => Exchange Functionals <=

    0.0800   Slater exchange
    0.7200         Becke 88

   => Exact (HF) Exchange <=

    0.2000               HF 

   => Correlation Functionals <=

    0.1900   Vosko, Wilk & Nusair (VWN5_RPA)
    0.8100   Lee, Yang & Parr

   => LibXC Density Thresholds  <==

    XC_HYB_GGA_XC_B3LYP:  1.00E-15 

   => Molecular Quadrature <=

    Radial Scheme          =       TREUTLER
    Pruning Scheme         =           NONE
    Nuclear Scheme         =       TREUTLER

    Blocking Scheme        =         OCTREE
    BS radius alpha        =              1
    Pruning alpha          =              1
    Radial Points          =             75
    Spherical Points       =            302
    Total Points           =          22348
    Total Blocks           =            213
    Max Points             =            252
    Max Functions          =              8
    Weights Tolerance      =       1.00E-15

   => Loading Basis Set <=

    Name: (DEF2-SVPD AUX)
    Role: JKFIT
    Keyword: DF_BASIS_SCF
    atoms 1 entry H          line    18 file /opt/miniconda3/envs/rsfff/share/psi4/basis/def2-universal-jkfit.gbs 

  ==> Integral Setup <==

  DFHelper Memory: AOs need 0.000 GiB; user supplied 5.583 GiB. 
  SCF_SUBTYPE=INCORE selected. In-core MEM_DF algorithm will be used.
  Using in-core AOs.

  ==> MemDFJK: Density-Fitted J/K Matrices <==

    J tasked:                   Yes
    K tasked:                   Yes
    wK tasked:                   No
    OpenMP threads:              14
    Memory [MiB]:              5716
    Algorithm:                 Core
    Schwarz Cutoff:           1E-12
    Mask sparsity (%):       0.0000
    Fitting Condition:        1E-10

   => Auxiliary Basis Set <=

  Basis Set: (DEF2-SVPD AUX)
    Blend: DEF2-UNIVERSAL-JKFIT
    Number of shells: 6
    Number of basis functions: 18
    Number of Cartesian functions: 20
    Spherical Harmonics?: true
    Max angular momentum: 2

  Cached 100.0% of DFT collocation blocks in 0.005 [GiB].

  Perturbing V by -0.001000 mu(y).
  Minimum eigenvalue in the overlap matrix is 3.1520017525E-01.
  Reciprocal condition number of the overlap matrix is 1.8708464390E-01.
    Using symmetric orthogonalization.

  ==> Pre-Iterations <==

  SCF Guess: Core (One-Electron) Hamiltonian.

   -------------------------------------------------------
    Irrep   Nso     Nmo     Nalpha   Nbeta   Ndocc  Nsocc
   -------------------------------------------------------
     A          8       8       1       1       1       0
   -------------------------------------------------------
    Total       8       8       1       1       1       0
   -------------------------------------------------------

  ==> Iterations <==

                           Total Energy        Delta E     RMS |[F,P]|

   @DF-RKS iter   1:    -0.41745943007112   -4.17459e-01   3.18547e-02 ADIIS/DIIS
   @DF-RKS iter   2:    -0.48236427711195   -6.49048e-02   9.40859e-03 ADIIS/DIIS
   @DF-RKS iter   3:    -0.48885785079468   -6.49357e-03   1.00884e-04 ADIIS/DIIS
   @DF-RKS iter   4:    -0.48885814568199   -2.94887e-07   7.74681e-05 DIIS
   @DF-RKS iter   5:    -0.48885857054834   -4.24866e-07   1.63711e-06 DIIS
   @DF-RKS iter   6:    -0.48885857073802   -1.89686e-10   3.89733e-08 DIIS
   @DF-RKS iter   7:    -0.48885857073813   -1.07581e-13   1.20432e-12 DIIS
  Energy and wave function converged.


  ==> Post-Iterations <==

   Electrons on quadrature grid:
      Ntotal   =    2.0000000000 ; deviation = 1.202e-11 

    Orbital Energies [Eh]
    ---------------------

    Doubly Occupied:                                                      

       1A      0.143353  

    Virtual:                                                              

       2A      0.441563     3A      0.441563     4A      0.441565  
       5A      0.852277     6A      2.058589     7A      2.058589  
       8A      2.058590  

    Final Occupation by Irrep:
              A 
    DOCC [     1 ]
    NA   [     1 ]
    NB   [     1 ]

  @DF-RKS Final Energy:    -0.48885857073813

   => Energetics <=

    Nuclear Repulsion Energy =              0.0000000000000000
    One-Electron Energy =                  -0.9463649395944344
    Two-Electron Energy =                   0.8956021463180061
    DFT Exchange-Correlation Energy =      -0.4380957774617005
    Empirical Dispersion Energy =           0.0000000000000000
    VV10 Nonlocal Energy =                  0.0000000000000000
    Total Energy =                         -0.4888585707381288

Computation Completed


Properties will be evaluated at   0.000000,   0.000000,   0.000000 [a0]

Properties computed using the SCF density matrix


 Multipole Moments:

 ------------------------------------------------------------------------------------
     Multipole            Electronic (a.u.)      Nuclear  (a.u.)        Total (a.u.)
 ------------------------------------------------------------------------------------

 L = 1.  Multiply by 2.5417464519 to convert [e a0] to [Debye]
 Dipole X            :          0.0000000            0.0000000            0.0000000
 Dipole Y            :          0.0172698            0.0000000            0.0172698
 Dipole Z            :          0.0000000            0.0000000            0.0000000
 Magnitude           :                                                    0.0172698

 ------------------------------------------------------------------------------------

*** tstop() called on PNNL-KM3X724WWL at Tue Jul 28 16:59:53 2026
Module time:
	user time   =       0.12 seconds =       0.00 minutes
	system time =       0.03 seconds =       0.00 minutes
	total time  =          0 seconds =       0.00 minutes
Total time:
	user time   =       1.56 seconds =       0.03 minutes
	system time =       0.45 seconds =       0.01 minutes
	total time  =          1 seconds =       0.02 minutes

Scratch directory: /tmp/
   => Libint2 <=

    Primary   basis highest AM E, G, H:  7, 6, 3
    Auxiliary basis highest AM E, G, H:  7, 7, 4
    Onebody   basis highest AM E, G, H:  -, -, -
    Solid Harmonics ordering:            Gaussian

*** tstart() called on PNNL-KM3X724WWL
*** at Tue Jul 28 16:59:53 2026

   => Loading Basis Set <=

    Name: DEF2-SVPD
    Role: ORBITAL
    Keyword: BASIS
    atoms 1 entry H          line    14 file /opt/miniconda3/envs/rsfff/share/psi4/basis/def2-svpd.gbs 


         ---------------------------------------------------------
                                   SCF
               by Justin Turney, Rob Parrish, Andy Simmonett
                          and Daniel G. A. Smith
                              RKS Reference
                       14 Threads,   7629 MiB Core
         ---------------------------------------------------------

  ==> Geometry <==

    Molecular point group: c1
    Geometry (in Angstrom), charge = -1, multiplicity = 1:

       Center              X                  Y                   Z               Mass       
    ------------   -----------------  -----------------  -----------------  -----------------
         H            0.000000000000     0.000000000000     0.000000000000     1.007825032230

  Running in c1 symmetry.

  Rotational constants: A = ************  B = ************  C = ************ [cm^-1]
  Rotational constants: A = ************  B = ************  C = ************ [MHz]
  Nuclear repulsion =    0.000000000000000

  Charge       = -1
  Multiplicity = 1
  Electrons    = 2
  Nalpha       = 1
  Nbeta        = 1

  ==> Algorithm <==

  SCF Algorithm Type is DF.
  DIIS enabled.
  MOM disabled.
  Fractional occupation disabled.
  Guess Type is CORE.
  Energy threshold   = 1.00e-09
  Density threshold  = 1.00e-09
  Integral threshold = 1.00e-12

  ==> Primary Basis <==

  Basis Set: DEF2-SVPD
    Blend: DEF2-SVPD
    Number of shells: 4
    Number of basis functions: 8
    Number of Cartesian functions: 8
    Spherical Harmonics?: true
    Max angular momentum: 1

  ==> DFT Potential <==

   => LibXC <=

    Version 7.0.0
    S. Lehtola, C. Steigemann, M. J.T. Oliveira, and M. A.L. Marques.,  SoftwareX 7, 1–5 (2018) (10.1016/j.softx.2017.11.002)

   => Composite Functional: B3LYP <= 

    B3LYP Hyb-GGA Exchange-Correlation Functional

    P. J. Stephens, F. J. Devlin, C. F. Chabalowski, and M. J. Frisch.,  J. Phys. Chem. 98, 11623 (1994) (10.1021/j100096a001)

    Deriv               =              1
    GGA                 =           TRUE
    Meta                =          FALSE

    Exchange Hybrid     =           TRUE
    MP2 Hybrid          =          FALSE

   => Exchange Functionals <=

    0.0800   Slater exchange
    0.7200         Becke 88

   => Exact (HF) Exchange <=

    0.2000               HF 

   => Correlation Functionals <=

    0.1900   Vosko, Wilk & Nusair (VWN5_RPA)
    0.8100   Lee, Yang & Parr

   => LibXC Density Thresholds  <==

    XC_HYB_GGA_XC_B3LYP:  1.00E-15 

   => Molecular Quadrature <=

    Radial Scheme          =       TREUTLER
    Pruning Scheme         =           NONE
    Nuclear Scheme         =       TREUTLER

    Blocking Scheme        =         OCTREE
    BS radius alpha        =              1
    Pruning alpha          =              1
    Radial Points          =             75
    Spherical Points       =            302
    Total Points           =          22348
    Total Blocks           =            213
    Max Points             =            252
    Max Functions          =              8
    Weights Tolerance      =       1.00E-15

   => Loading Basis Set <=

    Name: (DEF2-SVPD AUX)
    Role: JKFIT
    Keyword: DF_BASIS_SCF
    atoms 1 entry H          line    18 file /opt/miniconda3/envs/rsfff/share/psi4/basis/def2-universal-jkfit.gbs 

  ==> Integral Setup <==

  DFHelper Memory: AOs need 0.000 GiB; user supplied 5.583 GiB. 
  SCF_SUBTYPE=INCORE selected. In-core MEM_DF algorithm will be used.
  Using in-core AOs.

  ==> MemDFJK: Density-Fitted J/K Matrices <==

    J tasked:                   Yes
    K tasked:                   Yes
    wK tasked:                   No
    OpenMP threads:              14
    Memory [MiB]:              5716
    Algorithm:                 Core
    Schwarz Cutoff:           1E-12
    Mask sparsity (%):       0.0000
    Fitting Condition:        1E-10

   => Auxiliary Basis Set <=

  Basis Set: (DEF2-SVPD AUX)
    Blend: DEF2-UNIVERSAL-JKFIT
    Number of shells: 6
    Number of basis functions: 18
    Number of Cartesian functions: 20
    Spherical Harmonics?: true
    Max angular momentum: 2

  Cached 100.0% of DFT collocation blocks in 0.005 [GiB].

  Perturbing V by 0.001000 mu(y).
  Minimum eigenvalue in the overlap matrix is 3.1520017525E-01.
  Reciprocal condition number of the overlap matrix is 1.8708464390E-01.
    Using symmetric orthogonalization.

  ==> Pre-Iterations <==

  SCF Guess: Core (One-Electron) Hamiltonian.

   -------------------------------------------------------
    Irrep   Nso     Nmo     Nalpha   Nbeta   Ndocc  Nsocc
   -------------------------------------------------------
     A          8       8       1       1       1       0
   -------------------------------------------------------
    Total       8       8       1       1       1       0
   -------------------------------------------------------

  ==> Iterations <==

                           Total Energy        Delta E     RMS |[F,P]|

   @DF-RKS iter   1:    -0.41745943007112   -4.17459e-01   3.18547e-02 ADIIS/DIIS
   @DF-RKS iter   2:    -0.48236427711195   -6.49048e-02   9.40859e-03 ADIIS/DIIS
   @DF-RKS iter   3:    -0.48885785079468   -6.49357e-03   1.00884e-04 ADIIS/DIIS
   @DF-RKS iter   4:    -0.48885814568199   -2.94887e-07   7.74681e-05 DIIS
   @DF-RKS iter   5:    -0.48885857054834   -4.24866e-07   1.63711e-06 DIIS
   @DF-RKS iter   6:    -0.48885857073802   -1.89686e-10   3.89721e-08 DIIS
   @DF-RKS iter   7:    -0.48885857073813   -1.07248e-13   1.45058e-12 DIIS
  Energy and wave function converged.


  ==> Post-Iterations <==

   Electrons on quadrature grid:
      Ntotal   =    2.0000000000 ; deviation = 1.202e-11 

    Orbital Energies [Eh]
    ---------------------

    Doubly Occupied:                                                      

       1A      0.143353  

    Virtual:                                                              

       2A      0.441563     3A      0.441563     4A      0.441565  
       5A      0.852277     6A      2.058589     7A      2.058589  
       8A      2.058590  

    Final Occupation by Irrep:
              A 
    DOCC [     1 ]
    NA   [     1 ]
    NB   [     1 ]

  @DF-RKS Final Energy:    -0.48885857073813

   => Energetics <=

    Nuclear Repulsion Energy =              0.0000000000000000
    One-Electron Energy =                  -0.9463649396031228
    Two-Electron Energy =                   0.8956021463345288
    DFT Exchange-Correlation Energy =      -0.4380957774695347
    Empirical Dispersion Energy =           0.0000000000000000
    VV10 Nonlocal Energy =                  0.0000000000000000
    Total Energy =                         -0.4888585707381287

Computation Completed


Properties will be evaluated at   0.000000,   0.000000,   0.000000 [a0]

Properties computed using the SCF density matrix


 Multipole Moments:

 ------------------------------------------------------------------------------------
     Multipole            Electronic (a.u.)      Nuclear  (a.u.)        Total (a.u.)
 ------------------------------------------------------------------------------------

 L = 1.  Multiply by 2.5417464519 to convert [e a0] to [Debye]
 Dipole X            :          0.0000000            0.0000000            0.0000000
 Dipole Y            :         -0.0172698            0.0000000           -0.0172698
 Dipole Z            :          0.0000000            0.0000000            0.0000000
 Magnitude           :                                                    0.0172698

 ------------------------------------------------------------------------------------

*** tstop() called on PNNL-KM3X724WWL at Tue Jul 28 16:59:53 2026
Module time:
	user time   =       0.12 seconds =       0.00 minutes
	system time =       0.04 seconds =       0.00 minutes
	total time  =          0 seconds =       0.00 minutes
Total time:
	user time   =       1.70 seconds =       0.03 minutes
	system time =       0.49 seconds =       0.01 minutes
	total time  =          1 seconds =       0.02 minutes

Scratch directory: /tmp/
   => Libint2 <=

    Primary   basis highest AM E, G, H:  7, 6, 3
    Auxiliary basis highest AM E, G, H:  7, 7, 4
    Onebody   basis highest AM E, G, H:  -, -, -
    Solid Harmonics ordering:            Gaussian

*** tstart() called on PNNL-KM3X724WWL
*** at Tue Jul 28 16:59:53 2026

   => Loading Basis Set <=

    Name: DEF2-SVPD
    Role: ORBITAL
    Keyword: BASIS
    atoms 1 entry H          line    14 file /opt/miniconda3/envs/rsfff/share/psi4/basis/def2-svpd.gbs 


         ---------------------------------------------------------
                                   SCF
               by Justin Turney, Rob Parrish, Andy Simmonett
                          and Daniel G. A. Smith
                              RKS Reference
                       14 Threads,   7629 MiB Core
         ---------------------------------------------------------

  ==> Geometry <==

    Molecular point group: c1
    Geometry (in Angstrom), charge = -1, multiplicity = 1:

       Center              X                  Y                   Z               Mass       
    ------------   -----------------  -----------------  -----------------  -----------------
         H            0.000000000000     0.000000000000     0.000000000000     1.007825032230

  Running in c1 symmetry.

  Rotational constants: A = ************  B = ************  C = ************ [cm^-1]
  Rotational constants: A = ************  B = ************  C = ************ [MHz]
  Nuclear repulsion =    0.000000000000000

  Charge       = -1
  Multiplicity = 1
  Electrons    = 2
  Nalpha       = 1
  Nbeta        = 1

  ==> Algorithm <==

  SCF Algorithm Type is DF.
  DIIS enabled.
  MOM disabled.
  Fractional occupation disabled.
  Guess Type is CORE.
  Energy threshold   = 1.00e-09
  Density threshold  = 1.00e-09
  Integral threshold = 1.00e-12

  ==> Primary Basis <==

  Basis Set: DEF2-SVPD
    Blend: DEF2-SVPD
    Number of shells: 4
    Number of basis functions: 8
    Number of Cartesian functions: 8
    Spherical Harmonics?: true
    Max angular momentum: 1

  ==> DFT Potential <==

   => LibXC <=

    Version 7.0.0
    S. Lehtola, C. Steigemann, M. J.T. Oliveira, and M. A.L. Marques.,  SoftwareX 7, 1–5 (2018) (10.1016/j.softx.2017.11.002)

   => Composite Functional: B3LYP <= 

    B3LYP Hyb-GGA Exchange-Correlation Functional

    P. J. Stephens, F. J. Devlin, C. F. Chabalowski, and M. J. Frisch.,  J. Phys. Chem. 98, 11623 (1994) (10.1021/j100096a001)

    Deriv               =              1
    GGA                 =           TRUE
    Meta                =          FALSE

    Exchange Hybrid     =           TRUE
    MP2 Hybrid          =          FALSE

   => Exchange Functionals <=

    0.0800   Slater exchange
    0.7200         Becke 88

   => Exact (HF) Exchange <=

    0.2000               HF 

   => Correlation Functionals <=

    0.1900   Vosko, Wilk & Nusair (VWN5_RPA)
    0.8100   Lee, Yang & Parr

   => LibXC Density Thresholds  <==

    XC_HYB_GGA_XC_B3LYP:  1.00E-15 

   => Molecular Quadrature <=

    Radial Scheme          =       TREUTLER
    Pruning Scheme         =           NONE
    Nuclear Scheme         =       TREUTLER

    Blocking Scheme        =         OCTREE
    BS radius alpha        =              1
    Pruning alpha          =              1
    Radial Points          =             75
    Spherical Points       =            302
    Total Points           =          22348
    Total Blocks           =            213
    Max Points             =            252
    Max Functions          =              8
    Weights Tolerance      =       1.00E-15

   => Loading Basis Set <=

    Name: (DEF2-SVPD AUX)
    Role: JKFIT
    Keyword: DF_BASIS_SCF
    atoms 1 entry H          line    18 file /opt/miniconda3/envs/rsfff/share/psi4/basis/def2-universal-jkfit.gbs 

  ==> Integral Setup <==

  DFHelper Memory: AOs need 0.000 GiB; user supplied 5.583 GiB. 
  SCF_SUBTYPE=INCORE selected. In-core MEM_DF algorithm will be used.
  Using in-core AOs.

  ==> MemDFJK: Density-Fitted J/K Matrices <==

    J tasked:                   Yes
    K tasked:                   Yes
    wK tasked:                   No
    OpenMP threads:              14
    Memory [MiB]:              5716
    Algorithm:                 Core
    Schwarz Cutoff:           1E-12
    Mask sparsity (%):       0.0000
    Fitting Condition:        1E-10

   => Auxiliary Basis Set <=

  Basis Set: (DEF2-SVPD AUX)
    Blend: DEF2-UNIVERSAL-JKFIT
    Number of shells: 6
    Number of basis functions: 18
    Number of Cartesian functions: 20
    Spherical Harmonics?: true
    Max angular momentum: 2

  Cached 100.0% of DFT collocation blocks in 0.005 [GiB].

  Perturbing V by -0.001000 mu(z).
  Minimum eigenvalue in the overlap matrix is 3.1520017525E-01.
  Reciprocal condition number of the overlap matrix is 1.8708464390E-01.
    Using symmetric orthogonalization.

  ==> Pre-Iterations <==

  SCF Guess: Core (One-Electron) Hamiltonian.

   -------------------------------------------------------
    Irrep   Nso     Nmo     Nalpha   Nbeta   Ndocc  Nsocc
   -------------------------------------------------------
     A          8       8       1       1       1       0
   -------------------------------------------------------
    Total       8       8       1       1       1       0
   -------------------------------------------------------

  ==> Iterations <==

                           Total Energy        Delta E     RMS |[F,P]|

   @DF-RKS iter   1:    -0.41745943007112   -4.17459e-01   3.18547e-02 ADIIS/DIIS
   @DF-RKS iter   2:    -0.48236427711195   -6.49048e-02   9.40859e-03 ADIIS/DIIS
   @DF-RKS iter   3:    -0.48885785079468   -6.49357e-03   1.00884e-04 ADIIS/DIIS
   @DF-RKS iter   4:    -0.48885814568199   -2.94887e-07   7.74681e-05 DIIS
   @DF-RKS iter   5:    -0.48885857054834   -4.24866e-07   1.63711e-06 DIIS
   @DF-RKS iter   6:    -0.48885857073802   -1.89686e-10   3.89744e-08 DIIS
   @DF-RKS iter   7:    -0.48885857073813   -1.07581e-13   3.35628e-12 DIIS
  Energy and wave function converged.


  ==> Post-Iterations <==

   Electrons on quadrature grid:
      Ntotal   =    2.0000000000 ; deviation = 1.202e-11 

    Orbital Energies [Eh]
    ---------------------

    Doubly Occupied:                                                      

       1A      0.143353  

    Virtual:                                                              

       2A      0.441563     3A      0.441563     4A      0.441565  
       5A      0.852277     6A      2.058589     7A      2.058589  
       8A      2.058590  

    Final Occupation by Irrep:
              A 
    DOCC [     1 ]
    NA   [     1 ]
    NB   [     1 ]

  @DF-RKS Final Energy:    -0.48885857073813

   => Energetics <=

    Nuclear Repulsion Energy =              0.0000000000000000
    One-Electron Energy =                  -0.9463649395873901
    Two-Electron Energy =                   0.8956021463046107
    DFT Exchange-Correlation Energy =      -0.4380957774553493
    Empirical Dispersion Energy =           0.0000000000000000
    VV10 Nonlocal Energy =                  0.0000000000000000
    Total Energy =                         -0.4888585707381288

Computation Completed


Properties will be evaluated at   0.000000,   0.000000,   0.000000 [a0]

Properties computed using the SCF density matrix


 Multipole Moments:

 ------------------------------------------------------------------------------------
     Multipole            Electronic (a.u.)      Nuclear  (a.u.)        Total (a.u.)
 ------------------------------------------------------------------------------------

 L = 1.  Multiply by 2.5417464519 to convert [e a0] to [Debye]
 Dipole X            :         -0.0000000            0.0000000           -0.0000000
 Dipole Y            :          0.0000000            0.0000000            0.0000000
 Dipole Z            :          0.0172698            0.0000000            0.0172698
 Magnitude           :                                                    0.0172698

 ------------------------------------------------------------------------------------

*** tstop() called on PNNL-KM3X724WWL at Tue Jul 28 16:59:54 2026
Module time:
	user time   =       0.12 seconds =       0.00 minutes
	system time =       0.03 seconds =       0.00 minutes
	total time  =          1 seconds =       0.02 minutes
Total time:
	user time   =       1.83 seconds =       0.03 minutes
	system time =       0.52 seconds =       0.01 minutes
	total time  =          2 seconds =       0.03 minutes

Scratch directory: /tmp/
   => Libint2 <=

    Primary   basis highest AM E, G, H:  7, 6, 3
    Auxiliary basis highest AM E, G, H:  7, 7, 4
    Onebody   basis highest AM E, G, H:  -, -, -
    Solid Harmonics ordering:            Gaussian

*** tstart() called on PNNL-KM3X724WWL
*** at Tue Jul 28 16:59:54 2026

   => Loading Basis Set <=

    Name: DEF2-SVPD
    Role: ORBITAL
    Keyword: BASIS
    atoms 1 entry H          line    14 file /opt/miniconda3/envs/rsfff/share/psi4/basis/def2-svpd.gbs 


         ---------------------------------------------------------
                                   SCF
               by Justin Turney, Rob Parrish, Andy Simmonett
                          and Daniel G. A. Smith
                              RKS Reference
                       14 Threads,   7629 MiB Core
         ---------------------------------------------------------

  ==> Geometry <==

    Molecular point group: c1
    Geometry (in Angstrom), charge = -1, multiplicity = 1:

       Center              X                  Y                   Z               Mass       
    ------------   -----------------  -----------------  -----------------  -----------------
         H            0.000000000000     0.000000000000     0.000000000000     1.007825032230

  Running in c1 symmetry.

  Rotational constants: A = ************  B = ************  C = ************ [cm^-1]
  Rotational constants: A = ************  B = ************  C = ************ [MHz]
  Nuclear repulsion =    0.000000000000000

  Charge       = -1
  Multiplicity = 1
  Electrons    = 2
  Nalpha       = 1
  Nbeta        = 1

  ==> Algorithm <==

  SCF Algorithm Type is DF.
  DIIS enabled.
  MOM disabled.
  Fractional occupation disabled.
  Guess Type is CORE.
  Energy threshold   = 1.00e-09
  Density threshold  = 1.00e-09
  Integral threshold = 1.00e-12

  ==> Primary Basis <==

  Basis Set: DEF2-SVPD
    Blend: DEF2-SVPD
    Number of shells: 4
    Number of basis functions: 8
    Number of Cartesian functions: 8
    Spherical Harmonics?: true
    Max angular momentum: 1

  ==> DFT Potential <==

   => LibXC <=

    Version 7.0.0
    S. Lehtola, C. Steigemann, M. J.T. Oliveira, and M. A.L. Marques.,  SoftwareX 7, 1–5 (2018) (10.1016/j.softx.2017.11.002)

   => Composite Functional: B3LYP <= 

    B3LYP Hyb-GGA Exchange-Correlation Functional

    P. J. Stephens, F. J. Devlin, C. F. Chabalowski, and M. J. Frisch.,  J. Phys. Chem. 98, 11623 (1994) (10.1021/j100096a001)

    Deriv               =              1
    GGA                 =           TRUE
    Meta                =          FALSE

    Exchange Hybrid     =           TRUE
    MP2 Hybrid          =          FALSE

   => Exchange Functionals <=

    0.0800   Slater exchange
    0.7200         Becke 88

   => Exact (HF) Exchange <=

    0.2000               HF 

   => Correlation Functionals <=

    0.1900   Vosko, Wilk & Nusair (VWN5_RPA)
    0.8100   Lee, Yang & Parr

   => LibXC Density Thresholds  <==

    XC_HYB_GGA_XC_B3LYP:  1.00E-15 

   => Molecular Quadrature <=

    Radial Scheme          =       TREUTLER
    Pruning Scheme         =           NONE
    Nuclear Scheme         =       TREUTLER

    Blocking Scheme        =         OCTREE
    BS radius alpha        =              1
    Pruning alpha          =              1
    Radial Points          =             75
    Spherical Points       =            302
    Total Points           =          22348
    Total Blocks           =            213
    Max Points             =            252
    Max Functions          =              8
    Weights Tolerance      =       1.00E-15

   => Loading Basis Set <=

    Name: (DEF2-SVPD AUX)
    Role: JKFIT
    Keyword: DF_BASIS_SCF
    atoms 1 entry H          line    18 file /opt/miniconda3/envs/rsfff/share/psi4/basis/def2-universal-jkfit.gbs 

  ==> Integral Setup <==

  DFHelper Memory: AOs need 0.000 GiB; user supplied 5.583 GiB. 
  SCF_SUBTYPE=INCORE selected. In-core MEM_DF algorithm will be used.
  Using in-core AOs.

  ==> MemDFJK: Density-Fitted J/K Matrices <==

    J tasked:                   Yes
    K tasked:                   Yes
    wK tasked:                   No
    OpenMP threads:              14
    Memory [MiB]:              5716
    Algorithm:                 Core
    Schwarz Cutoff:           1E-12
    Mask sparsity (%):       0.0000
    Fitting Condition:        1E-10

   => Auxiliary Basis Set <=

  Basis Set: (DEF2-SVPD AUX)
    Blend: DEF2-UNIVERSAL-JKFIT
    Number of shells: 6
    Number of basis functions: 18
    Number of Cartesian functions: 20
    Spherical Harmonics?: true
    Max angular momentum: 2

  Cached 100.0% of DFT collocation blocks in 0.005 [GiB].

  Perturbing V by 0.001000 mu(z).
  Minimum eigenvalue in the overlap matrix is 3.1520017525E-01.
  Reciprocal condition number of the overlap matrix is 1.8708464390E-01.
    Using symmetric orthogonalization.

  ==> Pre-Iterations <==

  SCF Guess: Core (One-Electron) Hamiltonian.

   -------------------------------------------------------
    Irrep   Nso     Nmo     Nalpha   Nbeta   Ndocc  Nsocc
   -------------------------------------------------------
     A          8       8       1       1       1       0
   -------------------------------------------------------
    Total       8       8       1       1       1       0
   -------------------------------------------------------

  ==> Iterations <==

                           Total Energy        Delta E     RMS |[F,P]|

   @DF-RKS iter   1:    -0.41745943007112   -4.17459e-01   3.18547e-02 ADIIS/DIIS
   @DF-RKS iter   2:    -0.48236427711195   -6.49048e-02   9.40859e-03 ADIIS/DIIS
   @DF-RKS iter   3:    -0.48885785079468   -6.49357e-03   1.00884e-04 ADIIS/DIIS
   @DF-RKS iter   4:    -0.48885814568199   -2.94887e-07   7.74681e-05 DIIS
   @DF-RKS iter   5:    -0.48885857054834   -4.24866e-07   1.63711e-06 DIIS
   @DF-RKS iter   6:    -0.48885857073802   -1.89686e-10   3.89730e-08 DIIS
   @DF-RKS iter   7:    -0.48885857073813   -1.07525e-13   1.15977e-12 DIIS
  Energy and wave function converged.


  ==> Post-Iterations <==

   Electrons on quadrature grid:
      Ntotal   =    2.0000000000 ; deviation = 1.202e-11 

    Orbital Energies [Eh]
    ---------------------

    Doubly Occupied:                                                      

       1A      0.143353  

    Virtual:                                                              

       2A      0.441563     3A      0.441563     4A      0.441565  
       5A      0.852277     6A      2.058589     7A      2.058589  
       8A      2.058590  

    Final Occupation by Irrep:
              A 
    DOCC [     1 ]
    NA   [     1 ]
    NB   [     1 ]

  @DF-RKS Final Energy:    -0.48885857073813

   => Energetics <=

    Nuclear Repulsion Energy =              0.0000000000000000
    One-Electron Energy =                  -0.9463649395945801
    Two-Electron Energy =                   0.8956021463182835
    DFT Exchange-Correlation Energy =      -0.4380957774618322
    Empirical Dispersion Energy =           0.0000000000000000
    VV10 Nonlocal Energy =                  0.0000000000000000
    Total Energy =                         -0.4888585707381288

Computation Completed


Properties will be evaluated at   0.000000,   0.000000,   0.000000 [a0]

Properties computed using the SCF density matrix


 Multipole Moments:

 ------------------------------------------------------------------------------------
     Multipole            Electronic (a.u.)      Nuclear  (a.u.)        Total (a.u.)
 ------------------------------------------------------------------------------------

 L = 1.  Multiply by 2.5417464519 to convert [e a0] to [Debye]
 Dipole X            :          0.0000000            0.0000000            0.0000000
 Dipole Y            :         -0.0000000            0.0000000           -0.0000000
 Dipole Z            :         -0.0172698            0.0000000           -0.0172698
 Magnitude           :                                                    0.0172698

 ------------------------------------------------------------------------------------

*** tstop() called on PNNL-KM3X724WWL at Tue Jul 28 16:59:54 2026
Module time:
	user time   =       0.26 seconds =       0.00 minutes
	system time =       0.04 seconds =       0.00 minutes
	total time  =          0 seconds =       0.00 minutes
Total time:
	user time   =       2.10 seconds =       0.04 minutes
	system time =       0.56 seconds =       0.01 minutes
	total time  =          2 seconds =       0.03 minutes

Scratch directory: /tmp/
   => Libint2 <=

    Primary   basis highest AM E, G, H:  7, 6, 3
    Auxiliary basis highest AM E, G, H:  7, 7, 4
    Onebody   basis highest AM E, G, H:  -, -, -
    Solid Harmonics ordering:            Gaussian

*** tstart() called on PNNL-KM3X724WWL
*** at Tue Jul 28 16:59:54 2026

   => Loading Basis Set <=

    Name: DEF2-SVPD
    Role: ORBITAL
    Keyword: BASIS
    atoms 1 entry O          line   149 file /opt/miniconda3/envs/rsfff/share/psi4/basis/def2-svpd.gbs 


         ---------------------------------------------------------
                                   SCF
               by Justin Turney, Rob Parrish, Andy Simmonett
                          and Daniel G. A. Smith
                              UKS Reference
                       14 Threads,   7629 MiB Core
         ---------------------------------------------------------

  ==> Geometry <==

    Molecular point group: c1
    Geometry (in Angstrom), charge = 1, multiplicity = 4:

       Center              X                  Y                   Z               Mass       
    ------------   -----------------  -----------------  -----------------  -----------------
         O            0.000000000000     0.000000000000     0.000000000000    15.994914619570

  Running in c1 symmetry.

  Rotational constants: A = ************  B = ************  C = ************ [cm^-1]
  Rotational constants: A = ************  B = ************  C = ************ [MHz]
  Nuclear repulsion =    0.000000000000000

  Charge       = 1
  Multiplicity = 4
  Electrons    = 7
  Nalpha       = 5
  Nbeta        = 2

  ==> Algorithm <==

  SCF Algorithm Type is DF.
  DIIS enabled.
  MOM disabled.
  Fractional occupation disabled.
  Guess Type is CORE.
  Energy threshold   = 1.00e-09
  Density threshold  = 1.00e-09
  Integral threshold = 1.00e-12

  ==> Primary Basis <==

  Basis Set: DEF2-SVPD
    Blend: DEF2-SVPD
    Number of shells: 9
    Number of basis functions: 23
    Number of Cartesian functions: 25
    Spherical Harmonics?: true
    Max angular momentum: 2

  ==> DFT Potential <==

   => LibXC <=

    Version 7.0.0
    S. Lehtola, C. Steigemann, M. J.T. Oliveira, and M. A.L. Marques.,  SoftwareX 7, 1–5 (2018) (10.1016/j.softx.2017.11.002)

   => Composite Functional: B3LYP <= 

    B3LYP Hyb-GGA Exchange-Correlation Functional

    P. J. Stephens, F. J. Devlin, C. F. Chabalowski, and M. J. Frisch.,  J. Phys. Chem. 98, 11623 (1994) (10.1021/j100096a001)

    Deriv               =              1
    GGA                 =           TRUE
    Meta                =          FALSE

    Exchange Hybrid     =           TRUE
    MP2 Hybrid          =          FALSE

   => Exchange Functionals <=

    0.0800   Slater exchange
    0.7200         Becke 88

   => Exact (HF) Exchange <=

    0.2000               HF 

   => Correlation Functionals <=

    0.1900   Vosko, Wilk & Nusair (VWN5_RPA)
    0.8100   Lee, Yang & Parr

   => LibXC Density Thresholds  <==

    XC_HYB_GGA_XC_B3LYP:  1.00E-15 

   => Molecular Quadrature <=

    Radial Scheme          =       TREUTLER
    Pruning Scheme         =           NONE
    Nuclear Scheme         =       TREUTLER

    Blocking Scheme        =         OCTREE
    BS radius alpha        =              1
    Pruning alpha          =              1
    Radial Points          =             75
    Spherical Points       =            302
    Total Points           =          22348
    Total Blocks           =            224
    Max Points             =            252
    Max Functions          =             23
    Weights Tolerance      =       1.00E-15

   => Loading Basis Set <=

    Name: (DEF2-SVPD AUX)
    Role: JKFIT
    Keyword: DF_BASIS_SCF
    atoms 1 entry O          line   318 file /opt/miniconda3/envs/rsfff/share/psi4/basis/def2-universal-jkfit.gbs 

  ==> Integral Setup <==

  DFHelper Memory: AOs need 0.001 GiB; user supplied 5.573 GiB. 
  SCF_SUBTYPE=INCORE selected. In-core MEM_DF algorithm will be used.
  Using in-core AOs.

  ==> MemDFJK: Density-Fitted J/K Matrices <==

    J tasked:                   Yes
    K tasked:                   Yes
    wK tasked:                   No
    OpenMP threads:              14
    Memory [MiB]:              5707
    Algorithm:                 Core
    Schwarz Cutoff:           1E-12
    Mask sparsity (%):       0.0000
    Fitting Condition:        1E-10

   => Auxiliary Basis Set <=

  Basis Set: (DEF2-SVPD AUX)
    Blend: DEF2-UNIVERSAL-JKFIT
    Number of shells: 25
    Number of basis functions: 77
    Number of Cartesian functions: 93
    Spherical Harmonics?: true
    Max angular momentum: 4

  Cached 100.0% of DFT collocation blocks in 0.015 [GiB].

  Minimum eigenvalue in the overlap matrix is 8.0241971007E-02.
  Reciprocal condition number of the overlap matrix is 3.3278560532E-02.
    Using symmetric orthogonalization.

  ==> Pre-Iterations <==

  SCF Guess: Core (One-Electron) Hamiltonian.

   -------------------------------------------------------
    Irrep   Nso     Nmo     Nalpha   Nbeta   Ndocc  Nsocc
   -------------------------------------------------------
     A         23      23       5       2       2       3
   -------------------------------------------------------
    Total      23      23       5       2       2       3
   -------------------------------------------------------

  ==> Iterations <==

                           Total Energy        Delta E     RMS |[F,P]|

   @DF-UKS iter   1:   -72.99254708994853   -7.29925e+01   6.52852e-02 ADIIS/DIIS
   @DF-UKS iter   2:   -74.18537332565442   -1.19283e+00   3.65035e-02 ADIIS/DIIS
   @DF-UKS iter   3:   -74.47748367841980   -2.92110e-01   6.09121e-03 ADIIS/DIIS
   @DF-UKS iter   4:   -74.48605725169921   -8.57357e-03   2.36656e-05 DIIS
   @DF-UKS iter   5:   -74.48605747526268   -2.23563e-07   3.15258e-06 DIIS
   @DF-UKS iter   6:   -74.48605747826279   -3.00011e-09   3.75285e-08 DIIS
   @DF-UKS iter   7:   -74.48605747826332   -5.25802e-13   3.19216e-09 DIIS
   @DF-UKS iter   8:   -74.48605747826329    2.84217e-14   6.10467e-10 DIIS
  Energy and wave function converged.


  ==> Post-Iterations <==

   Electrons on quadrature grid:
      Nalpha   =    5.0000000000 ; deviation = -5.623e-12
      Nbeta    =    2.0000000000 ; deviation = -5.592e-12
      Ntotal   =    7.0000000000 ; deviation = -1.121e-11 

   @Spin Contamination Metric:   2.515464387E-03
   @S^2 Expected:                3.750000000E+00
   @S^2 Observed:                3.752515464E+00
   @S   Expected:                1.500000000E+00
   @S   Observed:                1.500000000E+00

    Orbital Energies [Eh]
    ---------------------

    Alpha Occupied:                                                       

       1A    -19.982117     2A     -1.617447     3A     -1.050694  
       4A     -1.050694     5A     -1.050694  

    Alpha Virtual:                                                        

       6A     -0.205638     7A     -0.125922     8A     -0.125922  
       9A     -0.125922    10A      0.101445    11A      0.101445  
      12A      0.101445    13A      0.101445    14A      0.101445  
      15A      0.554629    16A      0.554629    17A      0.554629  
      18A      0.628271    19A      2.080937    20A      2.080937  
      21A      2.080937    22A      2.080937    23A      2.080937  

    Beta Occupied:                                                        

       1A    -19.896392     2A     -1.367112  

    Beta Virtual:                                                         

       3A     -0.710462     4A     -0.710462     5A     -0.710462  
       6A     -0.187942     7A     -0.108922     8A     -0.108922  
       9A     -0.108922    10A      0.121351    11A      0.121351  
      12A      0.121351    13A      0.121351    14A      0.121351  
      15A      0.654464    16A      0.654464    17A      0.654464  
      18A      0.712875    19A      2.262864    20A      2.262864  
      21A      2.262864    22A      2.262864    23A      2.262864  

    Final Occupation by Irrep:
              A 
    DOCC [     2 ]
    SOCC [     3 ]
    NA   [     5 ]
    NB   [     2 ]

  @DF-UKS Final Energy:   -74.48605747826329

   => Energetics <=

    Nuclear Repulsion Energy =              0.0000000000000000
    One-Electron Energy =                 -98.2805327563696238
    Two-Electron Energy =                  30.3054818277641900
    DFT Exchange-Correlation Energy =      -6.5110065496578473
    Empirical Dispersion Energy =           0.0000000000000000
    VV10 Nonlocal Energy =                  0.0000000000000000
    Total Energy =                        -74.4860574782632909

  UHF NO Occupations:
  HONO-2 :    3  A 1.0000000
  HONO-1 :    4  A 1.0000000
  HONO-0 :    5  A 1.0000000
  LUNO+0 :    6  A 0.0012583
  LUNO+1 :    7  A 0.0000002
  LUNO+2 :    8  A 0.0000000
  LUNO+3 :    9  A 0.0000000


Computation Completed


Properties will be evaluated at   0.000000,   0.000000,   0.000000 [a0]

Properties computed using the SCF density matrix


 Multipole Moments:

 ------------------------------------------------------------------------------------
     Multipole            Electronic (a.u.)      Nuclear  (a.u.)        Total (a.u.)
 ------------------------------------------------------------------------------------

 L = 1.  Multiply by 2.5417464519 to convert [e a0] to [Debye]
 Dipole X            :          0.0000000            0.0000000            0.0000000
 Dipole Y            :          0.0000000            0.0000000            0.0000000
 Dipole Z            :          0.0000000            0.0000000            0.0000000
 Magnitude           :                                                    0.0000000

 ------------------------------------------------------------------------------------

*** tstop() called on PNNL-KM3X724WWL at Tue Jul 28 16:59:54 2026
Module time:
	user time   =       0.28 seconds =       0.00 minutes
	system time =       0.07 seconds =       0.00 minutes
	total time  =          0 seconds =       0.00 minutes
Total time:
	user time   =       2.39 seconds =       0.04 minutes
	system time =       0.63 seconds =       0.01 minutes
	total time  =          2 seconds =       0.03 minutes

Scratch directory: /tmp/
   => Libint2 <=

    Primary   basis highest AM E, G, H:  7, 6, 3
    Auxiliary basis highest AM E, G, H:  7, 7, 4
    Onebody   basis highest AM E, G, H:  -, -, -
    Solid Harmonics ordering:            Gaussian

*** tstart() called on PNNL-KM3X724WWL
*** at Tue Jul 28 16:59:54 2026

   => Loading Basis Set <=

    Name: DEF2-SVPD
    Role: ORBITAL
    Keyword: BASIS
    atoms 1 entry O          line   149 file /opt/miniconda3/envs/rsfff/share/psi4/basis/def2-svpd.gbs 


         ---------------------------------------------------------
                                   SCF
               by Justin Turney, Rob Parrish, Andy Simmonett
                          and Daniel G. A. Smith
                              UKS Reference
                       14 Threads,   7629 MiB Core
         ---------------------------------------------------------

  ==> Geometry <==

    Molecular point group: c1
    Geometry (in Angstrom), charge = 1, multiplicity = 4:

       Center              X                  Y                   Z               Mass       
    ------------   -----------------  -----------------  -----------------  -----------------
         O            0.000000000000     0.000000000000     0.000000000000    15.994914619570

  Running in c1 symmetry.

  Rotational constants: A = ************  B = ************  C = ************ [cm^-1]
  Rotational constants: A = ************  B = ************  C = ************ [MHz]
  Nuclear repulsion =    0.000000000000000

  Charge       = 1
  Multiplicity = 4
  Electrons    = 7
  Nalpha       = 5
  Nbeta        = 2

  ==> Algorithm <==

  SCF Algorithm Type is DF.
  DIIS enabled.
  MOM disabled.
  Fractional occupation disabled.
  Guess Type is CORE.
  Energy threshold   = 1.00e-09
  Density threshold  = 1.00e-09
  Integral threshold = 1.00e-12

  ==> Primary Basis <==

  Basis Set: DEF2-SVPD
    Blend: DEF2-SVPD
    Number of shells: 9
    Number of basis functions: 23
    Number of Cartesian functions: 25
    Spherical Harmonics?: true
    Max angular momentum: 2

  ==> DFT Potential <==

   => LibXC <=

    Version 7.0.0
    S. Lehtola, C. Steigemann, M. J.T. Oliveira, and M. A.L. Marques.,  SoftwareX 7, 1–5 (2018) (10.1016/j.softx.2017.11.002)

   => Composite Functional: B3LYP <= 

    B3LYP Hyb-GGA Exchange-Correlation Functional

    P. J. Stephens, F. J. Devlin, C. F. Chabalowski, and M. J. Frisch.,  J. Phys. Chem. 98, 11623 (1994) (10.1021/j100096a001)

    Deriv               =              1
    GGA                 =           TRUE
    Meta                =          FALSE

    Exchange Hybrid     =           TRUE
    MP2 Hybrid          =          FALSE

   => Exchange Functionals <=

    0.0800   Slater exchange
    0.7200         Becke 88

   => Exact (HF) Exchange <=

    0.2000               HF 

   => Correlation Functionals <=

    0.1900   Vosko, Wilk & Nusair (VWN5_RPA)
    0.8100   Lee, Yang & Parr

   => LibXC Density Thresholds  <==

    XC_HYB_GGA_XC_B3LYP:  1.00E-15 

   => Molecular Quadrature <=

    Radial Scheme          =       TREUTLER
    Pruning Scheme         =           NONE
    Nuclear Scheme         =       TREUTLER

    Blocking Scheme        =         OCTREE
    BS radius alpha        =              1
    Pruning alpha          =              1
    Radial Points          =             75
    Spherical Points       =            302
    Total Points           =          22348
    Total Blocks           =            224
    Max Points             =            252
    Max Functions          =             23
    Weights Tolerance      =       1.00E-15

   => Loading Basis Set <=

    Name: (DEF2-SVPD AUX)
    Role: JKFIT
    Keyword: DF_BASIS_SCF
    atoms 1 entry O          line   318 file /opt/miniconda3/envs/rsfff/share/psi4/basis/def2-universal-jkfit.gbs 

  ==> Integral Setup <==

  DFHelper Memory: AOs need 0.001 GiB; user supplied 5.573 GiB. 
  SCF_SUBTYPE=INCORE selected. In-core MEM_DF algorithm will be used.
  Using in-core AOs.

  ==> MemDFJK: Density-Fitted J/K Matrices <==

    J tasked:                   Yes
    K tasked:                   Yes
    wK tasked:                   No
    OpenMP threads:              14
    Memory [MiB]:              5707
    Algorithm:                 Core
    Schwarz Cutoff:           1E-12
    Mask sparsity (%):       0.0000
    Fitting Condition:        1E-10

   => Auxiliary Basis Set <=

  Basis Set: (DEF2-SVPD AUX)
    Blend: DEF2-UNIVERSAL-JKFIT
    Number of shells: 25
    Number of basis functions: 77
    Number of Cartesian functions: 93
    Spherical Harmonics?: true
    Max angular momentum: 4

  Cached 100.0% of DFT collocation blocks in 0.015 [GiB].

  Perturbing V by -0.001000 mu(x).
  Minimum eigenvalue in the overlap matrix is 8.0241971007E-02.
  Reciprocal condition number of the overlap matrix is 3.3278560532E-02.
    Using symmetric orthogonalization.

  ==> Pre-Iterations <==

  SCF Guess: Core (One-Electron) Hamiltonian.

   -------------------------------------------------------
    Irrep   Nso     Nmo     Nalpha   Nbeta   Ndocc  Nsocc
   -------------------------------------------------------
     A         23      23       5       2       2       3
   -------------------------------------------------------
    Total      23      23       5       2       2       3
   -------------------------------------------------------

  ==> Iterations <==

                           Total Energy        Delta E     RMS |[F,P]|

   @DF-UKS iter   1:   -72.99254337303942   -7.29925e+01   6.52853e-02 ADIIS/DIIS
   @DF-UKS iter   2:   -74.18536940966537   -1.19283e+00   3.65037e-02 ADIIS/DIIS
   @DF-UKS iter   3:   -74.47748452922104   -2.92115e-01   6.09136e-03 ADIIS/DIIS
   @DF-UKS iter   4:   -74.48605854105773   -8.57401e-03   2.38951e-05 DIIS
   @DF-UKS iter   5:   -74.48605877028861   -2.29231e-07   3.66131e-06 DIIS
   @DF-UKS iter   6:   -74.48605877375840   -3.46979e-09   5.60952e-07 DIIS
   @DF-UKS iter   7:   -74.48605877385397   -9.55680e-11   1.23232e-07 DIIS
   @DF-UKS iter   8:   -74.48605877385778   -3.80851e-12   1.34913e-08 DIIS
   @DF-UKS iter   9:   -74.48605877385782   -4.26326e-14   5.54678e-10 DIIS
  Energy and wave function converged.


  ==> Post-Iterations <==

   Electrons on quadrature grid:
      Nalpha   =    5.0000000000 ; deviation = -5.621e-12
      Nbeta    =    2.0000000000 ; deviation = -5.593e-12
      Ntotal   =    7.0000000000 ; deviation = -1.121e-11 

   @Spin Contamination Metric:   2.515462720E-03
   @S^2 Expected:                3.750000000E+00
   @S^2 Observed:                3.752515463E+00
   @S   Expected:                1.500000000E+00
   @S   Observed:                1.500000000E+00

    Orbital Energies [Eh]
    ---------------------

    Alpha Occupied:                                                       

       1A    -19.982118     2A     -1.617447     3A     -1.050695  
       4A     -1.050695     5A     -1.050695  

    Alpha Virtual:                                                        

       6A     -0.205676     7A     -0.125958     8A     -0.125958  
       9A     -0.125952    10A      0.101443    11A      0.101443  
      12A      0.101446    13A      0.101446    14A      0.101449  
      15A      0.554606    16A      0.554615    17A      0.554615  
      18A      0.628261    19A      2.080936    20A      2.080936  
      21A      2.080936    22A      2.080936    23A      2.080936  

    Beta Occupied:                                                        

       1A    -19.896393     2A     -1.367113  

    Beta Virtual:                                                         

       3A     -0.710463     4A     -0.710463     5A     -0.710463  
       6A     -0.187996     7A     -0.108927     8A     -0.108927  
       9A     -0.108877    10A      0.121350    11A      0.121350  
      12A      0.121356    13A      0.121356    14A      0.121358  
      15A      0.654443    16A      0.654463    17A      0.654463  
      18A      0.712896    19A      2.262864    20A      2.262864  
      21A      2.262864    22A      2.262864    23A      2.262864  

    Final Occupation by Irrep:
              A 
    DOCC [     2 ]
    SOCC [     3 ]
    NA   [     5 ]
    NB   [     2 ]

  @DF-UKS Final Energy:   -74.48605877385782

   => Energetics <=

    Nuclear Repulsion Energy =              0.0000000000000000
    One-Electron Energy =                 -98.2805301378771361
    Two-Electron Energy =                  30.3054774358813859
    DFT Exchange-Correlation Energy =      -6.5110060718620728
    Empirical Dispersion Energy =           0.0000000000000000
    VV10 Nonlocal Energy =                  0.0000000000000000
    Total Energy =                        -74.4860587738578204

  UHF NO Occupations:
  HONO-2 :    3  A 1.0000000
  HONO-1 :    4  A 1.0000000
  HONO-0 :    5  A 1.0000000
  LUNO+0 :    6  A 0.0012583
  LUNO+1 :    7  A 0.0000002
  LUNO+2 :    8  A 0.0000000
  LUNO+3 :    9  A 0.0000000


Computation Completed


Properties will be evaluated at   0.000000,   0.000000,   0.000000 [a0]

Properties computed using the SCF density matrix


 Multipole Moments:

 ------------------------------------------------------------------------------------
     Multipole            Electronic (a.u.)      Nuclear  (a.u.)        Total (a.u.)
 ------------------------------------------------------------------------------------

 L = 1.  Multiply by 2.5417464519 to convert [e a0] to [Debye]
 Dipole X            :          0.0025900            0.0000000            0.0025900
 Dipole Y            :         -0.0000000            0.0000000           -0.0000000
 Dipole Z            :          0.0000000            0.0000000            0.0000000
 Magnitude           :                                                    0.0025900

 ------------------------------------------------------------------------------------

*** tstop() called on PNNL-KM3X724WWL at Tue Jul 28 16:59:54 2026
Module time:
	user time   =       0.32 seconds =       0.01 minutes
	system time =       0.07 seconds =       0.00 minutes
	total time  =          0 seconds =       0.00 minutes
Total time:
	user time   =       2.73 seconds =       0.05 minutes
	system time =       0.70 seconds =       0.01 minutes
	total time  =          2 seconds =       0.03 minutes

Scratch directory: /tmp/
   => Libint2 <=

    Primary   basis highest AM E, G, H:  7, 6, 3
    Auxiliary basis highest AM E, G, H:  7, 7, 4
    Onebody   basis highest AM E, G, H:  -, -, -
    Solid Harmonics ordering:            Gaussian

*** tstart() called on PNNL-KM3X724WWL
*** at Tue Jul 28 16:59:54 2026

   => Loading Basis Set <=

    Name: DEF2-SVPD
    Role: ORBITAL
    Keyword: BASIS
    atoms 1 entry O          line   149 file /opt/miniconda3/envs/rsfff/share/psi4/basis/def2-svpd.gbs 


         ---------------------------------------------------------
                                   SCF
               by Justin Turney, Rob Parrish, Andy Simmonett
                          and Daniel G. A. Smith
                              UKS Reference
                       14 Threads,   7629 MiB Core
         ---------------------------------------------------------

  ==> Geometry <==

    Molecular point group: c1
    Geometry (in Angstrom), charge = 1, multiplicity = 4:

       Center              X                  Y                   Z               Mass       
    ------------   -----------------  -----------------  -----------------  -----------------
         O            0.000000000000     0.000000000000     0.000000000000    15.994914619570

  Running in c1 symmetry.

  Rotational constants: A = ************  B = ************  C = ************ [cm^-1]
  Rotational constants: A = ************  B = ************  C = ************ [MHz]
  Nuclear repulsion =    0.000000000000000

  Charge       = 1
  Multiplicity = 4
  Electrons    = 7
  Nalpha       = 5
  Nbeta        = 2

  ==> Algorithm <==

  SCF Algorithm Type is DF.
  DIIS enabled.
  MOM disabled.
  Fractional occupation disabled.
  Guess Type is CORE.
  Energy threshold   = 1.00e-09
  Density threshold  = 1.00e-09
  Integral threshold = 1.00e-12

  ==> Primary Basis <==

  Basis Set: DEF2-SVPD
    Blend: DEF2-SVPD
    Number of shells: 9
    Number of basis functions: 23
    Number of Cartesian functions: 25
    Spherical Harmonics?: true
    Max angular momentum: 2

  ==> DFT Potential <==

   => LibXC <=

    Version 7.0.0
    S. Lehtola, C. Steigemann, M. J.T. Oliveira, and M. A.L. Marques.,  SoftwareX 7, 1–5 (2018) (10.1016/j.softx.2017.11.002)

   => Composite Functional: B3LYP <= 

    B3LYP Hyb-GGA Exchange-Correlation Functional

    P. J. Stephens, F. J. Devlin, C. F. Chabalowski, and M. J. Frisch.,  J. Phys. Chem. 98, 11623 (1994) (10.1021/j100096a001)

    Deriv               =              1
    GGA                 =           TRUE
    Meta                =          FALSE

    Exchange Hybrid     =           TRUE
    MP2 Hybrid          =          FALSE

   => Exchange Functionals <=

    0.0800   Slater exchange
    0.7200         Becke 88

   => Exact (HF) Exchange <=

    0.2000               HF 

   => Correlation Functionals <=

    0.1900   Vosko, Wilk & Nusair (VWN5_RPA)
    0.8100   Lee, Yang & Parr

   => LibXC Density Thresholds  <==

    XC_HYB_GGA_XC_B3LYP:  1.00E-15 

   => Molecular Quadrature <=

    Radial Scheme          =       TREUTLER
    Pruning Scheme         =           NONE
    Nuclear Scheme         =       TREUTLER

    Blocking Scheme        =         OCTREE
    BS radius alpha        =              1
    Pruning alpha          =              1
    Radial Points          =             75
    Spherical Points       =            302
    Total Points           =          22348
    Total Blocks           =            224
    Max Points             =            252
    Max Functions          =             23
    Weights Tolerance      =       1.00E-15

   => Loading Basis Set <=

    Name: (DEF2-SVPD AUX)
    Role: JKFIT
    Keyword: DF_BASIS_SCF
    atoms 1 entry O          line   318 file /opt/miniconda3/envs/rsfff/share/psi4/basis/def2-universal-jkfit.gbs 

  ==> Integral Setup <==

  DFHelper Memory: AOs need 0.001 GiB; user supplied 5.573 GiB. 
  SCF_SUBTYPE=INCORE selected. In-core MEM_DF algorithm will be used.
  Using in-core AOs.

  ==> MemDFJK: Density-Fitted J/K Matrices <==

    J tasked:                   Yes
    K tasked:                   Yes
    wK tasked:                   No
    OpenMP threads:              14
    Memory [MiB]:              5707
    Algorithm:                 Core
    Schwarz Cutoff:           1E-12
    Mask sparsity (%):       0.0000
    Fitting Condition:        1E-10

   => Auxiliary Basis Set <=

  Basis Set: (DEF2-SVPD AUX)
    Blend: DEF2-UNIVERSAL-JKFIT
    Number of shells: 25
    Number of basis functions: 77
    Number of Cartesian functions: 93
    Spherical Harmonics?: true
    Max angular momentum: 4

  Cached 100.0% of DFT collocation blocks in 0.015 [GiB].

  Perturbing V by 0.001000 mu(x).
  Minimum eigenvalue in the overlap matrix is 8.0241971007E-02.
  Reciprocal condition number of the overlap matrix is 3.3278560532E-02.
    Using symmetric orthogonalization.

  ==> Pre-Iterations <==

  SCF Guess: Core (One-Electron) Hamiltonian.

   -------------------------------------------------------
    Irrep   Nso     Nmo     Nalpha   Nbeta   Ndocc  Nsocc
   -------------------------------------------------------
     A         23      23       5       2       2       3
   -------------------------------------------------------
    Total      23      23       5       2       2       3
   -------------------------------------------------------

  ==> Iterations <==

                           Total Energy        Delta E     RMS |[F,P]|

   @DF-UKS iter   1:   -72.99254337303942   -7.29925e+01   6.52853e-02 ADIIS/DIIS
   @DF-UKS iter   2:   -74.18536940966544   -1.19283e+00   3.65037e-02 ADIIS/DIIS
   @DF-UKS iter   3:   -74.47748452922107   -2.92115e-01   6.09136e-03 ADIIS/DIIS
   @DF-UKS iter   4:   -74.48605854105782   -8.57401e-03   2.38951e-05 DIIS
   @DF-UKS iter   5:   -74.48605877028866   -2.29231e-07   3.66131e-06 DIIS
   @DF-UKS iter   6:   -74.48605877375843   -3.46976e-09   5.60952e-07 DIIS
   @DF-UKS iter   7:   -74.48605877385401   -9.55822e-11   1.23232e-07 DIIS
   @DF-UKS iter   8:   -74.48605877385781   -3.79430e-12   1.34913e-08 DIIS
   @DF-UKS iter   9:   -74.48605877385779    1.42109e-14   5.54678e-10 DIIS
  Energy and wave function converged.


  ==> Post-Iterations <==

   Electrons on quadrature grid:
      Nalpha   =    5.0000000000 ; deviation = -5.622e-12
      Nbeta    =    2.0000000000 ; deviation = -5.592e-12
      Ntotal   =    7.0000000000 ; deviation = -1.121e-11 

   @Spin Contamination Metric:   2.515462720E-03
   @S^2 Expected:                3.750000000E+00
   @S^2 Observed:                3.752515463E+00
   @S   Expected:                1.500000000E+00
   @S   Observed:                1.500000000E+00

    Orbital Energies [Eh]
    ---------------------

    Alpha Occupied:                                                       

       1A    -19.982118     2A     -1.617447     3A     -1.050695  
       4A     -1.050695     5A     -1.050695  

    Alpha Virtual:                                                        

       6A     -0.205676     7A     -0.125958     8A     -0.125958  
       9A     -0.125952    10A      0.101443    11A      0.101443  
      12A      0.101446    13A      0.101446    14A      0.101449  
      15A      0.554606    16A      0.554615    17A      0.554615  
      18A      0.628261    19A      2.080936    20A      2.080936  
      21A      2.080936    22A      2.080936    23A      2.080936  

    Beta Occupied:                                                        

       1A    -19.896393     2A     -1.367113  

    Beta Virtual:                                                         

       3A     -0.710463     4A     -0.710463     5A     -0.710463  
       6A     -0.187996     7A     -0.108927     8A     -0.108927  
       9A     -0.108877    10A      0.121350    11A      0.121350  
      12A      0.121356    13A      0.121356    14A      0.121358  
      15A      0.654443    16A      0.654463    17A      0.654463  
      18A      0.712896    19A      2.262864    20A      2.262864  
      21A      2.262864    22A      2.262864    23A      2.262864  

    Final Occupation by Irrep:
              A 
    DOCC [     2 ]
    SOCC [     3 ]
    NA   [     5 ]
    NB   [     2 ]

  @DF-UKS Final Energy:   -74.48605877385779

   => Energetics <=

    Nuclear Repulsion Energy =              0.0000000000000000
    One-Electron Energy =                 -98.2805301378771219
    Two-Electron Energy =                  30.3054774358813965
    DFT Exchange-Correlation Energy =      -6.5110060718620728
    Empirical Dispersion Energy =           0.0000000000000000
    VV10 Nonlocal Energy =                  0.0000000000000000
    Total Energy =                        -74.4860587738577919

  UHF NO Occupations:
  HONO-2 :    3  A 1.0000000
  HONO-1 :    5  A 1.0000000
  HONO-0 :    4  A 1.0000000
  LUNO+0 :    6  A 0.0012583
  LUNO+1 :    7  A 0.0000002
  LUNO+2 :    8  A 0.0000000
  LUNO+3 :    9  A 0.0000000


Computation Completed


Properties will be evaluated at   0.000000,   0.000000,   0.000000 [a0]

Properties computed using the SCF density matrix


 Multipole Moments:

 ------------------------------------------------------------------------------------
     Multipole            Electronic (a.u.)      Nuclear  (a.u.)        Total (a.u.)
 ------------------------------------------------------------------------------------

 L = 1.  Multiply by 2.5417464519 to convert [e a0] to [Debye]
 Dipole X            :         -0.0025900            0.0000000           -0.0025900
 Dipole Y            :         -0.0000000            0.0000000           -0.0000000
 Dipole Z            :          0.0000000            0.0000000            0.0000000
 Magnitude           :                                                    0.0025900

 ------------------------------------------------------------------------------------

*** tstop() called on PNNL-KM3X724WWL at Tue Jul 28 16:59:54 2026
Module time:
	user time   =       0.32 seconds =       0.01 minutes
	system time =       0.07 seconds =       0.00 minutes
	total time  =          0 seconds =       0.00 minutes
Total time:
	user time   =       3.07 seconds =       0.05 minutes
	system time =       0.77 seconds =       0.01 minutes
	total time  =          2 seconds =       0.03 minutes

Scratch directory: /tmp/
   => Libint2 <=

    Primary   basis highest AM E, G, H:  7, 6, 3
    Auxiliary basis highest AM E, G, H:  7, 7, 4
    Onebody   basis highest AM E, G, H:  -, -, -
    Solid Harmonics ordering:            Gaussian

*** tstart() called on PNNL-KM3X724WWL
*** at Tue Jul 28 16:59:54 2026

   => Loading Basis Set <=

    Name: DEF2-SVPD
    Role: ORBITAL
    Keyword: BASIS
    atoms 1 entry O          line   149 file /opt/miniconda3/envs/rsfff/share/psi4/basis/def2-svpd.gbs 


         ---------------------------------------------------------
                                   SCF
               by Justin Turney, Rob Parrish, Andy Simmonett
                          and Daniel G. A. Smith
                              UKS Reference
                       14 Threads,   7629 MiB Core
         ---------------------------------------------------------

  ==> Geometry <==

    Molecular point group: c1
    Geometry (in Angstrom), charge = 1, multiplicity = 4:

       Center              X                  Y                   Z               Mass       
    ------------   -----------------  -----------------  -----------------  -----------------
         O            0.000000000000     0.000000000000     0.000000000000    15.994914619570

  Running in c1 symmetry.

  Rotational constants: A = ************  B = ************  C = ************ [cm^-1]
  Rotational constants: A = ************  B = ************  C = ************ [MHz]
  Nuclear repulsion =    0.000000000000000

  Charge       = 1
  Multiplicity = 4
  Electrons    = 7
  Nalpha       = 5
  Nbeta        = 2

  ==> Algorithm <==

  SCF Algorithm Type is DF.
  DIIS enabled.
  MOM disabled.
  Fractional occupation disabled.
  Guess Type is CORE.
  Energy threshold   = 1.00e-09
  Density threshold  = 1.00e-09
  Integral threshold = 1.00e-12

  ==> Primary Basis <==

  Basis Set: DEF2-SVPD
    Blend: DEF2-SVPD
    Number of shells: 9
    Number of basis functions: 23
    Number of Cartesian functions: 25
    Spherical Harmonics?: true
    Max angular momentum: 2

  ==> DFT Potential <==

   => LibXC <=

    Version 7.0.0
    S. Lehtola, C. Steigemann, M. J.T. Oliveira, and M. A.L. Marques.,  SoftwareX 7, 1–5 (2018) (10.1016/j.softx.2017.11.002)

   => Composite Functional: B3LYP <= 

    B3LYP Hyb-GGA Exchange-Correlation Functional

    P. J. Stephens, F. J. Devlin, C. F. Chabalowski, and M. J. Frisch.,  J. Phys. Chem. 98, 11623 (1994) (10.1021/j100096a001)

    Deriv               =              1
    GGA                 =           TRUE
    Meta                =          FALSE

    Exchange Hybrid     =           TRUE
    MP2 Hybrid          =          FALSE

   => Exchange Functionals <=

    0.0800   Slater exchange
    0.7200         Becke 88

   => Exact (HF) Exchange <=

    0.2000               HF 

   => Correlation Functionals <=

    0.1900   Vosko, Wilk & Nusair (VWN5_RPA)
    0.8100   Lee, Yang & Parr

   => LibXC Density Thresholds  <==

    XC_HYB_GGA_XC_B3LYP:  1.00E-15 

   => Molecular Quadrature <=

    Radial Scheme          =       TREUTLER
    Pruning Scheme         =           NONE
    Nuclear Scheme         =       TREUTLER

    Blocking Scheme        =         OCTREE
    BS radius alpha        =              1
    Pruning alpha          =              1
    Radial Points          =             75
    Spherical Points       =            302
    Total Points           =          22348
    Total Blocks           =            224
    Max Points             =            252
    Max Functions          =             23
    Weights Tolerance      =       1.00E-15

   => Loading Basis Set <=

    Name: (DEF2-SVPD AUX)
    Role: JKFIT
    Keyword: DF_BASIS_SCF
    atoms 1 entry O          line   318 file /opt/miniconda3/envs/rsfff/share/psi4/basis/def2-universal-jkfit.gbs 

  ==> Integral Setup <==

  DFHelper Memory: AOs need 0.001 GiB; user supplied 5.573 GiB. 
  SCF_SUBTYPE=INCORE selected. In-core MEM_DF algorithm will be used.
  Using in-core AOs.

  ==> MemDFJK: Density-Fitted J/K Matrices <==

    J tasked:                   Yes
    K tasked:                   Yes
    wK tasked:                   No
    OpenMP threads:              14
    Memory [MiB]:              5707
    Algorithm:                 Core
    Schwarz Cutoff:           1E-12
    Mask sparsity (%):       0.0000
    Fitting Condition:        1E-10

   => Auxiliary Basis Set <=

  Basis Set: (DEF2-SVPD AUX)
    Blend: DEF2-UNIVERSAL-JKFIT
    Number of shells: 25
    Number of basis functions: 77
    Number of Cartesian functions: 93
    Spherical Harmonics?: true
    Max angular momentum: 4

  Cached 100.0% of DFT collocation blocks in 0.015 [GiB].

  Perturbing V by -0.001000 mu(y).
  Minimum eigenvalue in the overlap matrix is 8.0241971007E-02.
  Reciprocal condition number of the overlap matrix is 3.3278560532E-02.
    Using symmetric orthogonalization.

  ==> Pre-Iterations <==

  SCF Guess: Core (One-Electron) Hamiltonian.

   -------------------------------------------------------
    Irrep   Nso     Nmo     Nalpha   Nbeta   Ndocc  Nsocc
   -------------------------------------------------------
     A         23      23       5       2       2       3
   -------------------------------------------------------
    Total      23      23       5       2       2       3
   -------------------------------------------------------

  ==> Iterations <==

                           Total Energy        Delta E     RMS |[F,P]|

   @DF-UKS iter   1:   -72.99254337303938   -7.29925e+01   6.52853e-02 ADIIS/DIIS
   @DF-UKS iter   2:   -74.18536940966533   -1.19283e+00   3.65037e-02 ADIIS/DIIS
   @DF-UKS iter   3:   -74.47748452922107   -2.92115e-01   6.09136e-03 ADIIS/DIIS
   @DF-UKS iter   4:   -74.48605854105773   -8.57401e-03   2.38951e-05 DIIS
   @DF-UKS iter   5:   -74.48605877028864   -2.29231e-07   3.66131e-06 DIIS
   @DF-UKS iter   6:   -74.48605877375836   -3.46972e-09   5.60952e-07 DIIS
   @DF-UKS iter   7:   -74.48605877385397   -9.56106e-11   1.23232e-07 DIIS
   @DF-UKS iter   8:   -74.48605877385782   -3.85114e-12   1.34913e-08 DIIS
   @DF-UKS iter   9:   -74.48605877385781    1.42109e-14   5.54678e-10 DIIS
  Energy and wave function converged.


  ==> Post-Iterations <==

   Electrons on quadrature grid:
      Nalpha   =    5.0000000000 ; deviation = -5.625e-12
      Nbeta    =    2.0000000000 ; deviation = -5.591e-12
      Ntotal   =    7.0000000000 ; deviation = -1.122e-11 

   @Spin Contamination Metric:   2.515462720E-03
   @S^2 Expected:                3.750000000E+00
   @S^2 Observed:                3.752515463E+00
   @S   Expected:                1.500000000E+00
   @S   Observed:                1.500000000E+00

    Orbital Energies [Eh]
    ---------------------

    Alpha Occupied:                                                       

       1A    -19.982118     2A     -1.617447     3A     -1.050695  
       4A     -1.050695     5A     -1.050695  

    Alpha Virtual:                                                        

       6A     -0.205676     7A     -0.125958     8A     -0.125958  
       9A     -0.125952    10A      0.101443    11A      0.101443  
      12A      0.101446    13A      0.101446    14A      0.101449  
      15A      0.554606    16A      0.554615    17A      0.554615  
      18A      0.628261    19A      2.080936    20A      2.080936  
      21A      2.080936    22A      2.080936    23A      2.080936  

    Beta Occupied:                                                        

       1A    -19.896393     2A     -1.367113  

    Beta Virtual:                                                         

       3A     -0.710463     4A     -0.710463     5A     -0.710463  
       6A     -0.187996     7A     -0.108927     8A     -0.108927  
       9A     -0.108877    10A      0.121350    11A      0.121350  
      12A      0.121356    13A      0.121356    14A      0.121358  
      15A      0.654443    16A      0.654463    17A      0.654463  
      18A      0.712896    19A      2.262864    20A      2.262864  
      21A      2.262864    22A      2.262864    23A      2.262864  

    Final Occupation by Irrep:
              A 
    DOCC [     2 ]
    SOCC [     3 ]
    NA   [     5 ]
    NB   [     2 ]

  @DF-UKS Final Energy:   -74.48605877385781

   => Energetics <=

    Nuclear Repulsion Energy =              0.0000000000000000
    One-Electron Energy =                 -98.2805301378771361
    Two-Electron Energy =                  30.3054774358814001
    DFT Exchange-Correlation Energy =      -6.5110060718620746
    Empirical Dispersion Energy =           0.0000000000000000
    VV10 Nonlocal Energy =                  0.0000000000000000
    Total Energy =                        -74.4860587738578062

  UHF NO Occupations:
  HONO-2 :    3  A 1.0000000
  HONO-1 :    4  A 1.0000000
  HONO-0 :    5  A 1.0000000
  LUNO+0 :    6  A 0.0012583
  LUNO+1 :    7  A 0.0000002
  LUNO+2 :    8  A 0.0000000
  LUNO+3 :    9  A 0.0000000


Computation Completed


Properties will be evaluated at   0.000000,   0.000000,   0.000000 [a0]

Properties computed using the SCF density matrix


 Multipole Moments:

 ------------------------------------------------------------------------------------
     Multipole            Electronic (a.u.)      Nuclear  (a.u.)        Total (a.u.)
 ------------------------------------------------------------------------------------

 L = 1.  Multiply by 2.5417464519 to convert [e a0] to [Debye]
 Dipole X            :         -0.0000000            0.0000000           -0.0000000
 Dipole Y            :          0.0025900            0.0000000            0.0025900
 Dipole Z            :          0.0000000            0.0000000            0.0000000
 Magnitude           :                                                    0.0025900

 ------------------------------------------------------------------------------------

*** tstop() called on PNNL-KM3X724WWL at Tue Jul 28 16:59:54 2026
Module time:
	user time   =       0.32 seconds =       0.01 minutes
	system time =       0.07 seconds =       0.00 minutes
	total time  =          0 seconds =       0.00 minutes
Total time:
	user time   =       3.41 seconds =       0.06 minutes
	system time =       0.84 seconds =       0.01 minutes
	total time  =          2 seconds =       0.03 minutes

Scratch directory: /tmp/
   => Libint2 <=

    Primary   basis highest AM E, G, H:  7, 6, 3
    Auxiliary basis highest AM E, G, H:  7, 7, 4
    Onebody   basis highest AM E, G, H:  -, -, -
    Solid Harmonics ordering:            Gaussian

*** tstart() called on PNNL-KM3X724WWL
*** at Tue Jul 28 16:59:54 2026

   => Loading Basis Set <=

    Name: DEF2-SVPD
    Role: ORBITAL
    Keyword: BASIS
    atoms 1 entry O          line   149 file /opt/miniconda3/envs/rsfff/share/psi4/basis/def2-svpd.gbs 


         ---------------------------------------------------------
                                   SCF
               by Justin Turney, Rob Parrish, Andy Simmonett
                          and Daniel G. A. Smith
                              UKS Reference
                       14 Threads,   7629 MiB Core
         ---------------------------------------------------------

  ==> Geometry <==

    Molecular point group: c1
    Geometry (in Angstrom), charge = 1, multiplicity = 4:

       Center              X                  Y                   Z               Mass       
    ------------   -----------------  -----------------  -----------------  -----------------
         O            0.000000000000     0.000000000000     0.000000000000    15.994914619570

  Running in c1 symmetry.

  Rotational constants: A = ************  B = ************  C = ************ [cm^-1]
  Rotational constants: A = ************  B = ************  C = ************ [MHz]
  Nuclear repulsion =    0.000000000000000

  Charge       = 1
  Multiplicity = 4
  Electrons    = 7
  Nalpha       = 5
  Nbeta        = 2

  ==> Algorithm <==

  SCF Algorithm Type is DF.
  DIIS enabled.
  MOM disabled.
  Fractional occupation disabled.
  Guess Type is CORE.
  Energy threshold   = 1.00e-09
  Density threshold  = 1.00e-09
  Integral threshold = 1.00e-12

  ==> Primary Basis <==

  Basis Set: DEF2-SVPD
    Blend: DEF2-SVPD
    Number of shells: 9
    Number of basis functions: 23
    Number of Cartesian functions: 25
    Spherical Harmonics?: true
    Max angular momentum: 2

  ==> DFT Potential <==

   => LibXC <=

    Version 7.0.0
    S. Lehtola, C. Steigemann, M. J.T. Oliveira, and M. A.L. Marques.,  SoftwareX 7, 1–5 (2018) (10.1016/j.softx.2017.11.002)

   => Composite Functional: B3LYP <= 

    B3LYP Hyb-GGA Exchange-Correlation Functional

    P. J. Stephens, F. J. Devlin, C. F. Chabalowski, and M. J. Frisch.,  J. Phys. Chem. 98, 11623 (1994) (10.1021/j100096a001)

    Deriv               =              1
    GGA                 =           TRUE
    Meta                =          FALSE

    Exchange Hybrid     =           TRUE
    MP2 Hybrid          =          FALSE

   => Exchange Functionals <=

    0.0800   Slater exchange
    0.7200         Becke 88

   => Exact (HF) Exchange <=

    0.2000               HF 

   => Correlation Functionals <=

    0.1900   Vosko, Wilk & Nusair (VWN5_RPA)
    0.8100   Lee, Yang & Parr

   => LibXC Density Thresholds  <==

    XC_HYB_GGA_XC_B3LYP:  1.00E-15 

   => Molecular Quadrature <=

    Radial Scheme          =       TREUTLER
    Pruning Scheme         =           NONE
    Nuclear Scheme         =       TREUTLER

    Blocking Scheme        =         OCTREE
    BS radius alpha        =              1
    Pruning alpha          =              1
    Radial Points          =             75
    Spherical Points       =            302
    Total Points           =          22348
    Total Blocks           =            224
    Max Points             =            252
    Max Functions          =             23
    Weights Tolerance      =       1.00E-15

   => Loading Basis Set <=

    Name: (DEF2-SVPD AUX)
    Role: JKFIT
    Keyword: DF_BASIS_SCF
    atoms 1 entry O          line   318 file /opt/miniconda3/envs/rsfff/share/psi4/basis/def2-universal-jkfit.gbs 

  ==> Integral Setup <==

  DFHelper Memory: AOs need 0.001 GiB; user supplied 5.573 GiB. 
  SCF_SUBTYPE=INCORE selected. In-core MEM_DF algorithm will be used.
  Using in-core AOs.

  ==> MemDFJK: Density-Fitted J/K Matrices <==

    J tasked:                   Yes
    K tasked:                   Yes
    wK tasked:                   No
    OpenMP threads:              14
    Memory [MiB]:              5707
    Algorithm:                 Core
    Schwarz Cutoff:           1E-12
    Mask sparsity (%):       0.0000
    Fitting Condition:        1E-10

   => Auxiliary Basis Set <=

  Basis Set: (DEF2-SVPD AUX)
    Blend: DEF2-UNIVERSAL-JKFIT
    Number of shells: 25
    Number of basis functions: 77
    Number of Cartesian functions: 93
    Spherical Harmonics?: true
    Max angular momentum: 4

  Cached 100.0% of DFT collocation blocks in 0.015 [GiB].

  Perturbing V by 0.001000 mu(y).
  Minimum eigenvalue in the overlap matrix is 8.0241971007E-02.
  Reciprocal condition number of the overlap matrix is 3.3278560532E-02.
    Using symmetric orthogonalization.

  ==> Pre-Iterations <==

  SCF Guess: Core (One-Electron) Hamiltonian.

   -------------------------------------------------------
    Irrep   Nso     Nmo     Nalpha   Nbeta   Ndocc  Nsocc
   -------------------------------------------------------
     A         23      23       5       2       2       3
   -------------------------------------------------------
    Total      23      23       5       2       2       3
   -------------------------------------------------------

  ==> Iterations <==

                           Total Energy        Delta E     RMS |[F,P]|

   @DF-UKS iter   1:   -72.99254337303947   -7.29925e+01   6.52853e-02 ADIIS/DIIS
   @DF-UKS iter   2:   -74.18536940966540   -1.19283e+00   3.65037e-02 ADIIS/DIIS
   @DF-UKS iter   3:   -74.47748452922107   -2.92115e-01   6.09136e-03 ADIIS/DIIS
   @DF-UKS iter   4:   -74.48605854105770   -8.57401e-03   2.38951e-05 DIIS
   @DF-UKS iter   5:   -74.48605877028864   -2.29231e-07   3.66131e-06 DIIS
   @DF-UKS iter   6:   -74.48605877375836   -3.46972e-09   5.60952e-07 DIIS
   @DF-UKS iter   7:   -74.48605877385397   -9.56106e-11   1.23232e-07 DIIS
   @DF-UKS iter   8:   -74.48605877385774   -3.76588e-12   1.34913e-08 DIIS
   @DF-UKS iter   9:   -74.48605877385779   -5.68434e-14   5.54678e-10 DIIS
  Energy and wave function converged.


  ==> Post-Iterations <==

   Electrons on quadrature grid:
      Nalpha   =    5.0000000000 ; deviation = -5.625e-12
      Nbeta    =    2.0000000000 ; deviation = -5.591e-12
      Ntotal   =    7.0000000000 ; deviation = -1.122e-11 

   @Spin Contamination Metric:   2.515462720E-03
   @S^2 Expected:                3.750000000E+00
   @S^2 Observed:                3.752515463E+00
   @S   Expected:                1.500000000E+00
   @S   Observed:                1.500000000E+00

    Orbital Energies [Eh]
    ---------------------

    Alpha Occupied:                                                       

       1A    -19.982118     2A     -1.617447     3A     -1.050695  
       4A     -1.050695     5A     -1.050695  

    Alpha Virtual:                                                        

       6A     -0.205676     7A     -0.125958     8A     -0.125958  
       9A     -0.125952    10A      0.101443    11A      0.101443  
      12A      0.101446    13A      0.101446    14A      0.101449  
      15A      0.554606    16A      0.554615    17A      0.554615  
      18A      0.628261    19A      2.080936    20A      2.080936  
      21A      2.080936    22A      2.080936    23A      2.080936  

    Beta Occupied:                                                        

       1A    -19.896393     2A     -1.367113  

    Beta Virtual:                                                         

       3A     -0.710463     4A     -0.710463     5A     -0.710463  
       6A     -0.187996     7A     -0.108927     8A     -0.108927  
       9A     -0.108877    10A      0.121350    11A      0.121350  
      12A      0.121356    13A      0.121356    14A      0.121358  
      15A      0.654443    16A      0.654463    17A      0.654463  
      18A      0.712896    19A      2.262864    20A      2.262864  
      21A      2.262864    22A      2.262864    23A      2.262864  

    Final Occupation by Irrep:
              A 
    DOCC [     2 ]
    SOCC [     3 ]
    NA   [     5 ]
    NB   [     2 ]

  @DF-UKS Final Energy:   -74.48605877385779

   => Energetics <=

    Nuclear Repulsion Energy =              0.0000000000000000
    One-Electron Energy =                 -98.2805301378770935
    Two-Electron Energy =                  30.3054774358813717
    DFT Exchange-Correlation Energy =      -6.5110060718620684
    Empirical Dispersion Energy =           0.0000000000000000
    VV10 Nonlocal Energy =                  0.0000000000000000
    Total Energy =                        -74.4860587738577919

  UHF NO Occupations:
  HONO-2 :    3  A 1.0000000
  HONO-1 :    4  A 1.0000000
  HONO-0 :    5  A 1.0000000
  LUNO+0 :    6  A 0.0012583
  LUNO+1 :    7  A 0.0000002
  LUNO+2 :    8  A 0.0000000
  LUNO+3 :    9  A 0.0000000


Computation Completed


Properties will be evaluated at   0.000000,   0.000000,   0.000000 [a0]

Properties computed using the SCF density matrix


 Multipole Moments:

 ------------------------------------------------------------------------------------
     Multipole            Electronic (a.u.)      Nuclear  (a.u.)        Total (a.u.)
 ------------------------------------------------------------------------------------

 L = 1.  Multiply by 2.5417464519 to convert [e a0] to [Debye]
 Dipole X            :         -0.0000000            0.0000000           -0.0000000
 Dipole Y            :         -0.0025900            0.0000000           -0.0025900
 Dipole Z            :          0.0000000            0.0000000            0.0000000
 Magnitude           :                                                    0.0025900

 ------------------------------------------------------------------------------------

*** tstop() called on PNNL-KM3X724WWL at Tue Jul 28 16:59:54 2026
Module time:
	user time   =       0.32 seconds =       0.01 minutes
	system time =       0.07 seconds =       0.00 minutes
	total time  =          0 seconds =       0.00 minutes
Total time:
	user time   =       3.75 seconds =       0.06 minutes
	system time =       0.91 seconds =       0.02 minutes
	total time  =          2 seconds =       0.03 minutes

Scratch directory: /tmp/
   => Libint2 <=

    Primary   basis highest AM E, G, H:  7, 6, 3
    Auxiliary basis highest AM E, G, H:  7, 7, 4
    Onebody   basis highest AM E, G, H:  -, -, -
    Solid Harmonics ordering:            Gaussian

*** tstart() called on PNNL-KM3X724WWL
*** at Tue Jul 28 16:59:54 2026

   => Loading Basis Set <=

    Name: DEF2-SVPD
    Role: ORBITAL
    Keyword: BASIS
    atoms 1 entry O          line   149 file /opt/miniconda3/envs/rsfff/share/psi4/basis/def2-svpd.gbs 


         ---------------------------------------------------------
                                   SCF
               by Justin Turney, Rob Parrish, Andy Simmonett
                          and Daniel G. A. Smith
                              UKS Reference
                       14 Threads,   7629 MiB Core
         ---------------------------------------------------------

  ==> Geometry <==

    Molecular point group: c1
    Geometry (in Angstrom), charge = 1, multiplicity = 4:

       Center              X                  Y                   Z               Mass       
    ------------   -----------------  -----------------  -----------------  -----------------
         O            0.000000000000     0.000000000000     0.000000000000    15.994914619570

  Running in c1 symmetry.

  Rotational constants: A = ************  B = ************  C = ************ [cm^-1]
  Rotational constants: A = ************  B = ************  C = ************ [MHz]
  Nuclear repulsion =    0.000000000000000

  Charge       = 1
  Multiplicity = 4
  Electrons    = 7
  Nalpha       = 5
  Nbeta        = 2

  ==> Algorithm <==

  SCF Algorithm Type is DF.
  DIIS enabled.
  MOM disabled.
  Fractional occupation disabled.
  Guess Type is CORE.
  Energy threshold   = 1.00e-09
  Density threshold  = 1.00e-09
  Integral threshold = 1.00e-12

  ==> Primary Basis <==

  Basis Set: DEF2-SVPD
    Blend: DEF2-SVPD
    Number of shells: 9
    Number of basis functions: 23
    Number of Cartesian functions: 25
    Spherical Harmonics?: true
    Max angular momentum: 2

  ==> DFT Potential <==

   => LibXC <=

    Version 7.0.0
    S. Lehtola, C. Steigemann, M. J.T. Oliveira, and M. A.L. Marques.,  SoftwareX 7, 1–5 (2018) (10.1016/j.softx.2017.11.002)

   => Composite Functional: B3LYP <= 

    B3LYP Hyb-GGA Exchange-Correlation Functional

    P. J. Stephens, F. J. Devlin, C. F. Chabalowski, and M. J. Frisch.,  J. Phys. Chem. 98, 11623 (1994) (10.1021/j100096a001)

    Deriv               =              1
    GGA                 =           TRUE
    Meta                =          FALSE

    Exchange Hybrid     =           TRUE
    MP2 Hybrid          =          FALSE

   => Exchange Functionals <=

    0.0800   Slater exchange
    0.7200         Becke 88

   => Exact (HF) Exchange <=

    0.2000               HF 

   => Correlation Functionals <=

    0.1900   Vosko, Wilk & Nusair (VWN5_RPA)
    0.8100   Lee, Yang & Parr

   => LibXC Density Thresholds  <==

    XC_HYB_GGA_XC_B3LYP:  1.00E-15 

   => Molecular Quadrature <=

    Radial Scheme          =       TREUTLER
    Pruning Scheme         =           NONE
    Nuclear Scheme         =       TREUTLER

    Blocking Scheme        =         OCTREE
    BS radius alpha        =              1
    Pruning alpha          =              1
    Radial Points          =             75
    Spherical Points       =            302
    Total Points           =          22348
    Total Blocks           =            224
    Max Points             =            252
    Max Functions          =             23
    Weights Tolerance      =       1.00E-15

   => Loading Basis Set <=

    Name: (DEF2-SVPD AUX)
    Role: JKFIT
    Keyword: DF_BASIS_SCF
    atoms 1 entry O          line   318 file /opt/miniconda3/envs/rsfff/share/psi4/basis/def2-universal-jkfit.gbs 

  ==> Integral Setup <==

  DFHelper Memory: AOs need 0.001 GiB; user supplied 5.573 GiB. 
  SCF_SUBTYPE=INCORE selected. In-core MEM_DF algorithm will be used.
  Using in-core AOs.

  ==> MemDFJK: Density-Fitted J/K Matrices <==

    J tasked:                   Yes
    K tasked:                   Yes
    wK tasked:                   No
    OpenMP threads:              14
    Memory [MiB]:              5707
    Algorithm:                 Core
    Schwarz Cutoff:           1E-12
    Mask sparsity (%):       0.0000
    Fitting Condition:        1E-10

   => Auxiliary Basis Set <=

  Basis Set: (DEF2-SVPD AUX)
    Blend: DEF2-UNIVERSAL-JKFIT
    Number of shells: 25
    Number of basis functions: 77
    Number of Cartesian functions: 93
    Spherical Harmonics?: true
    Max angular momentum: 4

  Cached 100.0% of DFT collocation blocks in 0.015 [GiB].

  Perturbing V by -0.001000 mu(z).
  Minimum eigenvalue in the overlap matrix is 8.0241971007E-02.
  Reciprocal condition number of the overlap matrix is 3.3278560532E-02.
    Using symmetric orthogonalization.

  ==> Pre-Iterations <==

  SCF Guess: Core (One-Electron) Hamiltonian.

   -------------------------------------------------------
    Irrep   Nso     Nmo     Nalpha   Nbeta   Ndocc  Nsocc
   -------------------------------------------------------
     A         23      23       5       2       2       3
   -------------------------------------------------------
    Total      23      23       5       2       2       3
   -------------------------------------------------------

  ==> Iterations <==

                           Total Energy        Delta E     RMS |[F,P]|

   @DF-UKS iter   1:   -72.99254337303942   -7.29925e+01   6.52853e-02 ADIIS/DIIS
   @DF-UKS iter   2:   -74.18536940966534   -1.19283e+00   3.65037e-02 ADIIS/DIIS
   @DF-UKS iter   3:   -74.47748452922109   -2.92115e-01   6.09136e-03 ADIIS/DIIS
   @DF-UKS iter   4:   -74.48605854105776   -8.57401e-03   2.38951e-05 DIIS
   @DF-UKS iter   5:   -74.48605877028865   -2.29231e-07   3.66131e-06 DIIS
   @DF-UKS iter   6:   -74.48605877375834   -3.46969e-09   5.60952e-07 DIIS
   @DF-UKS iter   7:   -74.48605877385397   -9.56248e-11   1.23232e-07 DIIS
   @DF-UKS iter   8:   -74.48605877385779   -3.82272e-12   1.34913e-08 DIIS
   @DF-UKS iter   9:   -74.48605877385785   -5.68434e-14   5.54678e-10 DIIS
  Energy and wave function converged.


  ==> Post-Iterations <==

   Electrons on quadrature grid:
      Nalpha   =    5.0000000000 ; deviation = -5.627e-12
      Nbeta    =    2.0000000000 ; deviation = -5.592e-12
      Ntotal   =    7.0000000000 ; deviation = -1.122e-11 

   @Spin Contamination Metric:   2.515462720E-03
   @S^2 Expected:                3.750000000E+00
   @S^2 Observed:                3.752515463E+00
   @S   Expected:                1.500000000E+00
   @S   Observed:                1.500000000E+00

    Orbital Energies [Eh]
    ---------------------

    Alpha Occupied:                                                       

       1A    -19.982118     2A     -1.617447     3A     -1.050695  
       4A     -1.050695     5A     -1.050695  

    Alpha Virtual:                                                        

       6A     -0.205676     7A     -0.125958     8A     -0.125958  
       9A     -0.125952    10A      0.101443    11A      0.101443  
      12A      0.101446    13A      0.101446    14A      0.101449  
      15A      0.554606    16A      0.554615    17A      0.554615  
      18A      0.628261    19A      2.080936    20A      2.080936  
      21A      2.080936    22A      2.080936    23A      2.080936  

    Beta Occupied:                                                        

       1A    -19.896393     2A     -1.367113  

    Beta Virtual:                                                         

       3A     -0.710463     4A     -0.710463     5A     -0.710463  
       6A     -0.187996     7A     -0.108927     8A     -0.108927  
       9A     -0.108877    10A      0.121350    11A      0.121350  
      12A      0.121356    13A      0.121356    14A      0.121358  
      15A      0.654443    16A      0.654463    17A      0.654463  
      18A      0.712896    19A      2.262864    20A      2.262864  
      21A      2.262864    22A      2.262864    23A      2.262864  

    Final Occupation by Irrep:
              A 
    DOCC [     2 ]
    SOCC [     3 ]
    NA   [     5 ]
    NB   [     2 ]

  @DF-UKS Final Energy:   -74.48605877385785

   => Energetics <=

    Nuclear Repulsion Energy =              0.0000000000000000
    One-Electron Energy =                 -98.2805301378771361
    Two-Electron Energy =                  30.3054774358813646
    DFT Exchange-Correlation Energy =      -6.5110060718620693
    Empirical Dispersion Energy =           0.0000000000000000
    VV10 Nonlocal Energy =                  0.0000000000000000
    Total Energy =                        -74.4860587738578346

  UHF NO Occupations:
  HONO-2 :    3  A 1.0000000
  HONO-1 :    4  A 1.0000000
  HONO-0 :    5  A 1.0000000
  LUNO+0 :    6  A 0.0012583
  LUNO+1 :    7  A 0.0000002
  LUNO+2 :    8  A 0.0000000
  LUNO+3 :    9  A 0.0000000


Computation Completed


Properties will be evaluated at   0.000000,   0.000000,   0.000000 [a0]

Properties computed using the SCF density matrix


 Multipole Moments:

 ------------------------------------------------------------------------------------
     Multipole            Electronic (a.u.)      Nuclear  (a.u.)        Total (a.u.)
 ------------------------------------------------------------------------------------

 L = 1.  Multiply by 2.5417464519 to convert [e a0] to [Debye]
 Dipole X            :         -0.0000000            0.0000000           -0.0000000
 Dipole Y            :         -0.0000000            0.0000000           -0.0000000
 Dipole Z            :          0.0025900            0.0000000            0.0025900
 Magnitude           :                                                    0.0025900

 ------------------------------------------------------------------------------------

*** tstop() called on PNNL-KM3X724WWL at Tue Jul 28 16:59:54 2026
Module time:
	user time   =       0.33 seconds =       0.01 minutes
	system time =       0.07 seconds =       0.00 minutes
	total time  =          0 seconds =       0.00 minutes
Total time:
	user time   =       4.09 seconds =       0.07 minutes
	system time =       0.98 seconds =       0.02 minutes
	total time  =          2 seconds =       0.03 minutes

Scratch directory: /tmp/
   => Libint2 <=

    Primary   basis highest AM E, G, H:  7, 6, 3
    Auxiliary basis highest AM E, G, H:  7, 7, 4
    Onebody   basis highest AM E, G, H:  -, -, -
    Solid Harmonics ordering:            Gaussian

*** tstart() called on PNNL-KM3X724WWL
*** at Tue Jul 28 16:59:54 2026

   => Loading Basis Set <=

    Name: DEF2-SVPD
    Role: ORBITAL
    Keyword: BASIS
    atoms 1 entry O          line   149 file /opt/miniconda3/envs/rsfff/share/psi4/basis/def2-svpd.gbs 


         ---------------------------------------------------------
                                   SCF
               by Justin Turney, Rob Parrish, Andy Simmonett
                          and Daniel G. A. Smith
                              UKS Reference
                       14 Threads,   7629 MiB Core
         ---------------------------------------------------------

  ==> Geometry <==

    Molecular point group: c1
    Geometry (in Angstrom), charge = 1, multiplicity = 4:

       Center              X                  Y                   Z               Mass       
    ------------   -----------------  -----------------  -----------------  -----------------
         O            0.000000000000     0.000000000000     0.000000000000    15.994914619570

  Running in c1 symmetry.

  Rotational constants: A = ************  B = ************  C = ************ [cm^-1]
  Rotational constants: A = ************  B = ************  C = ************ [MHz]
  Nuclear repulsion =    0.000000000000000

  Charge       = 1
  Multiplicity = 4
  Electrons    = 7
  Nalpha       = 5
  Nbeta        = 2

  ==> Algorithm <==

  SCF Algorithm Type is DF.
  DIIS enabled.
  MOM disabled.
  Fractional occupation disabled.
  Guess Type is CORE.
  Energy threshold   = 1.00e-09
  Density threshold  = 1.00e-09
  Integral threshold = 1.00e-12

  ==> Primary Basis <==

  Basis Set: DEF2-SVPD
    Blend: DEF2-SVPD
    Number of shells: 9
    Number of basis functions: 23
    Number of Cartesian functions: 25
    Spherical Harmonics?: true
    Max angular momentum: 2

  ==> DFT Potential <==

   => LibXC <=

    Version 7.0.0
    S. Lehtola, C. Steigemann, M. J.T. Oliveira, and M. A.L. Marques.,  SoftwareX 7, 1–5 (2018) (10.1016/j.softx.2017.11.002)

   => Composite Functional: B3LYP <= 

    B3LYP Hyb-GGA Exchange-Correlation Functional

    P. J. Stephens, F. J. Devlin, C. F. Chabalowski, and M. J. Frisch.,  J. Phys. Chem. 98, 11623 (1994) (10.1021/j100096a001)

    Deriv               =              1
    GGA                 =           TRUE
    Meta                =          FALSE

    Exchange Hybrid     =           TRUE
    MP2 Hybrid          =          FALSE

   => Exchange Functionals <=

    0.0800   Slater exchange
    0.7200         Becke 88

   => Exact (HF) Exchange <=

    0.2000               HF 

   => Correlation Functionals <=

    0.1900   Vosko, Wilk & Nusair (VWN5_RPA)
    0.8100   Lee, Yang & Parr

   => LibXC Density Thresholds  <==

    XC_HYB_GGA_XC_B3LYP:  1.00E-15 

   => Molecular Quadrature <=

    Radial Scheme          =       TREUTLER
    Pruning Scheme         =           NONE
    Nuclear Scheme         =       TREUTLER

    Blocking Scheme        =         OCTREE
    BS radius alpha        =              1
    Pruning alpha          =              1
    Radial Points          =             75
    Spherical Points       =            302
    Total Points           =          22348
    Total Blocks           =            224
    Max Points             =            252
    Max Functions          =             23
    Weights Tolerance      =       1.00E-15

   => Loading Basis Set <=

    Name: (DEF2-SVPD AUX)
    Role: JKFIT
    Keyword: DF_BASIS_SCF
    atoms 1 entry O          line   318 file /opt/miniconda3/envs/rsfff/share/psi4/basis/def2-universal-jkfit.gbs 

  ==> Integral Setup <==

  DFHelper Memory: AOs need 0.001 GiB; user supplied 5.573 GiB. 
  SCF_SUBTYPE=INCORE selected. In-core MEM_DF algorithm will be used.
  Using in-core AOs.

  ==> MemDFJK: Density-Fitted J/K Matrices <==

    J tasked:                   Yes
    K tasked:                   Yes
    wK tasked:                   No
    OpenMP threads:              14
    Memory [MiB]:              5707
    Algorithm:                 Core
    Schwarz Cutoff:           1E-12
    Mask sparsity (%):       0.0000
    Fitting Condition:        1E-10

   => Auxiliary Basis Set <=

  Basis Set: (DEF2-SVPD AUX)
    Blend: DEF2-UNIVERSAL-JKFIT
    Number of shells: 25
    Number of basis functions: 77
    Number of Cartesian functions: 93
    Spherical Harmonics?: true
    Max angular momentum: 4

  Cached 100.0% of DFT collocation blocks in 0.015 [GiB].

  Perturbing V by 0.001000 mu(z).
  Minimum eigenvalue in the overlap matrix is 8.0241971007E-02.
  Reciprocal condition number of the overlap matrix is 3.3278560532E-02.
    Using symmetric orthogonalization.

  ==> Pre-Iterations <==

  SCF Guess: Core (One-Electron) Hamiltonian.

   -------------------------------------------------------
    Irrep   Nso     Nmo     Nalpha   Nbeta   Ndocc  Nsocc
   -------------------------------------------------------
     A         23      23       5       2       2       3
   -------------------------------------------------------
    Total      23      23       5       2       2       3
   -------------------------------------------------------

  ==> Iterations <==

                           Total Energy        Delta E     RMS |[F,P]|

   @DF-UKS iter   1:   -72.99254337303945   -7.29925e+01   6.52853e-02 ADIIS/DIIS
   @DF-UKS iter   2:   -74.18536940966538   -1.19283e+00   3.65037e-02 ADIIS/DIIS
   @DF-UKS iter   3:   -74.47748452922104   -2.92115e-01   6.09136e-03 ADIIS/DIIS
   @DF-UKS iter   4:   -74.48605854105780   -8.57401e-03   2.38951e-05 DIIS
   @DF-UKS iter   5:   -74.48605877028868   -2.29231e-07   3.66131e-06 DIIS
   @DF-UKS iter   6:   -74.48605877375840   -3.46972e-09   5.60952e-07 DIIS
   @DF-UKS iter   7:   -74.48605877385398   -9.55822e-11   1.23232e-07 DIIS
   @DF-UKS iter   8:   -74.48605877385779   -3.80851e-12   1.34913e-08 DIIS
   @DF-UKS iter   9:   -74.48605877385782   -2.84217e-14   5.54678e-10 DIIS
  Energy and wave function converged.


  ==> Post-Iterations <==

   Electrons on quadrature grid:
      Nalpha   =    5.0000000000 ; deviation = -5.622e-12
      Nbeta    =    2.0000000000 ; deviation = -5.592e-12
      Ntotal   =    7.0000000000 ; deviation = -1.121e-11 

   @Spin Contamination Metric:   2.515462720E-03
   @S^2 Expected:                3.750000000E+00
   @S^2 Observed:                3.752515463E+00
   @S   Expected:                1.500000000E+00
   @S   Observed:                1.500000000E+00

    Orbital Energies [Eh]
    ---------------------

    Alpha Occupied:                                                       

       1A    -19.982118     2A     -1.617447     3A     -1.050695  
       4A     -1.050695     5A     -1.050695  

    Alpha Virtual:                                                        

       6A     -0.205676     7A     -0.125958     8A     -0.125958  
       9A     -0.125952    10A      0.101443    11A      0.101443  
      12A      0.101446    13A      0.101446    14A      0.101449  
      15A      0.554606    16A      0.554615    17A      0.554615  
      18A      0.628261    19A      2.080936    20A      2.080936  
      21A      2.080936    22A      2.080936    23A      2.080936  

    Beta Occupied:                                                        

       1A    -19.896393     2A     -1.367113  

    Beta Virtual:                                                         

       3A     -0.710463     4A     -0.710463     5A     -0.710463  
       6A     -0.187996     7A     -0.108927     8A     -0.108927  
       9A     -0.108877    10A      0.121350    11A      0.121350  
      12A      0.121356    13A      0.121356    14A      0.121358  
      15A      0.654443    16A      0.654463    17A      0.654463  
      18A      0.712896    19A      2.262864    20A      2.262864  
      21A      2.262864    22A      2.262864    23A      2.262864  

    Final Occupation by Irrep:
              A 
    DOCC [     2 ]
    SOCC [     3 ]
    NA   [     5 ]
    NB   [     2 ]

  @DF-UKS Final Energy:   -74.48605877385782

   => Energetics <=

    Nuclear Repulsion Energy =              0.0000000000000000
    One-Electron Energy =                 -98.2805301378771219
    Two-Electron Energy =                  30.3054774358813788
    DFT Exchange-Correlation Energy =      -6.5110060718620710
    Empirical Dispersion Energy =           0.0000000000000000
    VV10 Nonlocal Energy =                  0.0000000000000000
    Total Energy =                        -74.4860587738578062

  UHF NO Occupations:
  HONO-2 :    3  A 1.0000000
  HONO-1 :    4  A 1.0000000
  HONO-0 :    5  A 1.0000000
  LUNO+0 :    6  A 0.0012583
  LUNO+1 :    7  A 0.0000002
  LUNO+2 :    8  A 0.0000000
  LUNO+3 :    9  A 0.0000000


Computation Completed


Properties will be evaluated at   0.000000,   0.000000,   0.000000 [a0]

Properties computed using the SCF density matrix


 Multipole Moments:

 ------------------------------------------------------------------------------------
     Multipole            Electronic (a.u.)      Nuclear  (a.u.)        Total (a.u.)
 ------------------------------------------------------------------------------------

 L = 1.  Multiply by 2.5417464519 to convert [e a0] to [Debye]
 Dipole X            :         -0.0000000            0.0000000           -0.0000000
 Dipole Y            :         -0.0000000            0.0000000           -0.0000000
 Dipole Z            :         -0.0025900            0.0000000           -0.0025900
 Magnitude           :                                                    0.0025900

 ------------------------------------------------------------------------------------

*** tstop() called on PNNL-KM3X724WWL at Tue Jul 28 16:59:55 2026
Module time:
	user time   =       0.33 seconds =       0.01 minutes
	system time =       0.07 seconds =       0.00 minutes
	total time  =          1 seconds =       0.02 minutes
Total time:
	user time   =       4.44 seconds =       0.07 minutes
	system time =       1.05 seconds =       0.02 minutes
	total time  =          3 seconds =       0.05 minutes

Scratch directory: /tmp/
   => Libint2 <=

    Primary   basis highest AM E, G, H:  7, 6, 3
    Auxiliary basis highest AM E, G, H:  7, 7, 4
    Onebody   basis highest AM E, G, H:  -, -, -
    Solid Harmonics ordering:            Gaussian

*** tstart() called on PNNL-KM3X724WWL
*** at Tue Jul 28 16:59:55 2026

   => Loading Basis Set <=

    Name: DEF2-SVPD
    Role: ORBITAL
    Keyword: BASIS
    atoms 1 entry O          line   149 file /opt/miniconda3/envs/rsfff/share/psi4/basis/def2-svpd.gbs 


         ---------------------------------------------------------
                                   SCF
               by Justin Turney, Rob Parrish, Andy Simmonett
                          and Daniel G. A. Smith
                              UKS Reference
                       14 Threads,   7629 MiB Core
         ---------------------------------------------------------

  ==> Geometry <==

    Molecular point group: c1
    Geometry (in Angstrom), charge = 0, multiplicity = 3:

       Center              X                  Y                   Z               Mass       
    ------------   -----------------  -----------------  -----------------  -----------------
         O            0.000000000000     0.000000000000     0.000000000000    15.994914619570

  Running in c1 symmetry.

  Rotational constants: A = ************  B = ************  C = ************ [cm^-1]
  Rotational constants: A = ************  B = ************  C = ************ [MHz]
  Nuclear repulsion =    0.000000000000000

  Charge       = 0
  Multiplicity = 3
  Electrons    = 8
  Nalpha       = 5
  Nbeta        = 3

  ==> Algorithm <==

  SCF Algorithm Type is DF.
  DIIS enabled.
  MOM disabled.
  Fractional occupation disabled.
  Guess Type is CORE.
  Energy threshold   = 1.00e-09
  Density threshold  = 1.00e-09
  Integral threshold = 1.00e-12

  ==> Primary Basis <==

  Basis Set: DEF2-SVPD
    Blend: DEF2-SVPD
    Number of shells: 9
    Number of basis functions: 23
    Number of Cartesian functions: 25
    Spherical Harmonics?: true
    Max angular momentum: 2

  ==> DFT Potential <==

   => LibXC <=

    Version 7.0.0
    S. Lehtola, C. Steigemann, M. J.T. Oliveira, and M. A.L. Marques.,  SoftwareX 7, 1–5 (2018) (10.1016/j.softx.2017.11.002)

   => Composite Functional: B3LYP <= 

    B3LYP Hyb-GGA Exchange-Correlation Functional

    P. J. Stephens, F. J. Devlin, C. F. Chabalowski, and M. J. Frisch.,  J. Phys. Chem. 98, 11623 (1994) (10.1021/j100096a001)

    Deriv               =              1
    GGA                 =           TRUE
    Meta                =          FALSE

    Exchange Hybrid     =           TRUE
    MP2 Hybrid          =          FALSE

   => Exchange Functionals <=

    0.0800   Slater exchange
    0.7200         Becke 88

   => Exact (HF) Exchange <=

    0.2000               HF 

   => Correlation Functionals <=

    0.1900   Vosko, Wilk & Nusair (VWN5_RPA)
    0.8100   Lee, Yang & Parr

   => LibXC Density Thresholds  <==

    XC_HYB_GGA_XC_B3LYP:  1.00E-15 

   => Molecular Quadrature <=

    Radial Scheme          =       TREUTLER
    Pruning Scheme         =           NONE
    Nuclear Scheme         =       TREUTLER

    Blocking Scheme        =         OCTREE
    BS radius alpha        =              1
    Pruning alpha          =              1
    Radial Points          =             75
    Spherical Points       =            302
    Total Points           =          22348
    Total Blocks           =            224
    Max Points             =            252
    Max Functions          =             23
    Weights Tolerance      =       1.00E-15

   => Loading Basis Set <=

    Name: (DEF2-SVPD AUX)
    Role: JKFIT
    Keyword: DF_BASIS_SCF
    atoms 1 entry O          line   318 file /opt/miniconda3/envs/rsfff/share/psi4/basis/def2-universal-jkfit.gbs 

  ==> Integral Setup <==

  DFHelper Memory: AOs need 0.001 GiB; user supplied 5.573 GiB. 
  SCF_SUBTYPE=INCORE selected. In-core MEM_DF algorithm will be used.
  Using in-core AOs.

  ==> MemDFJK: Density-Fitted J/K Matrices <==

    J tasked:                   Yes
    K tasked:                   Yes
    wK tasked:                   No
    OpenMP threads:              14
    Memory [MiB]:              5707
    Algorithm:                 Core
    Schwarz Cutoff:           1E-12
    Mask sparsity (%):       0.0000
    Fitting Condition:        1E-10

   => Auxiliary Basis Set <=

  Basis Set: (DEF2-SVPD AUX)
    Blend: DEF2-UNIVERSAL-JKFIT
    Number of shells: 25
    Number of basis functions: 77
    Number of Cartesian functions: 93
    Spherical Harmonics?: true
    Max angular momentum: 4

  Cached 100.0% of DFT collocation blocks in 0.015 [GiB].

  Minimum eigenvalue in the overlap matrix is 8.0241971007E-02.
  Reciprocal condition number of the overlap matrix is 3.3278560532E-02.
    Using symmetric orthogonalization.

  ==> Pre-Iterations <==

  SCF Guess: Core (One-Electron) Hamiltonian.

   -------------------------------------------------------
    Irrep   Nso     Nmo     Nalpha   Nbeta   Ndocc  Nsocc
   -------------------------------------------------------
     A         23      23       5       3       3       2
   -------------------------------------------------------
    Total      23      23       5       3       3       2
   -------------------------------------------------------

  ==> Iterations <==

                           Total Energy        Delta E     RMS |[F,P]|

   @DF-UKS iter   1:   -72.31942346637905   -7.23194e+01   7.89006e-02 ADIIS/DIIS
   @DF-UKS iter   2:   -71.25968393026483    1.05974e+00   9.52922e-02 ADIIS/DIIS
   @DF-UKS iter   3:   -75.00261823042796   -3.74293e+00   4.29134e-03 ADIIS/DIIS
   @DF-UKS iter   4:   -75.00908157042412   -6.46334e-03   7.05822e-04 ADIIS/DIIS
   @DF-UKS iter   5:   -75.00923550482389   -1.53934e-04   1.30424e-04 ADIIS/DIIS
   @DF-UKS iter   6:   -75.00924015168528   -4.64686e-06   5.29984e-06 DIIS
   @DF-UKS iter   7:   -75.00924016441398   -1.27287e-08   8.44458e-07 DIIS
   @DF-UKS iter   8:   -75.00924016464826   -2.34280e-10   5.79997e-08 DIIS
   @DF-UKS iter   9:   -75.00924016465144   -3.18323e-12   2.29235e-08 DIIS
   @DF-UKS iter  10:   -75.00924016465385   -2.40163e-12   2.28222e-08 DIIS
   @DF-UKS iter  11:   -75.00924016465635   -2.50111e-12   2.28211e-08 DIIS
   @DF-UKS iter  12:   -75.00924016502776   -3.71415e-10   2.28252e-08 DIIS
   @DF-UKS iter  13:   -75.00924016691700   -1.88923e-09   4.19269e-08 DIIS
   @DF-UKS iter  14:   -75.00924017540733   -8.49033e-09   5.35122e-06 DIIS
   @DF-UKS iter  15:   -75.00924017717766   -1.77033e-09   2.23883e-06 DIIS
   @DF-UKS iter  16:   -75.00924012981956    4.73581e-08   1.41981e-05 DIIS
   @DF-UKS iter  17:   -75.00924014524848   -1.54289e-08   1.21039e-05 DIIS
   @DF-UKS iter  18:   -75.00924014583069   -5.82205e-10   1.20170e-05 DIIS
   @DF-UKS iter  19:   -75.00924014638004   -5.49349e-10   1.19342e-05 DIIS
   @DF-UKS iter  20:   -75.00924015023634   -3.85630e-09   1.13337e-05 DIIS
   @DF-UKS iter  21:   -75.00924014614728    4.08906e-09   1.19690e-05 DIIS
   @DF-UKS iter  22:   -75.00924017403030   -2.78830e-08   5.90210e-06 DIIS
   @DF-UKS iter  23:   -75.00924017337712    6.53174e-10   6.16749e-06 DIIS
   @DF-UKS iter  24:   -75.00924017153505    1.84207e-09   4.00483e-07 DIIS
   @DF-UKS iter  25:   -75.00924017121902    3.16035e-10   5.26951e-07 DIIS
   @DF-UKS iter  26:   -75.00924018019562   -8.97660e-09   8.83223e-07 DIIS
   @DF-UKS iter  27:   -75.00924018130357   -1.10795e-09   4.11469e-06 DIIS
   @DF-UKS iter  28:   -75.00924018544698   -4.14342e-09   7.11565e-07 DIIS
   @DF-UKS iter  29:   -75.00924017954304    5.90394e-09   4.53479e-06 DIIS
   @DF-UKS iter  30:   -75.00924016240347    1.71396e-08   8.91516e-06 DIIS
   @DF-UKS iter  31:   -75.00924017700035   -1.45969e-08   5.44392e-06 DIIS
   @DF-UKS iter  32:   -75.00924017712934   -1.28992e-10   5.38715e-06 DIIS
   @DF-UKS iter  33:   -75.00924017612293    1.00641e-09   5.69190e-06 DIIS
   @DF-UKS iter  34:   -75.00924017668792   -5.64995e-10   5.51496e-06 DIIS
   @DF-UKS iter  35:   -75.00924017927780   -2.58987e-09   4.63922e-06 DIIS
   @DF-UKS iter  36:   -75.00924018590291   -6.62511e-09   1.82239e-07 DIIS
   @DF-UKS iter  37:   -75.00924018580008    1.02830e-10   1.33470e-08 DIIS
   @DF-UKS iter  38:   -75.00924018559456    2.05517e-10   1.37629e-08 DIIS
   @DF-UKS iter  39:   -75.00924018561362   -1.90568e-11   1.14409e-08 DIIS
   @DF-UKS iter  40:   -75.00924018540421    2.09411e-10   8.54050e-09 DIIS
   @DF-UKS iter  41:   -75.00924018518256    2.21647e-10   1.52662e-08 DIIS
   @DF-UKS iter  42:   -75.00924018515057    3.19886e-11   1.56184e-08 DIIS
   @DF-UKS iter  43:   -75.00924018499454    1.56035e-10   2.39426e-08 DIIS
   @DF-UKS iter  44:   -75.00924018255043    2.44411e-09   9.62167e-07 DIIS
   @DF-UKS iter  45:   -75.00924018044293    2.10750e-09   2.40485e-06 DIIS
   @DF-UKS iter  46:   -75.00924017797801    2.46492e-09   3.71019e-06 DIIS
   @DF-UKS iter  47:   -75.00924017724228    7.35739e-10   4.09038e-06 DIIS
   @DF-UKS iter  48:   -75.00924017621219    1.03009e-09   4.58383e-06 DIIS
   @DF-UKS iter  49:   -75.00924017780491   -1.59272e-09   3.83615e-06 DIIS
   @DF-UKS iter  50:   -75.00924018120617   -3.40125e-09   1.74308e-06 DIIS
   @DF-UKS iter  51:   -75.00924018139276   -1.86589e-10   1.59475e-06 DIIS
   @DF-UKS iter  52:   -75.00924018074953    6.43226e-10   2.02889e-06 DIIS
   @DF-UKS iter  53:   -75.00924018300658   -2.25705e-09   3.78216e-07 DIIS
   @DF-UKS iter  54:   -75.00924018323131   -2.24730e-10   2.42034e-07 DIIS
   @DF-UKS iter  55:   -75.00924018281620    4.15113e-10   4.35381e-07 DIIS
   @DF-UKS iter  56:   -75.00924018361479   -7.98593e-10   1.28788e-07 DIIS
   @DF-UKS iter  57:   -75.00924018335674    2.58055e-10   2.26379e-07 DIIS
   @DF-UKS iter  58:   -75.00924018336528   -8.54072e-12   2.22809e-07 DIIS
   @DF-UKS iter  59:   -75.00924018347415   -1.08869e-10   2.21422e-07 DIIS
   @DF-UKS iter  60:   -75.00924018312962    3.44528e-10   3.15741e-07 DIIS
   @DF-UKS iter  61:   -75.00924018216338    9.66239e-10   4.56298e-07 DIIS
   @DF-UKS iter  62:   -75.00924018195471    2.08672e-10   6.29474e-08 DIIS
   @DF-UKS iter  63:   -75.00924018193545    1.92557e-11   1.14805e-07 DIIS
   @DF-UKS iter  64:   -75.00924018193074    4.71800e-12   2.10297e-07 DIIS
   @DF-UKS iter  65:   -75.00924018192364    7.09122e-12   2.70528e-07 DIIS
   @DF-UKS iter  66:   -75.00924018193633   -1.26903e-11   1.54873e-07 DIIS
   @DF-UKS iter  67:   -75.00924018194243   -6.09646e-12   1.53701e-08 DIIS
   @DF-UKS iter  68:   -75.00924018194240    2.84217e-14   2.33749e-08 DIIS
   @DF-UKS iter  69:   -75.00924018194256   -1.56319e-13   7.10559e-09 DIIS
   @DF-UKS iter  70:   -75.00924018194253    2.84217e-14   6.91500e-10 DIIS
  Energy and wave function converged.


  ==> Post-Iterations <==

   Electrons on quadrature grid:
      Nalpha   =    5.0000000000 ; deviation = -5.582e-12
      Nbeta    =    3.0000000000 ; deviation = -5.562e-12
      Ntotal   =    8.0000000000 ; deviation = -1.114e-11 

   @Spin Contamination Metric:   3.773190416E-03
   @S^2 Expected:                2.000000000E+00
   @S^2 Observed:                2.003773190E+00
   @S   Expected:                1.000000000E+00
   @S   Observed:                1.000000000E+00

    Orbital Energies [Eh]
    ---------------------

    Alpha Occupied:                                                       

       1A    -19.294560     2A     -1.008435     3A     -0.469303  
       4A     -0.469303     5A     -0.394123  

    Alpha Virtual:                                                        

       6A      0.071760     7A      0.113911     8A      0.113911  
       9A      0.119332    10A      0.416898    11A      0.416898  
      12A      0.427218    13A      0.427218    14A      0.431876  
      15A      0.991091    16A      0.991091    17A      1.035439  
      18A      1.067085    19A      2.626159    20A      2.626159  
      21A      2.681583    22A      2.681583    23A      2.701232  

    Beta Occupied:                                                        

       1A    -19.242961     2A     -0.850957     3A     -0.341438  

    Beta Virtual:                                                         

       4A     -0.192319     5A     -0.192318     6A      0.084362  
       7A      0.123155     8A      0.137471     9A      0.137506  
      10A      0.436912    11A      0.436914    12A      0.440569  
      13A      0.441414    14A      0.441424    15A      1.063423  
      16A      1.095772    17A      1.095779    18A      1.131856  
      19A      2.770435    20A      2.770435    21A      2.778008  
      22A      2.794631    23A      2.794632  

    Final Occupation by Irrep:
              A 
    DOCC [     3 ]
    SOCC [     2 ]
    NA   [     5 ]
    NB   [     3 ]

  @DF-UKS Final Energy:   -75.00924018194253

   => Energetics <=

    Nuclear Repulsion Energy =              0.0000000000000000
    One-Electron Energy =                -103.0413638175110123
    Two-Electron Energy =                  34.8555302459499430
    DFT Exchange-Correlation Energy =      -6.8234066103814719
    Empirical Dispersion Energy =           0.0000000000000000
    VV10 Nonlocal Energy =                  0.0000000000000000
    Total Energy =                        -75.0092401819425305

  UHF NO Occupations:
  HONO-2 :    3  A 1.9988743
  HONO-1 :    4  A 1.0000000
  HONO-0 :    5  A 1.0000000
  LUNO+0 :    6  A 0.0011257
  LUNO+1 :    7  A 0.0007616
  LUNO+2 :    8  A 0.0000002
  LUNO+3 :    9  A 0.0000000


Computation Completed


Properties will be evaluated at   0.000000,   0.000000,   0.000000 [a0]

Properties computed using the SCF density matrix


 Multipole Moments:

 ------------------------------------------------------------------------------------
     Multipole            Electronic (a.u.)      Nuclear  (a.u.)        Total (a.u.)
 ------------------------------------------------------------------------------------

 L = 1.  Multiply by 2.5417464519 to convert [e a0] to [Debye]
 Dipole X            :         -0.0000000            0.0000000           -0.0000000
 Dipole Y            :         -0.0000000            0.0000000           -0.0000000
 Dipole Z            :          0.0000000            0.0000000            0.0000000
 Magnitude           :                                                    0.0000000

 ------------------------------------------------------------------------------------

*** tstop() called on PNNL-KM3X724WWL at Tue Jul 28 16:59:55 2026
Module time:
	user time   =       2.23 seconds =       0.04 minutes
	system time =       0.39 seconds =       0.01 minutes
	total time  =          0 seconds =       0.00 minutes
Total time:
	user time   =       6.69 seconds =       0.11 minutes
	system time =       1.44 seconds =       0.02 minutes
	total time  =          3 seconds =       0.05 minutes

Scratch directory: /tmp/
   => Libint2 <=

    Primary   basis highest AM E, G, H:  7, 6, 3
    Auxiliary basis highest AM E, G, H:  7, 7, 4
    Onebody   basis highest AM E, G, H:  -, -, -
    Solid Harmonics ordering:            Gaussian

*** tstart() called on PNNL-KM3X724WWL
*** at Tue Jul 28 16:59:55 2026

   => Loading Basis Set <=

    Name: DEF2-SVPD
    Role: ORBITAL
    Keyword: BASIS
    atoms 1 entry O          line   149 file /opt/miniconda3/envs/rsfff/share/psi4/basis/def2-svpd.gbs 


         ---------------------------------------------------------
                                   SCF
               by Justin Turney, Rob Parrish, Andy Simmonett
                          and Daniel G. A. Smith
                              UKS Reference
                       14 Threads,   7629 MiB Core
         ---------------------------------------------------------

  ==> Geometry <==

    Molecular point group: c1
    Geometry (in Angstrom), charge = 0, multiplicity = 3:

       Center              X                  Y                   Z               Mass       
    ------------   -----------------  -----------------  -----------------  -----------------
         O            0.000000000000     0.000000000000     0.000000000000    15.994914619570

  Running in c1 symmetry.

  Rotational constants: A = ************  B = ************  C = ************ [cm^-1]
  Rotational constants: A = ************  B = ************  C = ************ [MHz]
  Nuclear repulsion =    0.000000000000000

  Charge       = 0
  Multiplicity = 3
  Electrons    = 8
  Nalpha       = 5
  Nbeta        = 3

  ==> Algorithm <==

  SCF Algorithm Type is DF.
  DIIS enabled.
  MOM disabled.
  Fractional occupation disabled.
  Guess Type is CORE.
  Energy threshold   = 1.00e-09
  Density threshold  = 1.00e-09
  Integral threshold = 1.00e-12

  ==> Primary Basis <==

  Basis Set: DEF2-SVPD
    Blend: DEF2-SVPD
    Number of shells: 9
    Number of basis functions: 23
    Number of Cartesian functions: 25
    Spherical Harmonics?: true
    Max angular momentum: 2

  ==> DFT Potential <==

   => LibXC <=

    Version 7.0.0
    S. Lehtola, C. Steigemann, M. J.T. Oliveira, and M. A.L. Marques.,  SoftwareX 7, 1–5 (2018) (10.1016/j.softx.2017.11.002)

   => Composite Functional: B3LYP <= 

    B3LYP Hyb-GGA Exchange-Correlation Functional

    P. J. Stephens, F. J. Devlin, C. F. Chabalowski, and M. J. Frisch.,  J. Phys. Chem. 98, 11623 (1994) (10.1021/j100096a001)

    Deriv               =              1
    GGA                 =           TRUE
    Meta                =          FALSE

    Exchange Hybrid     =           TRUE
    MP2 Hybrid          =          FALSE

   => Exchange Functionals <=

    0.0800   Slater exchange
    0.7200         Becke 88

   => Exact (HF) Exchange <=

    0.2000               HF 

   => Correlation Functionals <=

    0.1900   Vosko, Wilk & Nusair (VWN5_RPA)
    0.8100   Lee, Yang & Parr

   => LibXC Density Thresholds  <==

    XC_HYB_GGA_XC_B3LYP:  1.00E-15 

   => Molecular Quadrature <=

    Radial Scheme          =       TREUTLER
    Pruning Scheme         =           NONE
    Nuclear Scheme         =       TREUTLER

    Blocking Scheme        =         OCTREE
    BS radius alpha        =              1
    Pruning alpha          =              1
    Radial Points          =             75
    Spherical Points       =            302
    Total Points           =          22348
    Total Blocks           =            224
    Max Points             =            252
    Max Functions          =             23
    Weights Tolerance      =       1.00E-15

   => Loading Basis Set <=

    Name: (DEF2-SVPD AUX)
    Role: JKFIT
    Keyword: DF_BASIS_SCF
    atoms 1 entry O          line   318 file /opt/miniconda3/envs/rsfff/share/psi4/basis/def2-universal-jkfit.gbs 

  ==> Integral Setup <==

  DFHelper Memory: AOs need 0.001 GiB; user supplied 5.573 GiB. 
  SCF_SUBTYPE=INCORE selected. In-core MEM_DF algorithm will be used.
  Using in-core AOs.

  ==> MemDFJK: Density-Fitted J/K Matrices <==

    J tasked:                   Yes
    K tasked:                   Yes
    wK tasked:                   No
    OpenMP threads:              14
    Memory [MiB]:              5707
    Algorithm:                 Core
    Schwarz Cutoff:           1E-12
    Mask sparsity (%):       0.0000
    Fitting Condition:        1E-10

   => Auxiliary Basis Set <=

  Basis Set: (DEF2-SVPD AUX)
    Blend: DEF2-UNIVERSAL-JKFIT
    Number of shells: 25
    Number of basis functions: 77
    Number of Cartesian functions: 93
    Spherical Harmonics?: true
    Max angular momentum: 4

  Cached 100.0% of DFT collocation blocks in 0.015 [GiB].

  Perturbing V by -0.001000 mu(x).
  Minimum eigenvalue in the overlap matrix is 8.0241971007E-02.
  Reciprocal condition number of the overlap matrix is 3.3278560532E-02.
    Using symmetric orthogonalization.

  ==> Pre-Iterations <==

  SCF Guess: Core (One-Electron) Hamiltonian.

   -------------------------------------------------------
    Irrep   Nso     Nmo     Nalpha   Nbeta   Ndocc  Nsocc
   -------------------------------------------------------
     A         23      23       5       3       3       2
   -------------------------------------------------------
    Total      23      23       5       3       3       2
   -------------------------------------------------------

  ==> Iterations <==

                           Total Energy        Delta E     RMS |[F,P]|

   @DF-UKS iter   1:   -72.31941887203591   -7.23194e+01   7.89003e-02 ADIIS/DIIS
   @DF-UKS iter   2:   -71.25943879349178    1.05998e+00   9.52923e-02 ADIIS/DIIS
   @DF-UKS iter   3:   -75.00262226803302   -3.74318e+00   4.29103e-03 ADIIS/DIIS
   @DF-UKS iter   4:   -75.00908392213297   -6.46165e-03   7.06282e-04 ADIIS/DIIS
   @DF-UKS iter   5:   -75.00923793363664   -1.54012e-04   1.31656e-04 ADIIS/DIIS
   @DF-UKS iter   6:   -75.00924263527659   -4.70164e-06   1.06325e-05 DIIS
   @DF-UKS iter   7:   -75.00924266177776   -2.65012e-08   2.74334e-06 DIIS
   @DF-UKS iter   8:   -75.00924266417128   -2.39352e-09   3.72120e-07 DIIS
   @DF-UKS iter   9:   -75.00924266421566   -4.43805e-11   2.06012e-08 DIIS
   @DF-UKS iter  10:   -75.00924266421582   -1.56319e-13   2.98229e-09 DIIS
   @DF-UKS iter  11:   -75.00924266421595   -1.27898e-13   2.90870e-09 DIIS
   @DF-UKS iter  12:   -75.00924266421592    2.84217e-14   2.90808e-09 DIIS
   @DF-UKS iter  13:   -75.00924266421599   -7.10543e-14   2.90804e-09 DIIS
   @DF-UKS iter  14:   -75.00924266421652   -5.25802e-13   2.90776e-09 DIIS
   @DF-UKS iter  15:   -75.00924266424620   -2.96865e-11   2.92629e-09 DIIS
   @DF-UKS iter  16:   -75.00924266431448   -6.82832e-11   5.50438e-09 DIIS
   @DF-UKS iter  17:   -75.00924266072751    3.58698e-09   4.49350e-06 DIIS
   @DF-UKS iter  18:   -75.00924266434093   -3.61342e-09   2.40158e-06 DIIS
   @DF-UKS iter  19:   -75.00924266212843    2.21250e-09   3.84730e-06 DIIS
   @DF-UKS iter  20:   -75.00924266330938   -1.18095e-09   3.18056e-06 DIIS
   @DF-UKS iter  21:   -75.00924266327743    3.19460e-11   3.20074e-06 DIIS
   @DF-UKS iter  22:   -75.00924262026311    4.30143e-08   1.29331e-05 DIIS
   @DF-UKS iter  23:   -75.00924263016763   -9.90453e-09   1.14752e-05 DIIS
   @DF-UKS iter  24:   -75.00924266455307   -3.43854e-08   2.19236e-06 DIIS
   @DF-UKS iter  25:   -75.00924266516466   -6.11593e-10   8.40863e-07 DIIS
   @DF-UKS iter  26:   -75.00924266511258    5.20828e-11   6.14728e-07 DIIS
   @DF-UKS iter  27:   -75.00924266493239    1.80194e-10   3.10949e-07 DIIS
   @DF-UKS iter  28:   -75.00924266512986   -1.97474e-10   6.76878e-07 DIIS
   @DF-UKS iter  29:   -75.00924266503843    9.14326e-11   4.75646e-07 DIIS
   @DF-UKS iter  30:   -75.00924266504632   -7.88702e-12   4.59630e-07 DIIS
   @DF-UKS iter  31:   -75.00924266506897   -2.26521e-11   3.83637e-07 DIIS
   @DF-UKS iter  32:   -75.00924266572189   -6.52918e-10   1.30743e-06 DIIS
   @DF-UKS iter  33:   -75.00924265195860    1.37633e-08   7.38065e-06 DIIS
   @DF-UKS iter  34:   -75.00924265176729    1.91307e-10   7.42762e-06 DIIS
   @DF-UKS iter  35:   -75.00924265573863   -3.97134e-09   6.38250e-06 DIIS
   @DF-UKS iter  36:   -75.00924265511757    6.21057e-10   6.54664e-06 DIIS
   @DF-UKS iter  37:   -75.00924265619854   -1.08096e-09   6.24626e-06 DIIS
   @DF-UKS iter  38:   -75.00924265533850    8.60041e-10   6.48219e-06 DIIS
   @DF-UKS iter  39:   -75.00924266379184   -8.45334e-09   3.36840e-06 DIIS
   @DF-UKS iter  40:   -75.00924265382558    9.96626e-09   7.00826e-06 DIIS
   @DF-UKS iter  41:   -75.00924265547758   -1.65200e-09   6.57958e-06 DIIS
   @DF-UKS iter  42:   -75.00924266716214   -1.16846e-08   1.09858e-06 DIIS
   @DF-UKS iter  43:   -75.00924266754603   -3.83892e-10   6.76236e-07 DIIS
   @DF-UKS iter  44:   -75.00924266463873    2.90730e-09   3.35203e-06 DIIS
   @DF-UKS iter  45:   -75.00924266400267    6.36064e-10   3.66888e-06 DIIS
   @DF-UKS iter  46:   -75.00924266761392   -3.61125e-09   6.77189e-07 DIIS
   @DF-UKS iter  47:   -75.00924266745669    1.57229e-10   1.07468e-06 DIIS
   @DF-UKS iter  48:   -75.00924266741552    4.11688e-11   1.18441e-06 DIIS
   @DF-UKS iter  49:   -75.00924266781070   -3.95175e-10   1.79236e-08 DIIS
   @DF-UKS iter  50:   -75.00924266781034    3.55271e-13   3.54977e-08 DIIS
   @DF-UKS iter  51:   -75.00924266781081   -4.68958e-13   8.61787e-09 DIIS
   @DF-UKS iter  52:   -75.00924266781078    2.84217e-14   2.19586e-09 DIIS
   @DF-UKS iter  53:   -75.00924266781084   -5.68434e-14   4.00738e-10 DIIS
  Energy and wave function converged.


  ==> Post-Iterations <==

   Electrons on quadrature grid:
      Nalpha   =    5.0000000000 ; deviation = -5.577e-12
      Nbeta    =    3.0000000000 ; deviation = -5.558e-12
      Ntotal   =    8.0000000000 ; deviation = -1.113e-11 

   @Spin Contamination Metric:   3.773213214E-03
   @S^2 Expected:                2.000000000E+00
   @S^2 Observed:                2.003773213E+00
   @S   Expected:                1.000000000E+00
   @S   Observed:                1.000000000E+00

    Orbital Energies [Eh]
    ---------------------

    Alpha Occupied:                                                       

       1A    -19.294563     2A     -1.008437     3A     -0.469305  
       4A     -0.469305     5A     -0.394125  

    Alpha Virtual:                                                        

       6A      0.071657     7A      0.113906     8A      0.114007  
       9A      0.119328    10A      0.416902    11A      0.416902  
      12A      0.427218    13A      0.427222    14A      0.431877  
      15A      0.991080    16A      0.991090    17A      1.035438  
      18A      1.067096    19A      2.626158    20A      2.626158  
      21A      2.681581    22A      2.681581    23A      2.701230  

    Beta Occupied:                                                        

       1A    -19.242964     2A     -0.850959     3A     -0.341440  

    Beta Virtual:                                                         

       4A     -0.192321     5A     -0.192321     6A      0.084286  
       7A      0.123151     8A      0.137479     9A      0.137570  
      10A      0.436913    11A      0.436917    12A      0.440570  
      13A      0.441421    14A      0.441425    15A      1.063422  
      16A      1.095753    17A      1.095774    18A      1.131880  
      19A      2.770433    20A      2.770433    21A      2.778006  
      22A      2.794630    23A      2.794630  

    Final Occupation by Irrep:
              A 
    DOCC [     3 ]
    SOCC [     2 ]
    NA   [     5 ]
    NB   [     3 ]

  @DF-UKS Final Energy:   -75.00924266781084

   => Energetics <=

    Nuclear Repulsion Energy =              0.0000000000000000
    One-Electron Energy =                -103.0413527930554096
    Two-Electron Energy =                  34.8555151017157598
    DFT Exchange-Correlation Energy =      -6.8234049764711822
    Empirical Dispersion Energy =           0.0000000000000000
    VV10 Nonlocal Energy =                  0.0000000000000000
    Total Energy =                        -75.0092426678108382

  UHF NO Occupations:
  HONO-2 :    3  A 1.9988743
  HONO-1 :    4  A 1.0000000
  HONO-0 :    5  A 1.0000000
  LUNO+0 :    6  A 0.0011257
  LUNO+1 :    7  A 0.0007616
  LUNO+2 :    8  A 0.0000002
  LUNO+3 :    9  A 0.0000000


Computation Completed


Properties will be evaluated at   0.000000,   0.000000,   0.000000 [a0]

Properties computed using the SCF density matrix


 Multipole Moments:

 ------------------------------------------------------------------------------------
     Multipole            Electronic (a.u.)      Nuclear  (a.u.)        Total (a.u.)
 ------------------------------------------------------------------------------------

 L = 1.  Multiply by 2.5417464519 to convert [e a0] to [Debye]
 Dipole X            :          0.0049694            0.0000000            0.0049694
 Dipole Y            :          0.0000000            0.0000000            0.0000000
 Dipole Z            :          0.0000000            0.0000000            0.0000000
 Magnitude           :                                                    0.0049694

 ------------------------------------------------------------------------------------

*** tstop() called on PNNL-KM3X724WWL at Tue Jul 28 16:59:55 2026
Module time:
	user time   =       1.64 seconds =       0.03 minutes
	system time =       0.30 seconds =       0.01 minutes
	total time  =          0 seconds =       0.00 minutes
Total time:
	user time   =       8.35 seconds =       0.14 minutes
	system time =       1.74 seconds =       0.03 minutes
	total time  =          3 seconds =       0.05 minutes

Scratch directory: /tmp/
   => Libint2 <=

    Primary   basis highest AM E, G, H:  7, 6, 3
    Auxiliary basis highest AM E, G, H:  7, 7, 4
    Onebody   basis highest AM E, G, H:  -, -, -
    Solid Harmonics ordering:            Gaussian

*** tstart() called on PNNL-KM3X724WWL
*** at Tue Jul 28 16:59:56 2026

   => Loading Basis Set <=

    Name: DEF2-SVPD
    Role: ORBITAL
    Keyword: BASIS
    atoms 1 entry O          line   149 file /opt/miniconda3/envs/rsfff/share/psi4/basis/def2-svpd.gbs 


         ---------------------------------------------------------
                                   SCF
               by Justin Turney, Rob Parrish, Andy Simmonett
                          and Daniel G. A. Smith
                              UKS Reference
                       14 Threads,   7629 MiB Core
         ---------------------------------------------------------

  ==> Geometry <==

    Molecular point group: c1
    Geometry (in Angstrom), charge = 0, multiplicity = 3:

       Center              X                  Y                   Z               Mass       
    ------------   -----------------  -----------------  -----------------  -----------------
         O            0.000000000000     0.000000000000     0.000000000000    15.994914619570

  Running in c1 symmetry.

  Rotational constants: A = ************  B = ************  C = ************ [cm^-1]
  Rotational constants: A = ************  B = ************  C = ************ [MHz]
  Nuclear repulsion =    0.000000000000000

  Charge       = 0
  Multiplicity = 3
  Electrons    = 8
  Nalpha       = 5
  Nbeta        = 3

  ==> Algorithm <==

  SCF Algorithm Type is DF.
  DIIS enabled.
  MOM disabled.
  Fractional occupation disabled.
  Guess Type is CORE.
  Energy threshold   = 1.00e-09
  Density threshold  = 1.00e-09
  Integral threshold = 1.00e-12

  ==> Primary Basis <==

  Basis Set: DEF2-SVPD
    Blend: DEF2-SVPD
    Number of shells: 9
    Number of basis functions: 23
    Number of Cartesian functions: 25
    Spherical Harmonics?: true
    Max angular momentum: 2

  ==> DFT Potential <==

   => LibXC <=

    Version 7.0.0
    S. Lehtola, C. Steigemann, M. J.T. Oliveira, and M. A.L. Marques.,  SoftwareX 7, 1–5 (2018) (10.1016/j.softx.2017.11.002)

   => Composite Functional: B3LYP <= 

    B3LYP Hyb-GGA Exchange-Correlation Functional

    P. J. Stephens, F. J. Devlin, C. F. Chabalowski, and M. J. Frisch.,  J. Phys. Chem. 98, 11623 (1994) (10.1021/j100096a001)

    Deriv               =              1
    GGA                 =           TRUE
    Meta                =          FALSE

    Exchange Hybrid     =           TRUE
    MP2 Hybrid          =          FALSE

   => Exchange Functionals <=

    0.0800   Slater exchange
    0.7200         Becke 88

   => Exact (HF) Exchange <=

    0.2000               HF 

   => Correlation Functionals <=

    0.1900   Vosko, Wilk & Nusair (VWN5_RPA)
    0.8100   Lee, Yang & Parr

   => LibXC Density Thresholds  <==

    XC_HYB_GGA_XC_B3LYP:  1.00E-15 

   => Molecular Quadrature <=

    Radial Scheme          =       TREUTLER
    Pruning Scheme         =           NONE
    Nuclear Scheme         =       TREUTLER

    Blocking Scheme        =         OCTREE
    BS radius alpha        =              1
    Pruning alpha          =              1
    Radial Points          =             75
    Spherical Points       =            302
    Total Points           =          22348
    Total Blocks           =            224
    Max Points             =            252
    Max Functions          =             23
    Weights Tolerance      =       1.00E-15

   => Loading Basis Set <=

    Name: (DEF2-SVPD AUX)
    Role: JKFIT
    Keyword: DF_BASIS_SCF
    atoms 1 entry O          line   318 file /opt/miniconda3/envs/rsfff/share/psi4/basis/def2-universal-jkfit.gbs 

  ==> Integral Setup <==

  DFHelper Memory: AOs need 0.001 GiB; user supplied 5.573 GiB. 
  SCF_SUBTYPE=INCORE selected. In-core MEM_DF algorithm will be used.
  Using in-core AOs.

  ==> MemDFJK: Density-Fitted J/K Matrices <==

    J tasked:                   Yes
    K tasked:                   Yes
    wK tasked:                   No
    OpenMP threads:              14
    Memory [MiB]:              5707
    Algorithm:                 Core
    Schwarz Cutoff:           1E-12
    Mask sparsity (%):       0.0000
    Fitting Condition:        1E-10

   => Auxiliary Basis Set <=

  Basis Set: (DEF2-SVPD AUX)
    Blend: DEF2-UNIVERSAL-JKFIT
    Number of shells: 25
    Number of basis functions: 77
    Number of Cartesian functions: 93
    Spherical Harmonics?: true
    Max angular momentum: 4

  Cached 100.0% of DFT collocation blocks in 0.015 [GiB].

  Perturbing V by 0.001000 mu(x).
  Minimum eigenvalue in the overlap matrix is 8.0241971007E-02.
  Reciprocal condition number of the overlap matrix is 3.3278560532E-02.
    Using symmetric orthogonalization.

  ==> Pre-Iterations <==

  SCF Guess: Core (One-Electron) Hamiltonian.

   -------------------------------------------------------
    Irrep   Nso     Nmo     Nalpha   Nbeta   Ndocc  Nsocc
   -------------------------------------------------------
     A         23      23       5       3       3       2
   -------------------------------------------------------
    Total      23      23       5       3       3       2
   -------------------------------------------------------

  ==> Iterations <==

                           Total Energy        Delta E     RMS |[F,P]|

   @DF-UKS iter   1:   -72.31941889333444   -7.23194e+01   7.89007e-02 ADIIS/DIIS
   @DF-UKS iter   2:   -71.25948164849386    1.05994e+00   9.52914e-02 ADIIS/DIIS
   @DF-UKS iter   3:   -75.00262129375763   -3.74314e+00   4.29110e-03 ADIIS/DIIS
   @DF-UKS iter   4:   -75.00908400272174   -6.46271e-03   7.06060e-04 ADIIS/DIIS
   @DF-UKS iter   5:   -75.00923794206651   -1.53939e-04   1.31591e-04 ADIIS/DIIS
   @DF-UKS iter   6:   -75.00924263927998   -4.69721e-06   1.06304e-05 DIIS
   @DF-UKS iter   7:   -75.00924266577566   -2.64957e-08   2.74096e-06 DIIS
   @DF-UKS iter   8:   -75.00924266816584   -2.39018e-09   3.71949e-07 DIIS
   @DF-UKS iter   9:   -75.00924266821028   -4.44373e-11   2.09783e-08 DIIS
   @DF-UKS iter  10:   -75.00924266821048   -1.98952e-13   4.76363e-09 DIIS
   @DF-UKS iter  11:   -75.00924266821055   -7.10543e-14   4.71723e-09 DIIS
   @DF-UKS iter  12:   -75.00924266821063   -8.52651e-14   4.71680e-09 DIIS
   @DF-UKS iter  13:   -75.00924266821087   -2.41585e-13   4.71667e-09 DIIS
   @DF-UKS iter  14:   -75.00924266821838   -7.50333e-12   4.71225e-09 DIIS
   @DF-UKS iter  15:   -75.00924266870481   -4.86438e-10   4.83164e-08 DIIS
   @DF-UKS iter  16:   -75.00924266923347   -5.28658e-10   2.38011e-07 DIIS
   @DF-UKS iter  17:   -75.00924266855783    6.75641e-10   2.64724e-08 DIIS
   @DF-UKS iter  18:   -75.00924266890300   -3.45167e-10   1.36490e-07 DIIS
   @DF-UKS iter  19:   -75.00924266221013    6.69287e-09   5.49718e-06 DIIS
   @DF-UKS iter  20:   -75.00924264718137    1.50288e-08   9.01495e-06 DIIS
   @DF-UKS iter  21:   -75.00924264943076   -2.24939e-09   8.58831e-06 DIIS
   @DF-UKS iter  22:   -75.00924264720678    2.22398e-09   9.02747e-06 DIIS
   @DF-UKS iter  23:   -75.00924264645914    7.47633e-10   9.17051e-06 DIIS
   @DF-UKS iter  24:   -75.00924265314305   -6.68390e-09   7.84040e-06 DIIS
   @DF-UKS iter  25:   -75.00924266664117   -1.34981e-08   3.85909e-06 DIIS
   @DF-UKS iter  26:   -75.00924266843967   -1.79850e-09   2.92943e-06 DIIS
   @DF-UKS iter  27:   -75.00924267077178   -2.33211e-09   1.10685e-07 DIIS
   @DF-UKS iter  28:   -75.00924267084004   -6.82547e-11   2.67341e-07 DIIS
   @DF-UKS iter  29:   -75.00924267085489   -1.48503e-11   4.33306e-10 DIIS
  Energy and wave function converged.


  ==> Post-Iterations <==

   Electrons on quadrature grid:
      Nalpha   =    5.0000000000 ; deviation = -5.578e-12
      Nbeta    =    3.0000000000 ; deviation = -5.557e-12
      Ntotal   =    8.0000000000 ; deviation = -1.114e-11 

   @Spin Contamination Metric:   3.773206927E-03
   @S^2 Expected:                2.000000000E+00
   @S^2 Observed:                2.003773207E+00
   @S   Expected:                1.000000000E+00
   @S   Observed:                1.000000000E+00

    Orbital Energies [Eh]
    ---------------------

    Alpha Occupied:                                                       

       1A    -19.294563     2A     -1.008437     3A     -0.469305  
       4A     -0.469305     5A     -0.394125  

    Alpha Virtual:                                                        

       6A      0.071657     7A      0.113906     8A      0.114007  
       9A      0.119328    10A      0.416902    11A      0.416902  
      12A      0.427218    13A      0.427222    14A      0.431877  
      15A      0.991080    16A      0.991090    17A      1.035438  
      18A      1.067096    19A      2.626158    20A      2.626158  
      21A      2.681581    22A      2.681582    23A      2.701230  

    Beta Occupied:                                                        

       1A    -19.242964     2A     -0.850959     3A     -0.341440  

    Beta Virtual:                                                         

       4A     -0.192322     5A     -0.192320     6A      0.084285  
       7A      0.123151     8A      0.137487     9A      0.137552  
      10A      0.436912    11A      0.436917    12A      0.440571  
      13A      0.441420    14A      0.441427    15A      1.063422  
      16A      1.095749    17A      1.095775    18A      1.131879  
      19A      2.770433    20A      2.770433    21A      2.778006  
      22A      2.794630    23A      2.794630  

    Final Occupation by Irrep:
              A 
    DOCC [     3 ]
    SOCC [     2 ]
    NA   [     5 ]
    NB   [     3 ]

  @DF-UKS Final Energy:   -75.00924267085489

   => Energetics <=

    Nuclear Repulsion Energy =              0.0000000000000000
    One-Electron Energy =                -103.0413528171322923
    Two-Electron Energy =                  34.8555151303621074
    DFT Exchange-Correlation Energy =      -6.8234049840846982
    Empirical Dispersion Energy =           0.0000000000000000
    VV10 Nonlocal Energy =                  0.0000000000000000
    Total Energy =                        -75.0092426708548885

  UHF NO Occupations:
  HONO-2 :    3  A 1.9988743
  HONO-1 :    4  A 1.0000000
  HONO-0 :    5  A 1.0000000
  LUNO+0 :    6  A 0.0011257
  LUNO+1 :    7  A 0.0007616
  LUNO+2 :    8  A 0.0000002
  LUNO+3 :    9  A 0.0000000


Computation Completed


Properties will be evaluated at   0.000000,   0.000000,   0.000000 [a0]

Properties computed using the SCF density matrix


 Multipole Moments:

 ------------------------------------------------------------------------------------
     Multipole            Electronic (a.u.)      Nuclear  (a.u.)        Total (a.u.)
 ------------------------------------------------------------------------------------

 L = 1.  Multiply by 2.5417464519 to convert [e a0] to [Debye]
 Dipole X            :         -0.0049694            0.0000000           -0.0049694
 Dipole Y            :          0.0000000            0.0000000            0.0000000
 Dipole Z            :         -0.0000000            0.0000000           -0.0000000
 Magnitude           :                                                    0.0049694

 ------------------------------------------------------------------------------------

*** tstop() called on PNNL-KM3X724WWL at Tue Jul 28 16:59:56 2026
Module time:
	user time   =       0.94 seconds =       0.02 minutes
	system time =       0.18 seconds =       0.00 minutes
	total time  =          0 seconds =       0.00 minutes
Total time:
	user time   =       9.31 seconds =       0.16 minutes
	system time =       1.92 seconds =       0.03 minutes
	total time  =          4 seconds =       0.07 minutes

Scratch directory: /tmp/
   => Libint2 <=

    Primary   basis highest AM E, G, H:  7, 6, 3
    Auxiliary basis highest AM E, G, H:  7, 7, 4
    Onebody   basis highest AM E, G, H:  -, -, -
    Solid Harmonics ordering:            Gaussian

*** tstart() called on PNNL-KM3X724WWL
*** at Tue Jul 28 16:59:56 2026

   => Loading Basis Set <=

    Name: DEF2-SVPD
    Role: ORBITAL
    Keyword: BASIS
    atoms 1 entry O          line   149 file /opt/miniconda3/envs/rsfff/share/psi4/basis/def2-svpd.gbs 


         ---------------------------------------------------------
                                   SCF
               by Justin Turney, Rob Parrish, Andy Simmonett
                          and Daniel G. A. Smith
                              UKS Reference
                       14 Threads,   7629 MiB Core
         ---------------------------------------------------------

  ==> Geometry <==

    Molecular point group: c1
    Geometry (in Angstrom), charge = 0, multiplicity = 3:

       Center              X                  Y                   Z               Mass       
    ------------   -----------------  -----------------  -----------------  -----------------
         O            0.000000000000     0.000000000000     0.000000000000    15.994914619570

  Running in c1 symmetry.

  Rotational constants: A = ************  B = ************  C = ************ [cm^-1]
  Rotational constants: A = ************  B = ************  C = ************ [MHz]
  Nuclear repulsion =    0.000000000000000

  Charge       = 0
  Multiplicity = 3
  Electrons    = 8
  Nalpha       = 5
  Nbeta        = 3

  ==> Algorithm <==

  SCF Algorithm Type is DF.
  DIIS enabled.
  MOM disabled.
  Fractional occupation disabled.
  Guess Type is CORE.
  Energy threshold   = 1.00e-09
  Density threshold  = 1.00e-09
  Integral threshold = 1.00e-12

  ==> Primary Basis <==

  Basis Set: DEF2-SVPD
    Blend: DEF2-SVPD
    Number of shells: 9
    Number of basis functions: 23
    Number of Cartesian functions: 25
    Spherical Harmonics?: true
    Max angular momentum: 2

  ==> DFT Potential <==

   => LibXC <=

    Version 7.0.0
    S. Lehtola, C. Steigemann, M. J.T. Oliveira, and M. A.L. Marques.,  SoftwareX 7, 1–5 (2018) (10.1016/j.softx.2017.11.002)

   => Composite Functional: B3LYP <= 

    B3LYP Hyb-GGA Exchange-Correlation Functional

    P. J. Stephens, F. J. Devlin, C. F. Chabalowski, and M. J. Frisch.,  J. Phys. Chem. 98, 11623 (1994) (10.1021/j100096a001)

    Deriv               =              1
    GGA                 =           TRUE
    Meta                =          FALSE

    Exchange Hybrid     =           TRUE
    MP2 Hybrid          =          FALSE

   => Exchange Functionals <=

    0.0800   Slater exchange
    0.7200         Becke 88

   => Exact (HF) Exchange <=

    0.2000               HF 

   => Correlation Functionals <=

    0.1900   Vosko, Wilk & Nusair (VWN5_RPA)
    0.8100   Lee, Yang & Parr

   => LibXC Density Thresholds  <==

    XC_HYB_GGA_XC_B3LYP:  1.00E-15 

   => Molecular Quadrature <=

    Radial Scheme          =       TREUTLER
    Pruning Scheme         =           NONE
    Nuclear Scheme         =       TREUTLER

    Blocking Scheme        =         OCTREE
    BS radius alpha        =              1
    Pruning alpha          =              1
    Radial Points          =             75
    Spherical Points       =            302
    Total Points           =          22348
    Total Blocks           =            224
    Max Points             =            252
    Max Functions          =             23
    Weights Tolerance      =       1.00E-15

   => Loading Basis Set <=

    Name: (DEF2-SVPD AUX)
    Role: JKFIT
    Keyword: DF_BASIS_SCF
    atoms 1 entry O          line   318 file /opt/miniconda3/envs/rsfff/share/psi4/basis/def2-universal-jkfit.gbs 

  ==> Integral Setup <==

  DFHelper Memory: AOs need 0.001 GiB; user supplied 5.573 GiB. 
  SCF_SUBTYPE=INCORE selected. In-core MEM_DF algorithm will be used.
  Using in-core AOs.

  ==> MemDFJK: Density-Fitted J/K Matrices <==

    J tasked:                   Yes
    K tasked:                   Yes
    wK tasked:                   No
    OpenMP threads:              14
    Memory [MiB]:              5707
    Algorithm:                 Core
    Schwarz Cutoff:           1E-12
    Mask sparsity (%):       0.0000
    Fitting Condition:        1E-10

   => Auxiliary Basis Set <=

  Basis Set: (DEF2-SVPD AUX)
    Blend: DEF2-UNIVERSAL-JKFIT
    Number of shells: 25
    Number of basis functions: 77
    Number of Cartesian functions: 93
    Spherical Harmonics?: true
    Max angular momentum: 4

  Cached 100.0% of DFT collocation blocks in 0.015 [GiB].

  Perturbing V by -0.001000 mu(y).
  Minimum eigenvalue in the overlap matrix is 8.0241971007E-02.
  Reciprocal condition number of the overlap matrix is 3.3278560532E-02.
    Using symmetric orthogonalization.

  ==> Pre-Iterations <==

  SCF Guess: Core (One-Electron) Hamiltonian.

   -------------------------------------------------------
    Irrep   Nso     Nmo     Nalpha   Nbeta   Ndocc  Nsocc
   -------------------------------------------------------
     A         23      23       5       3       3       2
   -------------------------------------------------------
    Total      23      23       5       3       3       2
   -------------------------------------------------------

  ==> Iterations <==

                           Total Energy        Delta E     RMS |[F,P]|

   @DF-UKS iter   1:   -72.31941889726714   -7.23194e+01   7.89008e-02 ADIIS/DIIS
   @DF-UKS iter   2:   -71.25944544137602    1.05997e+00   9.52913e-02 ADIIS/DIIS
   @DF-UKS iter   3:   -75.00262150383396   -3.74318e+00   4.29100e-03 ADIIS/DIIS
   @DF-UKS iter   4:   -75.00908404496938   -6.46254e-03   7.05938e-04 ADIIS/DIIS
   @DF-UKS iter   5:   -75.00923794378002   -1.53899e-04   1.31556e-04 ADIIS/DIIS
   @DF-UKS iter   6:   -75.00924263880806   -4.69503e-06   1.06293e-05 DIIS
   @DF-UKS iter   7:   -75.00924266530103   -2.64930e-08   2.74012e-06 DIIS
   @DF-UKS iter   8:   -75.00924266768988   -2.38884e-09   3.71984e-07 DIIS
   @DF-UKS iter   9:   -75.00924266773421   -4.43379e-11   2.04568e-08 DIIS
   @DF-UKS iter  10:   -75.00924266773431   -9.94760e-14   7.94769e-10 DIIS
  Energy and wave function converged.


  ==> Post-Iterations <==

   Electrons on quadrature grid:
      Nalpha   =    5.0000000000 ; deviation = -5.581e-12
      Nbeta    =    3.0000000000 ; deviation = -5.555e-12
      Ntotal   =    8.0000000000 ; deviation = -1.114e-11 

   @Spin Contamination Metric:   3.773212395E-03
   @S^2 Expected:                2.000000000E+00
   @S^2 Observed:                2.003773212E+00
   @S   Expected:                1.000000000E+00
   @S   Observed:                1.000000000E+00

    Orbital Energies [Eh]
    ---------------------

    Alpha Occupied:                                                       

       1A    -19.294563     2A     -1.008437     3A     -0.469305  
       4A     -0.469305     5A     -0.394125  

    Alpha Virtual:                                                        

       6A      0.071657     7A      0.113906     8A      0.114007  
       9A      0.119328    10A      0.416902    11A      0.416902  
      12A      0.427218    13A      0.427222    14A      0.431877  
      15A      0.991080    16A      0.991090    17A      1.035438  
      18A      1.067096    19A      2.626158    20A      2.626158  
      21A      2.681581    22A      2.681581    23A      2.701230  

    Beta Occupied:                                                        

       1A    -19.242964     2A     -0.850959     3A     -0.341440  

    Beta Virtual:                                                         

       4A     -0.192321     5A     -0.192321     6A      0.084286  
       7A      0.123151     8A      0.137476     9A      0.137570  
      10A      0.436913    11A      0.436917    12A      0.440570  
      13A      0.441421    14A      0.441425    15A      1.063422  
      16A      1.095753    17A      1.095773    18A      1.131880  
      19A      2.770433    20A      2.770433    21A      2.778006  
      22A      2.794630    23A      2.794630  

    Final Occupation by Irrep:
              A 
    DOCC [     3 ]
    SOCC [     2 ]
    NA   [     5 ]
    NB   [     3 ]

  @DF-UKS Final Energy:   -75.00924266773431

   => Energetics <=

    Nuclear Repulsion Energy =              0.0000000000000000
    One-Electron Energy =                -103.0413527696067462
    Two-Electron Energy =                  34.8555150743627422
    DFT Exchange-Correlation Energy =      -6.8234049724903079
    Empirical Dispersion Energy =           0.0000000000000000
    VV10 Nonlocal Energy =                  0.0000000000000000
    Total Energy =                        -75.0092426677343127

  UHF NO Occupations:
  HONO-2 :    3  A 1.9988743
  HONO-1 :    4  A 1.0000000
  HONO-0 :    5  A 1.0000000
  LUNO+0 :    6  A 0.0011257
  LUNO+1 :    7  A 0.0007616
  LUNO+2 :    8  A 0.0000002
  LUNO+3 :    9  A 0.0000000


Computation Completed


Properties will be evaluated at   0.000000,   0.000000,   0.000000 [a0]

Properties computed using the SCF density matrix


 Multipole Moments:

 ------------------------------------------------------------------------------------
     Multipole            Electronic (a.u.)      Nuclear  (a.u.)        Total (a.u.)
 ------------------------------------------------------------------------------------

 L = 1.  Multiply by 2.5417464519 to convert [e a0] to [Debye]
 Dipole X            :         -0.0000000            0.0000000           -0.0000000
 Dipole Y            :          0.0049694            0.0000000            0.0049694
 Dipole Z            :         -0.0000000            0.0000000           -0.0000000
 Magnitude           :                                                    0.0049694

 ------------------------------------------------------------------------------------

*** tstop() called on PNNL-KM3X724WWL at Tue Jul 28 16:59:56 2026
Module time:
	user time   =       0.34 seconds =       0.01 minutes
	system time =       0.08 seconds =       0.00 minutes
	total time  =          0 seconds =       0.00 minutes
Total time:
	user time   =       9.67 seconds =       0.16 minutes
	system time =       2.00 seconds =       0.03 minutes
	total time  =          4 seconds =       0.07 minutes

Scratch directory: /tmp/
   => Libint2 <=

    Primary   basis highest AM E, G, H:  7, 6, 3
    Auxiliary basis highest AM E, G, H:  7, 7, 4
    Onebody   basis highest AM E, G, H:  -, -, -
    Solid Harmonics ordering:            Gaussian

*** tstart() called on PNNL-KM3X724WWL
*** at Tue Jul 28 16:59:56 2026

   => Loading Basis Set <=

    Name: DEF2-SVPD
    Role: ORBITAL
    Keyword: BASIS
    atoms 1 entry O          line   149 file /opt/miniconda3/envs/rsfff/share/psi4/basis/def2-svpd.gbs 


         ---------------------------------------------------------
                                   SCF
               by Justin Turney, Rob Parrish, Andy Simmonett
                          and Daniel G. A. Smith
                              UKS Reference
                       14 Threads,   7629 MiB Core
         ---------------------------------------------------------

  ==> Geometry <==

    Molecular point group: c1
    Geometry (in Angstrom), charge = 0, multiplicity = 3:

       Center              X                  Y                   Z               Mass       
    ------------   -----------------  -----------------  -----------------  -----------------
         O            0.000000000000     0.000000000000     0.000000000000    15.994914619570

  Running in c1 symmetry.

  Rotational constants: A = ************  B = ************  C = ************ [cm^-1]
  Rotational constants: A = ************  B = ************  C = ************ [MHz]
  Nuclear repulsion =    0.000000000000000

  Charge       = 0
  Multiplicity = 3
  Electrons    = 8
  Nalpha       = 5
  Nbeta        = 3

  ==> Algorithm <==

  SCF Algorithm Type is DF.
  DIIS enabled.
  MOM disabled.
  Fractional occupation disabled.
  Guess Type is CORE.
  Energy threshold   = 1.00e-09
  Density threshold  = 1.00e-09
  Integral threshold = 1.00e-12

  ==> Primary Basis <==

  Basis Set: DEF2-SVPD
    Blend: DEF2-SVPD
    Number of shells: 9
    Number of basis functions: 23
    Number of Cartesian functions: 25
    Spherical Harmonics?: true
    Max angular momentum: 2

  ==> DFT Potential <==

   => LibXC <=

    Version 7.0.0
    S. Lehtola, C. Steigemann, M. J.T. Oliveira, and M. A.L. Marques.,  SoftwareX 7, 1–5 (2018) (10.1016/j.softx.2017.11.002)

   => Composite Functional: B3LYP <= 

    B3LYP Hyb-GGA Exchange-Correlation Functional

    P. J. Stephens, F. J. Devlin, C. F. Chabalowski, and M. J. Frisch.,  J. Phys. Chem. 98, 11623 (1994) (10.1021/j100096a001)

    Deriv               =              1
    GGA                 =           TRUE
    Meta                =          FALSE

    Exchange Hybrid     =           TRUE
    MP2 Hybrid          =          FALSE

   => Exchange Functionals <=

    0.0800   Slater exchange
    0.7200         Becke 88

   => Exact (HF) Exchange <=

    0.2000               HF 

   => Correlation Functionals <=

    0.1900   Vosko, Wilk & Nusair (VWN5_RPA)
    0.8100   Lee, Yang & Parr

   => LibXC Density Thresholds  <==

    XC_HYB_GGA_XC_B3LYP:  1.00E-15 

   => Molecular Quadrature <=

    Radial Scheme          =       TREUTLER
    Pruning Scheme         =           NONE
    Nuclear Scheme         =       TREUTLER

    Blocking Scheme        =         OCTREE
    BS radius alpha        =              1
    Pruning alpha          =              1
    Radial Points          =             75
    Spherical Points       =            302
    Total Points           =          22348
    Total Blocks           =            224
    Max Points             =            252
    Max Functions          =             23
    Weights Tolerance      =       1.00E-15

   => Loading Basis Set <=

    Name: (DEF2-SVPD AUX)
    Role: JKFIT
    Keyword: DF_BASIS_SCF
    atoms 1 entry O          line   318 file /opt/miniconda3/envs/rsfff/share/psi4/basis/def2-universal-jkfit.gbs 

  ==> Integral Setup <==

  DFHelper Memory: AOs need 0.001 GiB; user supplied 5.573 GiB. 
  SCF_SUBTYPE=INCORE selected. In-core MEM_DF algorithm will be used.
  Using in-core AOs.

  ==> MemDFJK: Density-Fitted J/K Matrices <==

    J tasked:                   Yes
    K tasked:                   Yes
    wK tasked:                   No
    OpenMP threads:              14
    Memory [MiB]:              5707
    Algorithm:                 Core
    Schwarz Cutoff:           1E-12
    Mask sparsity (%):       0.0000
    Fitting Condition:        1E-10

   => Auxiliary Basis Set <=

  Basis Set: (DEF2-SVPD AUX)
    Blend: DEF2-UNIVERSAL-JKFIT
    Number of shells: 25
    Number of basis functions: 77
    Number of Cartesian functions: 93
    Spherical Harmonics?: true
    Max angular momentum: 4

  Cached 100.0% of DFT collocation blocks in 0.015 [GiB].

  Perturbing V by 0.001000 mu(y).
  Minimum eigenvalue in the overlap matrix is 8.0241971007E-02.
  Reciprocal condition number of the overlap matrix is 3.3278560532E-02.
    Using symmetric orthogonalization.

  ==> Pre-Iterations <==

  SCF Guess: Core (One-Electron) Hamiltonian.

   -------------------------------------------------------
    Irrep   Nso     Nmo     Nalpha   Nbeta   Ndocc  Nsocc
   -------------------------------------------------------
     A         23      23       5       3       3       2
   -------------------------------------------------------
    Total      23      23       5       3       3       2
   -------------------------------------------------------

  ==> Iterations <==

                           Total Energy        Delta E     RMS |[F,P]|

   @DF-UKS iter   1:   -72.31941888154131   -7.23194e+01   7.89010e-02 ADIIS/DIIS
   @DF-UKS iter   2:   -71.25953052872946    1.05989e+00   9.52919e-02 ADIIS/DIIS
   @DF-UKS iter   3:   -75.00262150699716   -3.74309e+00   4.29105e-03 ADIIS/DIIS
   @DF-UKS iter   4:   -75.00908403396025   -6.46253e-03   7.05996e-04 ADIIS/DIIS
   @DF-UKS iter   5:   -75.00923794099988   -1.53907e-04   1.31586e-04 ADIIS/DIIS
   @DF-UKS iter   6:   -75.00924263746681   -4.69647e-06   1.06305e-05 DIIS
   @DF-UKS iter   7:   -75.00924266396191   -2.64951e-08   2.73900e-06 DIIS
   @DF-UKS iter   8:   -75.00924266634915   -2.38724e-09   3.71654e-07 DIIS
   @DF-UKS iter   9:   -75.00924266639346   -4.43094e-11   2.05021e-08 DIIS
   @DF-UKS iter  10:   -75.00924266639359   -1.27898e-13   1.63137e-09 DIIS
   @DF-UKS iter  11:   -75.00924266639362   -2.84217e-14   1.49226e-09 DIIS
   @DF-UKS iter  12:   -75.00924266639363   -1.42109e-14   1.49110e-09 DIIS
   @DF-UKS iter  13:   -75.00924266639365   -1.42109e-14   1.49106e-09 DIIS
   @DF-UKS iter  14:   -75.00924266639369   -4.26326e-14   1.49105e-09 DIIS
   @DF-UKS iter  15:   -75.00924266639375   -5.68434e-14   1.49100e-09 DIIS
   @DF-UKS iter  16:   -75.00924266639407   -3.26850e-13   1.49087e-09 DIIS
   @DF-UKS iter  17:   -75.00924266639747   -3.39639e-12   1.48963e-09 DIIS
   @DF-UKS iter  18:   -75.00924266640979   -1.23208e-11   1.53086e-09 DIIS
   @DF-UKS iter  19:   -75.00924266681166   -4.01869e-10   5.15528e-07 DIIS
   @DF-UKS iter  20:   -75.00924266680931    2.34479e-12   8.79915e-07 DIIS
   @DF-UKS iter  21:   -75.00924266460754    2.20177e-09   3.19557e-06 DIIS
   @DF-UKS iter  22:   -75.00924266391199    6.95550e-10   3.58328e-06 DIIS
   @DF-UKS iter  23:   -75.00924266398270   -7.07132e-11   3.54607e-06 DIIS
   @DF-UKS iter  24:   -75.00924266501352   -1.03081e-09   2.94201e-06 DIIS
   @DF-UKS iter  25:   -75.00924266639154   -1.37803e-09   1.74841e-06 DIIS
   @DF-UKS iter  26:   -75.00924266655468   -1.63141e-10   1.51480e-06 DIIS
   @DF-UKS iter  27:   -75.00924266682691   -2.72223e-10   6.59520e-07 DIIS
   @DF-UKS iter  28:   -75.00924266642377    4.03134e-10   4.27215e-09 DIIS
   @DF-UKS iter  29:   -75.00924266658549   -1.61720e-10   7.42130e-08 DIIS
   @DF-UKS iter  30:   -75.00924266660071   -1.52198e-11   8.75883e-08 DIIS
   @DF-UKS iter  31:   -75.00924266670651   -1.05800e-10   1.21908e-06 DIIS
   @DF-UKS iter  32:   -75.00924266669190    1.46088e-11   1.25563e-06 DIIS
   @DF-UKS iter  33:   -75.00924266671531   -2.34053e-11   1.20153e-06 DIIS
   @DF-UKS iter  34:   -75.00924266677377   -5.84635e-11   1.03328e-06 DIIS
   @DF-UKS iter  35:   -75.00924266682387   -5.00933e-11   6.35317e-07 DIIS
   @DF-UKS iter  36:   -75.00924266665574    1.68129e-10   1.44449e-07 DIIS
   @DF-UKS iter  37:   -75.00924266638809    2.67647e-10   2.82700e-09 DIIS
   @DF-UKS iter  38:   -75.00924266651268   -1.24587e-10   2.93564e-08 DIIS
   @DF-UKS iter  39:   -75.00924266651735   -4.67537e-12   3.20930e-08 DIIS
   @DF-UKS iter  40:   -75.00924263289954    3.36178e-08   1.11376e-05 DIIS
   @DF-UKS iter  41:   -75.00924262830600    4.59355e-09   1.18470e-05 DIIS
   @DF-UKS iter  42:   -75.00924262812728    1.78716e-10   1.18738e-05 DIIS
   @DF-UKS iter  43:   -75.00924262773216    3.95119e-10   1.19327e-05 DIIS
   @DF-UKS iter  44:   -75.00924262651613    1.21604e-09   1.21121e-05 DIIS
   @DF-UKS iter  45:   -75.00924262208186    4.43427e-09   1.27446e-05 DIIS
   @DF-UKS iter  46:   -75.00924264110580   -1.90239e-08   9.74059e-06 DIIS
   @DF-UKS iter  47:   -75.00924266637723   -2.52714e-08   1.76424e-06 DIIS
   @DF-UKS iter  48:   -75.00924266650523   -1.27997e-10   2.58626e-08 DIIS
   @DF-UKS iter  49:   -75.00924266651148   -6.25278e-12   2.83317e-08 DIIS
   @DF-UKS iter  50:   -75.00924266652343   -1.19513e-11   3.35145e-08 DIIS
   @DF-UKS iter  51:   -75.00924266649207    3.13634e-11   2.00131e-08 DIIS
   @DF-UKS iter  52:   -75.00924266649230   -2.27374e-13   1.98148e-08 DIIS
   @DF-UKS iter  53:   -75.00924266649213    1.70530e-13   1.98215e-08 DIIS
   @DF-UKS iter  54:   -75.00924266649220   -7.10543e-14   1.98305e-08 DIIS
   @DF-UKS iter  55:   -75.00924266649200    1.98952e-13   1.97804e-08 DIIS
   @DF-UKS iter  56:   -75.00924266649055    1.44951e-12   1.92501e-08 DIIS
   @DF-UKS iter  57:   -75.00924266639021    1.00343e-10   6.14606e-09 DIIS
   @DF-UKS iter  58:   -75.00924266675807   -3.67862e-10   2.92720e-07 DIIS
   @DF-UKS iter  59:   -75.00924266625341    5.04656e-10   4.43016e-08 DIIS
   @DF-UKS iter  60:   -75.00924266682767   -5.74261e-10   5.80292e-07 DIIS
   @DF-UKS iter  61:   -75.00924265991024    6.91743e-09   5.25094e-06 DIIS
   @DF-UKS iter  62:   -75.00924265492088    4.98936e-09   6.74979e-06 DIIS
   @DF-UKS iter  63:   -75.00924265519156   -2.70674e-10   6.67745e-06 DIIS
   @DF-UKS iter  64:   -75.00924265524988   -5.83213e-11   6.66177e-06 DIIS
   @DF-UKS iter  65:   -75.00924265519333    5.65450e-11   6.67701e-06 DIIS
   @DF-UKS iter  66:   -75.00924265477327    4.20059e-10   6.78904e-06 DIIS
   @DF-UKS iter  67:   -75.00924265667697   -1.90370e-09   6.26480e-06 DIIS
   @DF-UKS iter  68:   -75.00924266599867   -9.32170e-09   2.19064e-06 DIIS
   @DF-UKS iter  69:   -75.00924266636673   -3.68061e-10   2.25992e-08 DIIS
   @DF-UKS iter  70:   -75.00924266645866   -9.19300e-11   3.57706e-08 DIIS
   @DF-UKS iter  71:   -75.00924265886580    7.59286e-09   5.59426e-06 DIIS
   @DF-UKS iter  72:   -75.00924266050734   -1.64154e-09   5.03340e-06 DIIS
   @DF-UKS iter  73:   -75.00924263808980    2.24175e-08   1.02758e-05 DIIS
   @DF-UKS iter  74:   -75.00924263708758    1.00222e-09   1.04480e-05 DIIS
   @DF-UKS iter  75:   -75.00924263714333   -5.57492e-11   1.04385e-05 DIIS
   @DF-UKS iter  76:   -75.00924263723178   -8.84484e-11   1.04234e-05 DIIS
   @DF-UKS iter  77:   -75.00924263715694    7.48344e-11   1.04362e-05 DIIS
   @DF-UKS iter  78:   -75.00924264601109   -8.85414e-09   8.79685e-06 DIIS
   @DF-UKS iter  79:   -75.00924266372422   -1.77131e-08   3.67192e-06 DIIS
   @DF-UKS iter  80:   -75.00924266645356   -2.72934e-09   4.91220e-08 DIIS
   @DF-UKS iter  81:   -75.00924266643794    1.56177e-11   5.85381e-08 DIIS
   @DF-UKS iter  82:   -75.00924266667066   -2.32717e-10   4.01139e-08 DIIS
   @DF-UKS iter  83:   -75.00924262715287    3.95178e-08   1.20140e-05 DIIS
   @DF-UKS iter  84:   -75.00924258971104    3.74418e-08   1.66278e-05 DIIS
   @DF-UKS iter  85:   -75.00924258567628    4.03476e-09   1.70491e-05 DIIS
   @DF-UKS iter  86:   -75.00924258422647    1.44981e-09   1.71984e-05 DIIS
   @DF-UKS iter  87:   -75.00924258209358    2.13289e-09   1.74156e-05 DIIS
   @DF-UKS iter  88:   -75.00924262342807   -4.13345e-08   1.25509e-05 DIIS
   @DF-UKS iter  89:   -75.00924263502354   -1.15955e-08   1.07920e-05 DIIS
   @DF-UKS iter  90:   -75.00924266508150   -3.00580e-08   2.96402e-06 DIIS
   @DF-UKS iter  91:   -75.00924266403027    1.05123e-09   3.57467e-06 DIIS
   @DF-UKS iter  92:   -75.00924266670233   -2.67207e-09   3.01035e-08 DIIS
   @DF-UKS iter  93:   -75.00924266677232   -6.99885e-11   7.19216e-08 DIIS
   @DF-UKS iter  94:   -75.00924266490036    1.87197e-09   3.15275e-06 DIIS
   @DF-UKS iter  95:   -75.00924265413268    1.07677e-08   6.96958e-06 DIIS
   @DF-UKS iter  96:   -75.00924265447047   -3.37792e-10   6.88343e-06 DIIS
   @DF-UKS iter  97:   -75.00924265408526    3.85214e-10   6.98199e-06 DIIS
   @DF-UKS iter  98:   -75.00924266732373   -1.32385e-08   1.05172e-06 DIIS
   @DF-UKS iter  99:   -75.00924263715760    3.01661e-08   1.03995e-05 DIIS
   @DF-UKS iter 100:   -75.00924262550589    1.16517e-08   1.22174e-05 DIIS
   @DF-UKS iter 101:   -75.00924263024086   -4.73497e-09   1.15180e-05 DIIS
   @DF-UKS iter 102:   -75.00924263021636    2.44995e-11   1.15220e-05 DIIS
   @DF-UKS iter 103:   -75.00924266737097   -3.71546e-08   6.85386e-07 DIIS
   @DF-UKS iter 104:   -75.00924266754183   -1.70857e-10   9.91959e-08 DIIS
   @DF-UKS iter 105:   -75.00924266757175   -2.99281e-11   1.79848e-07 DIIS
   @DF-UKS iter 106:   -75.00924266764964   -7.78897e-11   5.94296e-08 DIIS
   @DF-UKS iter 107:   -75.00924266758643    6.32099e-11   8.76723e-07 DIIS
   @DF-UKS iter 108:   -75.00924266776930   -1.82865e-10   2.26070e-07 DIIS
   @DF-UKS iter 109:   -75.00924266759229    1.77010e-10   8.80228e-07 DIIS
   @DF-UKS iter 110:   -75.00924266757592    1.63709e-11   9.12360e-07 DIIS
   @DF-UKS iter 111:   -75.00924266757858   -2.65743e-12   9.07134e-07 DIIS
   @DF-UKS iter 112:   -75.00924266757919   -6.11067e-13   9.06139e-07 DIIS
   @DF-UKS iter 113:   -75.00924266757065    8.54072e-12   9.22544e-07 DIIS
   @DF-UKS iter 114:   -75.00924266761189   -4.12399e-11   8.39683e-07 DIIS
   @DF-UKS iter 115:   -75.00924266765074   -3.88525e-11   7.53506e-07 DIIS
   @DF-UKS iter 116:   -75.00924266779033   -1.39593e-10   6.30515e-08 DIIS
   @DF-UKS iter 117:   -75.00924266778637    3.96483e-12   1.27487e-08 DIIS
   @DF-UKS iter 118:   -75.00924266778829   -1.91847e-12   3.74370e-09 DIIS
   @DF-UKS iter 119:   -75.00924266778856   -2.70006e-13   2.32046e-09 DIIS
   @DF-UKS iter 120:   -75.00924266780645   -1.78915e-11   6.81040e-08 DIIS
   @DF-UKS iter 121:   -75.00924266781037   -3.92220e-12   1.95011e-08 DIIS
   @DF-UKS iter 122:   -75.00924266781074   -3.69482e-13   1.35662e-08 DIIS
   @DF-UKS iter 123:   -75.00924266781084   -9.94760e-14   6.96327e-09 DIIS
   @DF-UKS iter 124:   -75.00924266781080    4.26326e-14   6.99557e-10 DIIS
  Energy and wave function converged.


  ==> Post-Iterations <==

   Electrons on quadrature grid:
      Nalpha   =    5.0000000000 ; deviation = -5.577e-12
      Nbeta    =    3.0000000000 ; deviation = -5.559e-12
      Ntotal   =    8.0000000000 ; deviation = -1.114e-11 

   @Spin Contamination Metric:   3.773213040E-03
   @S^2 Expected:                2.000000000E+00
   @S^2 Observed:                2.003773213E+00
   @S   Expected:                1.000000000E+00
   @S   Observed:                1.000000000E+00

    Orbital Energies [Eh]
    ---------------------

    Alpha Occupied:                                                       

       1A    -19.294563     2A     -1.008437     3A     -0.469305  
       4A     -0.469305     5A     -0.394125  

    Alpha Virtual:                                                        

       6A      0.071657     7A      0.113906     8A      0.114007  
       9A      0.119328    10A      0.416902    11A      0.416902  
      12A      0.427218    13A      0.427222    14A      0.431877  
      15A      0.991080    16A      0.991090    17A      1.035438  
      18A      1.067096    19A      2.626158    20A      2.626158  
      21A      2.681581    22A      2.681581    23A      2.701230  

    Beta Occupied:                                                        

       1A    -19.242964     2A     -0.850959     3A     -0.341440  

    Beta Virtual:                                                         

       4A     -0.192321     5A     -0.192321     6A      0.084286  
       7A      0.123151     8A      0.137479     9A      0.137570  
      10A      0.436913    11A      0.436917    12A      0.440570  
      13A      0.441421    14A      0.441425    15A      1.063422  
      16A      1.095753    17A      1.095774    18A      1.131880  
      19A      2.770433    20A      2.770433    21A      2.778006  
      22A      2.794630    23A      2.794630  

    Final Occupation by Irrep:
              A 
    DOCC [     3 ]
    SOCC [     2 ]
    NA   [     5 ]
    NB   [     3 ]

  @DF-UKS Final Energy:   -75.00924266781080

   => Energetics <=

    Nuclear Repulsion Energy =              0.0000000000000000
    One-Electron Energy =                -103.0413527806805405
    Two-Electron Energy =                  34.8555150876560091
    DFT Exchange-Correlation Energy =      -6.8234049747862731
    Empirical Dispersion Energy =           0.0000000000000000
    VV10 Nonlocal Energy =                  0.0000000000000000
    Total Energy =                        -75.0092426678107955

  UHF NO Occupations:
  HONO-2 :    3  A 1.9988743
  HONO-1 :    4  A 1.0000000
  HONO-0 :    5  A 1.0000000
  LUNO+0 :    6  A 0.0011257
  LUNO+1 :    7  A 0.0007616
  LUNO+2 :    8  A 0.0000002
  LUNO+3 :    9  A 0.0000000


Computation Completed


Properties will be evaluated at   0.000000,   0.000000,   0.000000 [a0]

Properties computed using the SCF density matrix


 Multipole Moments:

 ------------------------------------------------------------------------------------
     Multipole            Electronic (a.u.)      Nuclear  (a.u.)        Total (a.u.)
 ------------------------------------------------------------------------------------

 L = 1.  Multiply by 2.5417464519 to convert [e a0] to [Debye]
 Dipole X            :         -0.0000000            0.0000000           -0.0000000
 Dipole Y            :         -0.0049694            0.0000000           -0.0049694
 Dipole Z            :          0.0000000            0.0000000            0.0000000
 Magnitude           :                                                    0.0049694

 ------------------------------------------------------------------------------------

*** tstop() called on PNNL-KM3X724WWL at Tue Jul 28 16:59:57 2026
Module time:
	user time   =       5.07 seconds =       0.08 minutes
	system time =       0.68 seconds =       0.01 minutes
	total time  =          1 seconds =       0.02 minutes
Total time:
	user time   =      14.76 seconds =       0.25 minutes
	system time =       2.68 seconds =       0.04 minutes
	total time  =          5 seconds =       0.08 minutes

Scratch directory: /tmp/
   => Libint2 <=

    Primary   basis highest AM E, G, H:  7, 6, 3
    Auxiliary basis highest AM E, G, H:  7, 7, 4
    Onebody   basis highest AM E, G, H:  -, -, -
    Solid Harmonics ordering:            Gaussian

*** tstart() called on PNNL-KM3X724WWL
*** at Tue Jul 28 16:59:57 2026

   => Loading Basis Set <=

    Name: DEF2-SVPD
    Role: ORBITAL
    Keyword: BASIS
    atoms 1 entry O          line   149 file /opt/miniconda3/envs/rsfff/share/psi4/basis/def2-svpd.gbs 


         ---------------------------------------------------------
                                   SCF
               by Justin Turney, Rob Parrish, Andy Simmonett
                          and Daniel G. A. Smith
                              UKS Reference
                       14 Threads,   7629 MiB Core
         ---------------------------------------------------------

  ==> Geometry <==

    Molecular point group: c1
    Geometry (in Angstrom), charge = 0, multiplicity = 3:

       Center              X                  Y                   Z               Mass       
    ------------   -----------------  -----------------  -----------------  -----------------
         O            0.000000000000     0.000000000000     0.000000000000    15.994914619570

  Running in c1 symmetry.

  Rotational constants: A = ************  B = ************  C = ************ [cm^-1]
  Rotational constants: A = ************  B = ************  C = ************ [MHz]
  Nuclear repulsion =    0.000000000000000

  Charge       = 0
  Multiplicity = 3
  Electrons    = 8
  Nalpha       = 5
  Nbeta        = 3

  ==> Algorithm <==

  SCF Algorithm Type is DF.
  DIIS enabled.
  MOM disabled.
  Fractional occupation disabled.
  Guess Type is CORE.
  Energy threshold   = 1.00e-09
  Density threshold  = 1.00e-09
  Integral threshold = 1.00e-12

  ==> Primary Basis <==

  Basis Set: DEF2-SVPD
    Blend: DEF2-SVPD
    Number of shells: 9
    Number of basis functions: 23
    Number of Cartesian functions: 25
    Spherical Harmonics?: true
    Max angular momentum: 2

  ==> DFT Potential <==

   => LibXC <=

    Version 7.0.0
    S. Lehtola, C. Steigemann, M. J.T. Oliveira, and M. A.L. Marques.,  SoftwareX 7, 1–5 (2018) (10.1016/j.softx.2017.11.002)

   => Composite Functional: B3LYP <= 

    B3LYP Hyb-GGA Exchange-Correlation Functional

    P. J. Stephens, F. J. Devlin, C. F. Chabalowski, and M. J. Frisch.,  J. Phys. Chem. 98, 11623 (1994) (10.1021/j100096a001)

    Deriv               =              1
    GGA                 =           TRUE
    Meta                =          FALSE

    Exchange Hybrid     =           TRUE
    MP2 Hybrid          =          FALSE

   => Exchange Functionals <=

    0.0800   Slater exchange
    0.7200         Becke 88

   => Exact (HF) Exchange <=

    0.2000               HF 

   => Correlation Functionals <=

    0.1900   Vosko, Wilk & Nusair (VWN5_RPA)
    0.8100   Lee, Yang & Parr

   => LibXC Density Thresholds  <==

    XC_HYB_GGA_XC_B3LYP:  1.00E-15 

   => Molecular Quadrature <=

    Radial Scheme          =       TREUTLER
    Pruning Scheme         =           NONE
    Nuclear Scheme         =       TREUTLER

    Blocking Scheme        =         OCTREE
    BS radius alpha        =              1
    Pruning alpha          =              1
    Radial Points          =             75
    Spherical Points       =            302
    Total Points           =          22348
    Total Blocks           =            224
    Max Points             =            252
    Max Functions          =             23
    Weights Tolerance      =       1.00E-15

   => Loading Basis Set <=

    Name: (DEF2-SVPD AUX)
    Role: JKFIT
    Keyword: DF_BASIS_SCF
    atoms 1 entry O          line   318 file /opt/miniconda3/envs/rsfff/share/psi4/basis/def2-universal-jkfit.gbs 

  ==> Integral Setup <==

  DFHelper Memory: AOs need 0.001 GiB; user supplied 5.573 GiB. 
  SCF_SUBTYPE=INCORE selected. In-core MEM_DF algorithm will be used.
  Using in-core AOs.

  ==> MemDFJK: Density-Fitted J/K Matrices <==

    J tasked:                   Yes
    K tasked:                   Yes
    wK tasked:                   No
    OpenMP threads:              14
    Memory [MiB]:              5707
    Algorithm:                 Core
    Schwarz Cutoff:           1E-12
    Mask sparsity (%):       0.0000
    Fitting Condition:        1E-10

   => Auxiliary Basis Set <=

  Basis Set: (DEF2-SVPD AUX)
    Blend: DEF2-UNIVERSAL-JKFIT
    Number of shells: 25
    Number of basis functions: 77
    Number of Cartesian functions: 93
    Spherical Harmonics?: true
    Max angular momentum: 4

  Cached 100.0% of DFT collocation blocks in 0.015 [GiB].

  Perturbing V by -0.001000 mu(z).
  Minimum eigenvalue in the overlap matrix is 8.0241971007E-02.
  Reciprocal condition number of the overlap matrix is 3.3278560532E-02.
    Using symmetric orthogonalization.

  ==> Pre-Iterations <==

  SCF Guess: Core (One-Electron) Hamiltonian.

   -------------------------------------------------------
    Irrep   Nso     Nmo     Nalpha   Nbeta   Ndocc  Nsocc
   -------------------------------------------------------
     A         23      23       5       3       3       2
   -------------------------------------------------------
    Total      23      23       5       3       3       2
   -------------------------------------------------------

  ==> Iterations <==

                           Total Energy        Delta E     RMS |[F,P]|

   @DF-UKS iter   1:   -72.31941890198269   -7.23194e+01   7.89011e-02 ADIIS/DIIS
   @DF-UKS iter   2:   -71.25953548182947    1.05988e+00   9.52905e-02 ADIIS/DIIS
   @DF-UKS iter   3:   -75.00261993625627   -3.74308e+00   4.29134e-03 ADIIS/DIIS
   @DF-UKS iter   4:   -75.00908407415463   -6.46414e-03   7.05836e-04 ADIIS/DIIS
   @DF-UKS iter   5:   -75.00923794695149   -1.53873e-04   1.31513e-04 ADIIS/DIIS
   @DF-UKS iter   6:   -75.00924263919215   -4.69224e-06   1.06287e-05 DIIS
   @DF-UKS iter   7:   -75.00924266568597   -2.64938e-08   2.73908e-06 DIIS
   @DF-UKS iter   8:   -75.00924266807340   -2.38742e-09   3.71939e-07 DIIS
   @DF-UKS iter   9:   -75.00924266811791   -4.45084e-11   2.13941e-08 DIIS
   @DF-UKS iter  10:   -75.00924266811819   -2.84217e-13   6.20697e-09 DIIS
   @DF-UKS iter  11:   -75.00924266811839   -1.98952e-13   6.17141e-09 DIIS
   @DF-UKS iter  12:   -75.00924266811852   -1.27898e-13   6.17095e-09 DIIS
   @DF-UKS iter  13:   -75.00924266811934   -8.24230e-13   6.17020e-09 DIIS
   @DF-UKS iter  14:   -75.00924266816327   -4.39258e-11   6.13074e-09 DIIS
   @DF-UKS iter  15:   -75.00924266859198   -4.28713e-10   2.43738e-08 DIIS
   @DF-UKS iter  16:   -75.00924267005522   -1.46323e-09   1.07175e-06 DIIS
   @DF-UKS iter  17:   -75.00924266996876    8.64588e-11   1.47997e-06 DIIS
   @DF-UKS iter  18:   -75.00924266831838    1.65038e-09   3.00422e-06 DIIS
   @DF-UKS iter  19:   -75.00924266826568    5.26938e-11   3.03559e-06 DIIS
   @DF-UKS iter  20:   -75.00924266834170   -7.60139e-11   2.99022e-06 DIIS
   @DF-UKS iter  21:   -75.00924266884236   -5.00663e-10   2.66562e-06 DIIS
   @DF-UKS iter  22:   -75.00924266945654   -6.14179e-10   2.16924e-06 DIIS
   @DF-UKS iter  23:   -75.00924266957107   -1.14525e-10   2.06450e-06 DIIS
   @DF-UKS iter  24:   -75.00924266897015    6.00920e-10   2.55147e-06 DIIS
   @DF-UKS iter  25:   -75.00924267052432   -1.55417e-09   7.88851e-07 DIIS
   @DF-UKS iter  26:   -75.00924267082570   -3.01384e-10   2.88072e-07 DIIS
   @DF-UKS iter  27:   -75.00924267085237   -2.66738e-11   1.02235e-07 DIIS
   @DF-UKS iter  28:   -75.00924267085945   -7.07701e-12   6.30556e-09 DIIS
   @DF-UKS iter  29:   -75.00924267086066   -1.20792e-12   4.39579e-09 DIIS
   @DF-UKS iter  30:   -75.00924267086071   -5.68434e-14   2.73025e-10 DIIS
  Energy and wave function converged.


  ==> Post-Iterations <==

   Electrons on quadrature grid:
      Nalpha   =    5.0000000000 ; deviation = -5.583e-12
      Nbeta    =    3.0000000000 ; deviation = -5.563e-12
      Ntotal   =    8.0000000000 ; deviation = -1.115e-11 

   @Spin Contamination Metric:   3.773215166E-03
   @S^2 Expected:                2.000000000E+00
   @S^2 Observed:                2.003773215E+00
   @S   Expected:                1.000000000E+00
   @S   Observed:                1.000000000E+00

    Orbital Energies [Eh]
    ---------------------

    Alpha Occupied:                                                       

       1A    -19.294563     2A     -1.008437     3A     -0.469305  
       4A     -0.469305     5A     -0.394125  

    Alpha Virtual:                                                        

       6A      0.071657     7A      0.113906     8A      0.114007  
       9A      0.119328    10A      0.416902    11A      0.416902  
      12A      0.427218    13A      0.427222    14A      0.431877  
      15A      0.991080    16A      0.991090    17A      1.035438  
      18A      1.067096    19A      2.626158    20A      2.626158  
      21A      2.681581    22A      2.681581    23A      2.701230  

    Beta Occupied:                                                        

       1A    -19.242964     2A     -0.850959     3A     -0.341440  

    Beta Virtual:                                                         

       4A     -0.192322     5A     -0.192320     6A      0.084285  
       7A      0.123151     8A      0.137488     9A      0.137552  
      10A      0.436912    11A      0.436917    12A      0.440571  
      13A      0.441421    14A      0.441427    15A      1.063422  
      16A      1.095749    17A      1.095775    18A      1.131879  
      19A      2.770433    20A      2.770433    21A      2.778006  
      22A      2.794630    23A      2.794630  

    Final Occupation by Irrep:
              A 
    DOCC [     3 ]
    SOCC [     2 ]
    NA   [     5 ]
    NB   [     3 ]

  @DF-UKS Final Energy:   -75.00924267086071

   => Energetics <=

    Nuclear Repulsion Energy =              0.0000000000000000
    One-Electron Energy =                -103.0413528098686982
    Two-Electron Energy =                  34.8555151220840784
    DFT Exchange-Correlation Energy =      -6.8234049830760952
    Empirical Dispersion Energy =           0.0000000000000000
    VV10 Nonlocal Energy =                  0.0000000000000000
    Total Energy =                        -75.0092426708607150

  UHF NO Occupations:
  HONO-2 :    3  A 1.9988743
  HONO-1 :    4  A 1.0000000
  HONO-0 :    5  A 1.0000000
  LUNO+0 :    6  A 0.0011257
  LUNO+1 :    7  A 0.0007616
  LUNO+2 :    8  A 0.0000002
  LUNO+3 :    9  A 0.0000000


Computation Completed


Properties will be evaluated at   0.000000,   0.000000,   0.000000 [a0]

Properties computed using the SCF density matrix


 Multipole Moments:

 ------------------------------------------------------------------------------------
     Multipole            Electronic (a.u.)      Nuclear  (a.u.)        Total (a.u.)
 ------------------------------------------------------------------------------------

 L = 1.  Multiply by 2.5417464519 to convert [e a0] to [Debye]
 Dipole X            :         -0.0000000            0.0000000           -0.0000000
 Dipole Y            :         -0.0000000            0.0000000           -0.0000000
 Dipole Z            :          0.0049694            0.0000000            0.0049694
 Magnitude           :                                                    0.0049694

 ------------------------------------------------------------------------------------

*** tstop() called on PNNL-KM3X724WWL at Tue Jul 28 16:59:57 2026
Module time:
	user time   =       1.02 seconds =       0.02 minutes
	system time =       0.19 seconds =       0.00 minutes
	total time  =          0 seconds =       0.00 minutes
Total time:
	user time   =      15.79 seconds =       0.26 minutes
	system time =       2.87 seconds =       0.05 minutes
	total time  =          5 seconds =       0.08 minutes

Scratch directory: /tmp/
   => Libint2 <=

    Primary   basis highest AM E, G, H:  7, 6, 3
    Auxiliary basis highest AM E, G, H:  7, 7, 4
    Onebody   basis highest AM E, G, H:  -, -, -
    Solid Harmonics ordering:            Gaussian

*** tstart() called on PNNL-KM3X724WWL
*** at Tue Jul 28 16:59:57 2026

   => Loading Basis Set <=

    Name: DEF2-SVPD
    Role: ORBITAL
    Keyword: BASIS
    atoms 1 entry O          line   149 file /opt/miniconda3/envs/rsfff/share/psi4/basis/def2-svpd.gbs 


         ---------------------------------------------------------
                                   SCF
               by Justin Turney, Rob Parrish, Andy Simmonett
                          and Daniel G. A. Smith
                              UKS Reference
                       14 Threads,   7629 MiB Core
         ---------------------------------------------------------

  ==> Geometry <==

    Molecular point group: c1
    Geometry (in Angstrom), charge = 0, multiplicity = 3:

       Center              X                  Y                   Z               Mass       
    ------------   -----------------  -----------------  -----------------  -----------------
         O            0.000000000000     0.000000000000     0.000000000000    15.994914619570

  Running in c1 symmetry.

  Rotational constants: A = ************  B = ************  C = ************ [cm^-1]
  Rotational constants: A = ************  B = ************  C = ************ [MHz]
  Nuclear repulsion =    0.000000000000000

  Charge       = 0
  Multiplicity = 3
  Electrons    = 8
  Nalpha       = 5
  Nbeta        = 3

  ==> Algorithm <==

  SCF Algorithm Type is DF.
  DIIS enabled.
  MOM disabled.
  Fractional occupation disabled.
  Guess Type is CORE.
  Energy threshold   = 1.00e-09
  Density threshold  = 1.00e-09
  Integral threshold = 1.00e-12

  ==> Primary Basis <==

  Basis Set: DEF2-SVPD
    Blend: DEF2-SVPD
    Number of shells: 9
    Number of basis functions: 23
    Number of Cartesian functions: 25
    Spherical Harmonics?: true
    Max angular momentum: 2

  ==> DFT Potential <==

   => LibXC <=

    Version 7.0.0
    S. Lehtola, C. Steigemann, M. J.T. Oliveira, and M. A.L. Marques.,  SoftwareX 7, 1–5 (2018) (10.1016/j.softx.2017.11.002)

   => Composite Functional: B3LYP <= 

    B3LYP Hyb-GGA Exchange-Correlation Functional

    P. J. Stephens, F. J. Devlin, C. F. Chabalowski, and M. J. Frisch.,  J. Phys. Chem. 98, 11623 (1994) (10.1021/j100096a001)

    Deriv               =              1
    GGA                 =           TRUE
    Meta                =          FALSE

    Exchange Hybrid     =           TRUE
    MP2 Hybrid          =          FALSE

   => Exchange Functionals <=

    0.0800   Slater exchange
    0.7200         Becke 88

   => Exact (HF) Exchange <=

    0.2000               HF 

   => Correlation Functionals <=

    0.1900   Vosko, Wilk & Nusair (VWN5_RPA)
    0.8100   Lee, Yang & Parr

   => LibXC Density Thresholds  <==

    XC_HYB_GGA_XC_B3LYP:  1.00E-15 

   => Molecular Quadrature <=

    Radial Scheme          =       TREUTLER
    Pruning Scheme         =           NONE
    Nuclear Scheme         =       TREUTLER

    Blocking Scheme        =         OCTREE
    BS radius alpha        =              1
    Pruning alpha          =              1
    Radial Points          =             75
    Spherical Points       =            302
    Total Points           =          22348
    Total Blocks           =            224
    Max Points             =            252
    Max Functions          =             23
    Weights Tolerance      =       1.00E-15

   => Loading Basis Set <=

    Name: (DEF2-SVPD AUX)
    Role: JKFIT
    Keyword: DF_BASIS_SCF
    atoms 1 entry O          line   318 file /opt/miniconda3/envs/rsfff/share/psi4/basis/def2-universal-jkfit.gbs 

  ==> Integral Setup <==

  DFHelper Memory: AOs need 0.001 GiB; user supplied 5.573 GiB. 
  SCF_SUBTYPE=INCORE selected. In-core MEM_DF algorithm will be used.
  Using in-core AOs.

  ==> MemDFJK: Density-Fitted J/K Matrices <==

    J tasked:                   Yes
    K tasked:                   Yes
    wK tasked:                   No
    OpenMP threads:              14
    Memory [MiB]:              5707
    Algorithm:                 Core
    Schwarz Cutoff:           1E-12
    Mask sparsity (%):       0.0000
    Fitting Condition:        1E-10

   => Auxiliary Basis Set <=

  Basis Set: (DEF2-SVPD AUX)
    Blend: DEF2-UNIVERSAL-JKFIT
    Number of shells: 25
    Number of basis functions: 77
    Number of Cartesian functions: 93
    Spherical Harmonics?: true
    Max angular momentum: 4

  Cached 100.0% of DFT collocation blocks in 0.015 [GiB].

  Perturbing V by 0.001000 mu(z).
  Minimum eigenvalue in the overlap matrix is 8.0241971007E-02.
  Reciprocal condition number of the overlap matrix is 3.3278560532E-02.
    Using symmetric orthogonalization.

  ==> Pre-Iterations <==

  SCF Guess: Core (One-Electron) Hamiltonian.

   -------------------------------------------------------
    Irrep   Nso     Nmo     Nalpha   Nbeta   Ndocc  Nsocc
   -------------------------------------------------------
     A         23      23       5       3       3       2
   -------------------------------------------------------
    Total      23      23       5       3       3       2
   -------------------------------------------------------

  ==> Iterations <==

                           Total Energy        Delta E     RMS |[F,P]|

   @DF-UKS iter   1:   -72.31941887553548   -7.23194e+01   7.89010e-02 ADIIS/DIIS
   @DF-UKS iter   2:   -71.25951020341135    1.05991e+00   9.52913e-02 ADIIS/DIIS
   @DF-UKS iter   3:   -75.00262118679866   -3.74311e+00   4.29109e-03 ADIIS/DIIS
   @DF-UKS iter   4:   -75.00908403449756   -6.46285e-03   7.05972e-04 ADIIS/DIIS
   @DF-UKS iter   5:   -75.00923793943711   -1.53905e-04   1.31572e-04 ADIIS/DIIS
   @DF-UKS iter   6:   -75.00924263514312   -4.69571e-06   1.06306e-05 DIIS
   @DF-UKS iter   7:   -75.00924266164013   -2.64970e-08   2.73941e-06 DIIS
   @DF-UKS iter   8:   -75.00924266402811   -2.38798e-09   3.71815e-07 DIIS
   @DF-UKS iter   9:   -75.00924266407262   -4.45084e-11   2.11704e-08 DIIS
   @DF-UKS iter  10:   -75.00924266407286   -2.41585e-13   5.52563e-09 DIIS
   @DF-UKS iter  11:   -75.00924266407293   -7.10543e-14   5.48651e-09 DIIS
   @DF-UKS iter  12:   -75.00924266407310   -1.70530e-13   5.48614e-09 DIIS
   @DF-UKS iter  13:   -75.00924266407347   -3.69482e-13   5.48587e-09 DIIS
   @DF-UKS iter  14:   -75.00924266409103   -1.75646e-11   5.47441e-09 DIIS
   @DF-UKS iter  15:   -75.00924266513233   -1.04130e-09   1.79919e-07 DIIS
   @DF-UKS iter  16:   -75.00924266593316   -8.00824e-10   8.39367e-07 DIIS
   @DF-UKS iter  17:   -75.00924266532687    6.06292e-10   2.74456e-07 DIIS
   @DF-UKS iter  18:   -75.00924266597345   -6.46580e-10   8.37143e-07 DIIS
   @DF-UKS iter  19:   -75.00924266609860   -1.25155e-10   1.70593e-06 DIIS
   @DF-UKS iter  20:   -75.00924265757929    8.51931e-09   6.00211e-06 DIIS
   @DF-UKS iter  21:   -75.00924265169861    5.88068e-09   7.55643e-06 DIIS
   @DF-UKS iter  22:   -75.00924265347433   -1.77572e-09   7.12371e-06 DIIS
   @DF-UKS iter  23:   -75.00924264863144    4.84289e-09   8.24839e-06 DIIS
   @DF-UKS iter  24:   -75.00924265211671   -3.48527e-09   7.45367e-06 DIIS
   @DF-UKS iter  25:   -75.00924266710521   -1.49885e-08   1.29887e-06 DIIS
   @DF-UKS iter  26:   -75.00924266650856    5.96657e-10   2.08835e-06 DIIS
   @DF-UKS iter  27:   -75.00924266679009   -2.81531e-10   1.83205e-06 DIIS
   @DF-UKS iter  28:   -75.00924266771344   -9.23350e-10   4.83323e-07 DIIS
   @DF-UKS iter  29:   -75.00924266775718   -4.37410e-11   3.93886e-07 DIIS
   @DF-UKS iter  30:   -75.00924266778439   -2.72138e-11   1.17497e-07 DIIS
   @DF-UKS iter  31:   -75.00924266778776   -3.36797e-12   2.56767e-07 DIIS
   @DF-UKS iter  32:   -75.00924266780711   -1.93552e-11   5.97084e-08 DIIS
   @DF-UKS iter  33:   -75.00924266781044   -3.32534e-12   3.27025e-08 DIIS
   @DF-UKS iter  34:   -75.00924266781078   -3.41061e-13   2.46967e-09 DIIS
   @DF-UKS iter  35:   -75.00924266781081   -2.84217e-14   8.60813e-10 DIIS
  Energy and wave function converged.


  ==> Post-Iterations <==

   Electrons on quadrature grid:
      Nalpha   =    5.0000000000 ; deviation = -5.581e-12
      Nbeta    =    3.0000000000 ; deviation = -5.563e-12
      Ntotal   =    8.0000000000 ; deviation = -1.114e-11 

   @Spin Contamination Metric:   3.773212968E-03
   @S^2 Expected:                2.000000000E+00
   @S^2 Observed:                2.003773213E+00
   @S   Expected:                1.000000000E+00
   @S   Observed:                1.000000000E+00

    Orbital Energies [Eh]
    ---------------------

    Alpha Occupied:                                                       

       1A    -19.294563     2A     -1.008437     3A     -0.469305  
       4A     -0.469305     5A     -0.394125  

    Alpha Virtual:                                                        

       6A      0.071657     7A      0.113906     8A      0.114007  
       9A      0.119328    10A      0.416902    11A      0.416902  
      12A      0.427218    13A      0.427222    14A      0.431877  
      15A      0.991080    16A      0.991090    17A      1.035438  
      18A      1.067096    19A      2.626158    20A      2.626158  
      21A      2.681581    22A      2.681581    23A      2.701230  

    Beta Occupied:                                                        

       1A    -19.242964     2A     -0.850959     3A     -0.341440  

    Beta Virtual:                                                         

       4A     -0.192321     5A     -0.192321     6A      0.084286  
       7A      0.123151     8A      0.137479     9A      0.137570  
      10A      0.436913    11A      0.436917    12A      0.440570  
      13A      0.441421    14A      0.441425    15A      1.063422  
      16A      1.095753    17A      1.095774    18A      1.131880  
      19A      2.770433    20A      2.770433    21A      2.778006  
      22A      2.794630    23A      2.794630  

    Final Occupation by Irrep:
              A 
    DOCC [     3 ]
    SOCC [     2 ]
    NA   [     5 ]
    NB   [     3 ]

  @DF-UKS Final Energy:   -75.00924266781081

   => Energetics <=

    Nuclear Repulsion Energy =              0.0000000000000000
    One-Electron Energy =                -103.0413527739581525
    Two-Electron Energy =                  34.8555150800176463
    DFT Exchange-Correlation Energy =      -6.8234049738703106
    Empirical Dispersion Energy =           0.0000000000000000
    VV10 Nonlocal Energy =                  0.0000000000000000
    Total Energy =                        -75.0092426678108097

  UHF NO Occupations:
  HONO-2 :    3  A 1.9988743
  HONO-1 :    4  A 1.0000000
  HONO-0 :    5  A 1.0000000
  LUNO+0 :    6  A 0.0011257
  LUNO+1 :    7  A 0.0007616
  LUNO+2 :    8  A 0.0000002
  LUNO+3 :    9  A 0.0000000


Computation Completed


Properties will be evaluated at   0.000000,   0.000000,   0.000000 [a0]

Properties computed using the SCF density matrix


 Multipole Moments:

 ------------------------------------------------------------------------------------
     Multipole            Electronic (a.u.)      Nuclear  (a.u.)        Total (a.u.)
 ------------------------------------------------------------------------------------

 L = 1.  Multiply by 2.5417464519 to convert [e a0] to [Debye]
 Dipole X            :          0.0000000            0.0000000            0.0000000
 Dipole Y            :         -0.0000000            0.0000000           -0.0000000
 Dipole Z            :         -0.0049694            0.0000000           -0.0049694
 Magnitude           :                                                    0.0049694

 ------------------------------------------------------------------------------------

*** tstop() called on PNNL-KM3X724WWL at Tue Jul 28 16:59:57 2026
Module time:
	user time   =       1.12 seconds =       0.02 minutes
	system time =       0.21 seconds =       0.00 minutes
	total time  =          0 seconds =       0.00 minutes
Total time:
	user time   =      16.93 seconds =       0.28 minutes
	system time =       3.08 seconds =       0.05 minutes
	total time  =          5 seconds =       0.08 minutes

Scratch directory: /tmp/
   => Libint2 <=

    Primary   basis highest AM E, G, H:  7, 6, 3
    Auxiliary basis highest AM E, G, H:  7, 7, 4
    Onebody   basis highest AM E, G, H:  -, -, -
    Solid Harmonics ordering:            Gaussian

*** tstart() called on PNNL-KM3X724WWL
*** at Tue Jul 28 16:59:57 2026

   => Loading Basis Set <=

    Name: DEF2-SVPD
    Role: ORBITAL
    Keyword: BASIS
    atoms 1 entry O          line   149 file /opt/miniconda3/envs/rsfff/share/psi4/basis/def2-svpd.gbs 


         ---------------------------------------------------------
                                   SCF
               by Justin Turney, Rob Parrish, Andy Simmonett
                          and Daniel G. A. Smith
                              UKS Reference
                       14 Threads,   7629 MiB Core
         ---------------------------------------------------------

  ==> Geometry <==

    Molecular point group: c1
    Geometry (in Angstrom), charge = -1, multiplicity = 2:

       Center              X                  Y                   Z               Mass       
    ------------   -----------------  -----------------  -----------------  -----------------
         O            0.000000000000     0.000000000000     0.000000000000    15.994914619570

  Running in c1 symmetry.

  Rotational constants: A = ************  B = ************  C = ************ [cm^-1]
  Rotational constants: A = ************  B = ************  C = ************ [MHz]
  Nuclear repulsion =    0.000000000000000

  Charge       = -1
  Multiplicity = 2
  Electrons    = 9
  Nalpha       = 5
  Nbeta        = 4

  ==> Algorithm <==

  SCF Algorithm Type is DF.
  DIIS enabled.
  MOM disabled.
  Fractional occupation disabled.
  Guess Type is CORE.
  Energy threshold   = 1.00e-09
  Density threshold  = 1.00e-09
  Integral threshold = 1.00e-12

  ==> Primary Basis <==

  Basis Set: DEF2-SVPD
    Blend: DEF2-SVPD
    Number of shells: 9
    Number of basis functions: 23
    Number of Cartesian functions: 25
    Spherical Harmonics?: true
    Max angular momentum: 2

  ==> DFT Potential <==

   => LibXC <=

    Version 7.0.0
    S. Lehtola, C. Steigemann, M. J.T. Oliveira, and M. A.L. Marques.,  SoftwareX 7, 1–5 (2018) (10.1016/j.softx.2017.11.002)

   => Composite Functional: B3LYP <= 

    B3LYP Hyb-GGA Exchange-Correlation Functional

    P. J. Stephens, F. J. Devlin, C. F. Chabalowski, and M. J. Frisch.,  J. Phys. Chem. 98, 11623 (1994) (10.1021/j100096a001)

    Deriv               =              1
    GGA                 =           TRUE
    Meta                =          FALSE

    Exchange Hybrid     =           TRUE
    MP2 Hybrid          =          FALSE

   => Exchange Functionals <=

    0.0800   Slater exchange
    0.7200         Becke 88

   => Exact (HF) Exchange <=

    0.2000               HF 

   => Correlation Functionals <=

    0.1900   Vosko, Wilk & Nusair (VWN5_RPA)
    0.8100   Lee, Yang & Parr

   => LibXC Density Thresholds  <==

    XC_HYB_GGA_XC_B3LYP:  1.00E-15 

   => Molecular Quadrature <=

    Radial Scheme          =       TREUTLER
    Pruning Scheme         =           NONE
    Nuclear Scheme         =       TREUTLER

    Blocking Scheme        =         OCTREE
    BS radius alpha        =              1
    Pruning alpha          =              1
    Radial Points          =             75
    Spherical Points       =            302
    Total Points           =          22348
    Total Blocks           =            224
    Max Points             =            252
    Max Functions          =             23
    Weights Tolerance      =       1.00E-15

   => Loading Basis Set <=

    Name: (DEF2-SVPD AUX)
    Role: JKFIT
    Keyword: DF_BASIS_SCF
    atoms 1 entry O          line   318 file /opt/miniconda3/envs/rsfff/share/psi4/basis/def2-universal-jkfit.gbs 

  ==> Integral Setup <==

  DFHelper Memory: AOs need 0.001 GiB; user supplied 5.573 GiB. 
  SCF_SUBTYPE=INCORE selected. In-core MEM_DF algorithm will be used.
  Using in-core AOs.

  ==> MemDFJK: Density-Fitted J/K Matrices <==

    J tasked:                   Yes
    K tasked:                   Yes
    wK tasked:                   No
    OpenMP threads:              14
    Memory [MiB]:              5707
    Algorithm:                 Core
    Schwarz Cutoff:           1E-12
    Mask sparsity (%):       0.0000
    Fitting Condition:        1E-10

   => Auxiliary Basis Set <=

  Basis Set: (DEF2-SVPD AUX)
    Blend: DEF2-UNIVERSAL-JKFIT
    Number of shells: 25
    Number of basis functions: 77
    Number of Cartesian functions: 93
    Spherical Harmonics?: true
    Max angular momentum: 4

  Cached 100.0% of DFT collocation blocks in 0.015 [GiB].

  Minimum eigenvalue in the overlap matrix is 8.0241971007E-02.
  Reciprocal condition number of the overlap matrix is 3.3278560532E-02.
    Using symmetric orthogonalization.

  ==> Pre-Iterations <==

  SCF Guess: Core (One-Electron) Hamiltonian.

   -------------------------------------------------------
    Irrep   Nso     Nmo     Nalpha   Nbeta   Ndocc  Nsocc
   -------------------------------------------------------
     A         23      23       5       4       4       1
   -------------------------------------------------------
    Total      23      23       5       4       4       1
   -------------------------------------------------------

  ==> Iterations <==

                           Total Energy        Delta E     RMS |[F,P]|

   @DF-UKS iter   1:   -70.61761372911579   -7.06176e+01   9.30746e-02 ADIIS/DIIS
   @DF-UKS iter   2:   -66.77776948506400    3.83984e+00   9.14718e-02 ADIIS/DIIS
   @DF-UKS iter   3:   -75.03744997689527   -8.25968e+00   5.98908e-03 ADIIS/DIIS
   @DF-UKS iter   4:   -75.07050377528661   -3.30538e-02   3.21784e-03 ADIIS/DIIS
   @DF-UKS iter   5:   -75.07035375977732    1.50016e-04   3.19275e-03 ADIIS/DIIS
   @DF-UKS iter   6:   -75.07041976360044   -6.60038e-05   3.14942e-03 ADIIS/DIIS
   @DF-UKS iter   7:   -75.07269475258104   -2.27499e-03   1.74997e-04 ADIIS/DIIS
   @DF-UKS iter   8:   -75.07270945121491   -1.46986e-05   1.17180e-04 ADIIS/DIIS
   @DF-UKS iter   9:   -75.07271307958841   -3.62837e-06   3.28151e-06 DIIS
   @DF-UKS iter  10:   -75.07271308260995   -3.02154e-09   2.31785e-06 DIIS
   @DF-UKS iter  11:   -75.07271308388347   -1.27352e-09   1.19102e-07 DIIS
   @DF-UKS iter  12:   -75.07271308389279   -9.32232e-12   3.68963e-08 DIIS
   @DF-UKS iter  13:   -75.07271308389943   -6.63647e-12   3.67415e-08 DIIS
   @DF-UKS iter  14:   -75.07271308410499   -2.05560e-10   3.66138e-08 DIIS
   @DF-UKS iter  15:   -75.07271310081794   -1.67129e-08   1.43789e-06 DIIS
   @DF-UKS iter  16:   -75.07271310055415    2.63782e-10   1.37814e-06 DIIS
   @DF-UKS iter  17:   -75.07271309717773    3.37643e-09   6.58255e-07 DIIS
   @DF-UKS iter  18:   -75.07271310098875   -3.81102e-09   1.16594e-06 DIIS
   @DF-UKS iter  19:   -75.07271310083857    1.50180e-10   9.42569e-07 DIIS
   @DF-UKS iter  20:   -75.07271310830858   -7.47001e-09   2.95726e-06 DIIS
   @DF-UKS iter  21:   -75.07271310787318    4.35392e-10   2.85715e-06 DIIS
   @DF-UKS iter  22:   -75.07271310770263    1.70559e-10   3.13578e-06 DIIS
   @DF-UKS iter  23:   -75.07271310700956    6.93063e-10   3.40429e-06 DIIS
   @DF-UKS iter  24:   -75.07271310817765   -1.16809e-09   2.84580e-06 DIIS
   @DF-UKS iter  25:   -75.07271311082047   -2.64282e-09   3.11450e-07 DIIS
   @DF-UKS iter  26:   -75.07271311093699   -1.16515e-10   5.17243e-07 DIIS
   @DF-UKS iter  27:   -75.07271311098248   -4.54889e-11   1.80608e-07 DIIS
   @DF-UKS iter  28:   -75.07271311081331    1.69166e-10   4.46985e-08 DIIS
   @DF-UKS iter  29:   -75.07271311038853    4.24777e-10   1.91939e-07 DIIS
   @DF-UKS iter  30:   -75.07271311011907    2.69466e-10   1.82244e-08 DIIS
   @DF-UKS iter  31:   -75.07271311000116    1.17907e-10   3.04086e-08 DIIS
   @DF-UKS iter  32:   -75.07271310975534    2.45819e-10   2.32231e-08 DIIS
   @DF-UKS iter  33:   -75.07271311016117   -4.05834e-10   1.95844e-08 DIIS
   @DF-UKS iter  34:   -75.07271311013427    2.69011e-11   2.74976e-08 DIIS
   @DF-UKS iter  35:   -75.07271311046392   -3.29649e-10   3.00214e-08 DIIS
   @DF-UKS iter  36:   -75.07271311064331   -1.79384e-10   2.21603e-08 DIIS
   @DF-UKS iter  37:   -75.07271311084349   -2.00188e-10   5.54570e-08 DIIS
   @DF-UKS iter  38:   -75.07271311279564   -1.95215e-09   6.04440e-08 DIIS
   @DF-UKS iter  39:   -75.07271311322108   -4.25445e-10   1.19573e-07 DIIS
   @DF-UKS iter  40:   -75.07271311303518    1.85906e-10   1.08963e-07 DIIS
   @DF-UKS iter  41:   -75.07271311364526   -6.10086e-10   1.38033e-07 DIIS
   @DF-UKS iter  42:   -75.07271311374214   -9.68754e-11   1.25303e-07 DIIS
   @DF-UKS iter  43:   -75.07271311287211    8.70031e-10   2.02570e-07 DIIS
   @DF-UKS iter  44:   -75.07271311747604   -4.60393e-09   5.14653e-07 DIIS
   @DF-UKS iter  45:   -75.07271311620225    1.27379e-09   1.25448e-07 DIIS
   @DF-UKS iter  46:   -75.07271311242309    3.77916e-09   5.95744e-06 DIIS
   @DF-UKS iter  47:   -75.07271312195857   -9.53548e-09   1.83917e-06 DIIS
   @DF-UKS iter  48:   -75.07271312200045   -4.18794e-11   2.20761e-06 DIIS
   @DF-UKS iter  49:   -75.07271310950262    1.24978e-08   6.45206e-06 DIIS
   @DF-UKS iter  50:   -75.07271312207260   -1.25700e-08   3.84068e-07 DIIS
   @DF-UKS iter  51:   -75.07271311976855    2.30405e-09   3.99859e-06 DIIS
   @DF-UKS iter  52:   -75.07271312493135   -5.16280e-09   1.56733e-06 DIIS
   @DF-UKS iter  53:   -75.07271312498200   -5.06475e-11   1.64941e-06 DIIS
   @DF-UKS iter  54:   -75.07271312555196   -5.69955e-10   2.67343e-07 DIIS
   @DF-UKS iter  55:   -75.07271312231373    3.23823e-09   3.26117e-06 DIIS
   @DF-UKS iter  56:   -75.07271312633742   -4.02369e-09   5.88179e-07 DIIS
   @DF-UKS iter  57:   -75.07271312729135   -9.53932e-10   1.88834e-06 DIIS
   @DF-UKS iter  58:   -75.07271312671276    5.78595e-10   1.00260e-07 DIIS
   @DF-UKS iter  59:   -75.07271312703699   -3.24235e-10   1.57370e-07 DIIS
   @DF-UKS iter  60:   -75.07271312741632   -3.79330e-10   1.45371e-07 DIIS
   @DF-UKS iter  61:   -75.07271312810818   -6.91855e-10   4.95604e-07 DIIS
   @DF-UKS iter  62:   -75.07271312785622    2.51958e-10   2.15229e-06 DIIS
   @DF-UKS iter  63:   -75.07271312809893   -2.42707e-10   4.36027e-07 DIIS
   @DF-UKS iter  64:   -75.07271312848884   -3.89917e-10   6.32376e-07 DIIS
   @DF-UKS iter  65:   -75.07271312837059    1.18249e-10   6.96569e-07 DIIS
   @DF-UKS iter  66:   -75.07271312920497   -8.34376e-10   9.83483e-07 DIIS
   @DF-UKS iter  67:   -75.07271312937804   -1.73074e-10   3.68581e-07 DIIS
   @DF-UKS iter  68:   -75.07271312981526   -4.37211e-10   1.23299e-06 DIIS
   @DF-UKS iter  69:   -75.07271313004370   -2.28439e-10   1.34736e-06 DIIS
   @DF-UKS iter  70:   -75.07271313028868   -2.44981e-10   9.38586e-07 DIIS
   @DF-UKS iter  71:   -75.07271313019650    9.21716e-11   1.17321e-06 DIIS
   @DF-UKS iter  72:   -75.07271313037877   -1.82268e-10   4.94253e-08 DIIS
   @DF-UKS iter  73:   -75.07271313043530   -5.65308e-11   8.17181e-07 DIIS
   @DF-UKS iter  74:   -75.07271313060311   -1.67802e-10   5.42465e-07 DIIS
   @DF-UKS iter  75:   -75.07271313074168   -1.38570e-10   3.85235e-07 DIIS
   @DF-UKS iter  76:   -75.07271313081493   -7.32570e-11   2.62680e-07 DIIS
   @DF-UKS iter  77:   -75.07271313086588   -5.09459e-11   1.48962e-08 DIIS
   @DF-UKS iter  78:   -75.07271313087021   -4.33431e-12   5.69539e-08 DIIS
   @DF-UKS iter  79:   -75.07271313087134   -1.12266e-12   1.91537e-08 DIIS
   @DF-UKS iter  80:   -75.07271313087135   -1.42109e-14   1.46184e-08 DIIS
   @DF-UKS iter  81:   -75.07271313087134    1.42109e-14   2.11383e-08 DIIS
   @DF-UKS iter  82:   -75.07271313087152   -1.84741e-13   4.77162e-09 DIIS
   @DF-UKS iter  83:   -75.07271313087153   -1.42109e-14   2.61653e-11 DIIS
  Energy and wave function converged.


  ==> Post-Iterations <==

   Electrons on quadrature grid:
      Nalpha   =    5.0000000000 ; deviation = -5.563e-12
      Nbeta    =    4.0000000000 ; deviation = -5.553e-12
      Ntotal   =    9.0000000000 ; deviation = -1.112e-11 

   @Spin Contamination Metric:   5.989994352E-03
   @S^2 Expected:                7.500000000E-01
   @S^2 Observed:                7.559899944E-01
   @S   Expected:                5.000000000E-01
   @S   Observed:                5.000000000E-01

    Orbital Energies [Eh]
    ---------------------

    Alpha Occupied:                                                       

       1A    -18.829928     2A     -0.549546     3A     -0.041039  
       4A      0.023608     5A      0.023608  

    Alpha Virtual:                                                        

       6A      0.317201     7A      0.333612     8A      0.343273  
       9A      0.343273    10A      0.704286    11A      0.707749  
      12A      0.707749    13A      0.719970    14A      0.719970  
      15A      1.355437    16A      1.399916    17A      1.399916  
      18A      1.436531    19A      3.079987    20A      3.095940  
      21A      3.095940    22A      3.146420    23A      3.146420  

    Beta Occupied:                                                        

       1A    -18.805184     2A     -0.472194     3A      0.050907  
       4A      0.050907  

    Beta Virtual:                                                         

       5A      0.172966     6A      0.323384     7A      0.347988  
       8A      0.347989     9A      0.371879    10A      0.718368  
      11A      0.718368    12A      0.719231    13A      0.719234  
      14A      0.724379    15A      1.417216    16A      1.417217  
      17A      1.447745    18A      1.470745    19A      3.162769  
      20A      3.162769    21A      3.173257    22A      3.173258  
      23A      3.188517  

    Final Occupation by Irrep:
              A 
    DOCC [     4 ]
    SOCC [     1 ]
    NA   [     5 ]
    NB   [     4 ]

  @DF-UKS Final Energy:   -75.07271313087153

   => Energetics <=

    Nuclear Repulsion Energy =              0.0000000000000000
    One-Electron Energy =                -106.5441793888420676
    Two-Electron Energy =                  38.4954957323601690
    DFT Exchange-Correlation Energy =      -7.0240294743896285
    Empirical Dispersion Energy =           0.0000000000000000
    VV10 Nonlocal Energy =                  0.0000000000000000
    Total Energy =                        -75.0727131308715343

  UHF NO Occupations:
  HONO-2 :    3  A 1.9988161
  HONO-1 :    4  A 1.9988159
  HONO-0 :    5  A 1.0000000
  LUNO+0 :    6  A 0.0011841
  LUNO+1 :    7  A 0.0011839
  LUNO+2 :    8  A 0.0006285
  LUNO+3 :    9  A 0.0000001


Computation Completed


Properties will be evaluated at   0.000000,   0.000000,   0.000000 [a0]

Properties computed using the SCF density matrix


 Multipole Moments:

 ------------------------------------------------------------------------------------
     Multipole            Electronic (a.u.)      Nuclear  (a.u.)        Total (a.u.)
 ------------------------------------------------------------------------------------

 L = 1.  Multiply by 2.5417464519 to convert [e a0] to [Debye]
 Dipole X            :          0.0000000            0.0000000            0.0000000
 Dipole Y            :         -0.0000000            0.0000000           -0.0000000
 Dipole Z            :         -0.0000000            0.0000000           -0.0000000
 Magnitude           :                                                    0.0000000

 ------------------------------------------------------------------------------------

*** tstop() called on PNNL-KM3X724WWL at Tue Jul 28 16:59:58 2026
Module time:
	user time   =       2.60 seconds =       0.04 minutes
	system time =       0.47 seconds =       0.01 minutes
	total time  =          1 seconds =       0.02 minutes
Total time:
	user time   =      19.55 seconds =       0.33 minutes
	system time =       3.55 seconds =       0.06 minutes
	total time  =          6 seconds =       0.10 minutes

Scratch directory: /tmp/
   => Libint2 <=

    Primary   basis highest AM E, G, H:  7, 6, 3
    Auxiliary basis highest AM E, G, H:  7, 7, 4
    Onebody   basis highest AM E, G, H:  -, -, -
    Solid Harmonics ordering:            Gaussian

*** tstart() called on PNNL-KM3X724WWL
*** at Tue Jul 28 16:59:58 2026

   => Loading Basis Set <=

    Name: DEF2-SVPD
    Role: ORBITAL
    Keyword: BASIS
    atoms 1 entry O          line   149 file /opt/miniconda3/envs/rsfff/share/psi4/basis/def2-svpd.gbs 


         ---------------------------------------------------------
                                   SCF
               by Justin Turney, Rob Parrish, Andy Simmonett
                          and Daniel G. A. Smith
                              UKS Reference
                       14 Threads,   7629 MiB Core
         ---------------------------------------------------------

  ==> Geometry <==

    Molecular point group: c1
    Geometry (in Angstrom), charge = -1, multiplicity = 2:

       Center              X                  Y                   Z               Mass       
    ------------   -----------------  -----------------  -----------------  -----------------
         O            0.000000000000     0.000000000000     0.000000000000    15.994914619570

  Running in c1 symmetry.

  Rotational constants: A = ************  B = ************  C = ************ [cm^-1]
  Rotational constants: A = ************  B = ************  C = ************ [MHz]
  Nuclear repulsion =    0.000000000000000

  Charge       = -1
  Multiplicity = 2
  Electrons    = 9
  Nalpha       = 5
  Nbeta        = 4

  ==> Algorithm <==

  SCF Algorithm Type is DF.
  DIIS enabled.
  MOM disabled.
  Fractional occupation disabled.
  Guess Type is CORE.
  Energy threshold   = 1.00e-09
  Density threshold  = 1.00e-09
  Integral threshold = 1.00e-12

  ==> Primary Basis <==

  Basis Set: DEF2-SVPD
    Blend: DEF2-SVPD
    Number of shells: 9
    Number of basis functions: 23
    Number of Cartesian functions: 25
    Spherical Harmonics?: true
    Max angular momentum: 2

  ==> DFT Potential <==

   => LibXC <=

    Version 7.0.0
    S. Lehtola, C. Steigemann, M. J.T. Oliveira, and M. A.L. Marques.,  SoftwareX 7, 1–5 (2018) (10.1016/j.softx.2017.11.002)

   => Composite Functional: B3LYP <= 

    B3LYP Hyb-GGA Exchange-Correlation Functional

    P. J. Stephens, F. J. Devlin, C. F. Chabalowski, and M. J. Frisch.,  J. Phys. Chem. 98, 11623 (1994) (10.1021/j100096a001)

    Deriv               =              1
    GGA                 =           TRUE
    Meta                =          FALSE

    Exchange Hybrid     =           TRUE
    MP2 Hybrid          =          FALSE

   => Exchange Functionals <=

    0.0800   Slater exchange
    0.7200         Becke 88

   => Exact (HF) Exchange <=

    0.2000               HF 

   => Correlation Functionals <=

    0.1900   Vosko, Wilk & Nusair (VWN5_RPA)
    0.8100   Lee, Yang & Parr

   => LibXC Density Thresholds  <==

    XC_HYB_GGA_XC_B3LYP:  1.00E-15 

   => Molecular Quadrature <=

    Radial Scheme          =       TREUTLER
    Pruning Scheme         =           NONE
    Nuclear Scheme         =       TREUTLER

    Blocking Scheme        =         OCTREE
    BS radius alpha        =              1
    Pruning alpha          =              1
    Radial Points          =             75
    Spherical Points       =            302
    Total Points           =          22348
    Total Blocks           =            224
    Max Points             =            252
    Max Functions          =             23
    Weights Tolerance      =       1.00E-15

   => Loading Basis Set <=

    Name: (DEF2-SVPD AUX)
    Role: JKFIT
    Keyword: DF_BASIS_SCF
    atoms 1 entry O          line   318 file /opt/miniconda3/envs/rsfff/share/psi4/basis/def2-universal-jkfit.gbs 

  ==> Integral Setup <==

  DFHelper Memory: AOs need 0.001 GiB; user supplied 5.573 GiB. 
  SCF_SUBTYPE=INCORE selected. In-core MEM_DF algorithm will be used.
  Using in-core AOs.

  ==> MemDFJK: Density-Fitted J/K Matrices <==

    J tasked:                   Yes
    K tasked:                   Yes
    wK tasked:                   No
    OpenMP threads:              14
    Memory [MiB]:              5707
    Algorithm:                 Core
    Schwarz Cutoff:           1E-12
    Mask sparsity (%):       0.0000
    Fitting Condition:        1E-10

   => Auxiliary Basis Set <=

  Basis Set: (DEF2-SVPD AUX)
    Blend: DEF2-UNIVERSAL-JKFIT
    Number of shells: 25
    Number of basis functions: 77
    Number of Cartesian functions: 93
    Spherical Harmonics?: true
    Max angular momentum: 4

  Cached 100.0% of DFT collocation blocks in 0.015 [GiB].

  Perturbing V by -0.001000 mu(x).
  Minimum eigenvalue in the overlap matrix is 8.0241971007E-02.
  Reciprocal condition number of the overlap matrix is 3.3278560532E-02.
    Using symmetric orthogonalization.

  ==> Pre-Iterations <==

  SCF Guess: Core (One-Electron) Hamiltonian.

   -------------------------------------------------------
    Irrep   Nso     Nmo     Nalpha   Nbeta   Ndocc  Nsocc
   -------------------------------------------------------
     A         23      23       5       4       4       1
   -------------------------------------------------------
    Total      23      23       5       4       4       1
   -------------------------------------------------------

  ==> Iterations <==

                           Total Energy        Delta E     RMS |[F,P]|

   @DF-UKS iter   1:   -70.61760824197982   -7.06176e+01   9.30746e-02 ADIIS/DIIS
   @DF-UKS iter   2:   -66.77711120254492    3.84050e+00   9.14682e-02 ADIIS/DIIS
   @DF-UKS iter   3:   -75.03744664175444   -8.26034e+00   5.99066e-03 ADIIS/DIIS
   @DF-UKS iter   4:   -75.07050802275202   -3.30614e-02   3.21856e-03 ADIIS/DIIS
   @DF-UKS iter   5:   -75.07035883817167    1.49185e-04   3.19294e-03 ADIIS/DIIS
   @DF-UKS iter   6:   -75.07043074762976   -7.19095e-05   3.14568e-03 ADIIS/DIIS
   @DF-UKS iter   7:   -75.07265575417577   -2.22501e-03   4.99327e-04 ADIIS/DIIS
   @DF-UKS iter   8:   -75.07270865767710   -5.29035e-05   1.63960e-04 ADIIS/DIIS
   @DF-UKS iter   9:   -75.07271744742444   -8.78975e-06   6.15945e-05 DIIS
   @DF-UKS iter  10:   -75.07271843129068   -9.83866e-07   3.84739e-06 DIIS
   @DF-UKS iter  11:   -75.07271843516746   -3.87678e-09   9.99907e-07 DIIS
   @DF-UKS iter  12:   -75.07271843540521   -2.37748e-10   1.41260e-08 DIIS
   @DF-UKS iter  13:   -75.07271843540524   -2.84217e-14   7.90481e-10 DIIS
  Energy and wave function converged.


  ==> Post-Iterations <==

   Electrons on quadrature grid:
      Nalpha   =    5.0000000000 ; deviation = -5.560e-12
      Nbeta    =    4.0000000000 ; deviation = -5.551e-12
      Ntotal   =    9.0000000000 ; deviation = -1.111e-11 

   @Spin Contamination Metric:   5.989664919E-03
   @S^2 Expected:                7.500000000E-01
   @S^2 Observed:                7.559896649E-01
   @S   Expected:                5.000000000E-01
   @S   Observed:                5.000000000E-01

    Orbital Energies [Eh]
    ---------------------

    Alpha Occupied:                                                       

       1A    -18.829933     2A     -0.549550     3A     -0.041043  
       4A      0.023604     5A      0.023604  

    Alpha Virtual:                                                        

       6A      0.316967     7A      0.333843     8A      0.343270  
       9A      0.343270    10A      0.704289    11A      0.707751  
      12A      0.707751    13A      0.719969    14A      0.719969  
      15A      1.355429    16A      1.399914    17A      1.399914  
      18A      1.436536    19A      3.079984    20A      3.095937  
      21A      3.095937    22A      3.146417    23A      3.146417  

    Beta Occupied:                                                        

       1A    -18.805189     2A     -0.472198     3A      0.050903  
       4A      0.050903  

    Beta Virtual:                                                         

       5A      0.172952     6A      0.323324     7A      0.347986  
       8A      0.347986     9A      0.371929    10A      0.718367  
      11A      0.718367    12A      0.719236    13A      0.719236  
      14A      0.724366    15A      1.417214    16A      1.417214  
      17A      1.447715    18A      1.470769    19A      3.162765  
      20A      3.162765    21A      3.173254    22A      3.173254  
      23A      3.188512  

    Final Occupation by Irrep:
              A 
    DOCC [     4 ]
    SOCC [     1 ]
    NA   [     5 ]
    NB   [     4 ]

  @DF-UKS Final Energy:   -75.07271843540524

   => Energetics <=

    Nuclear Repulsion Energy =              0.0000000000000000
    One-Electron Energy =                -106.5441559546717940
    Two-Electron Energy =                  38.4954637869650682
    DFT Exchange-Correlation Energy =      -7.0240262676985221
    Empirical Dispersion Energy =           0.0000000000000000
    VV10 Nonlocal Energy =                  0.0000000000000000
    Total Energy =                        -75.0727184354052355

  UHF NO Occupations:
  HONO-2 :    3  A 1.9988161
  HONO-1 :    4  A 1.9988161
  HONO-0 :    5  A 1.0000000
  LUNO+0 :    6  A 0.0011839
  LUNO+1 :    7  A 0.0011839
  LUNO+2 :    8  A 0.0006285
  LUNO+3 :    9  A 0.0000001


Computation Completed


Properties will be evaluated at   0.000000,   0.000000,   0.000000 [a0]

Properties computed using the SCF density matrix


 Multipole Moments:

 ------------------------------------------------------------------------------------
     Multipole            Electronic (a.u.)      Nuclear  (a.u.)        Total (a.u.)
 ------------------------------------------------------------------------------------

 L = 1.  Multiply by 2.5417464519 to convert [e a0] to [Debye]
 Dipole X            :          0.0107429            0.0000000            0.0107429
 Dipole Y            :         -0.0000000            0.0000000           -0.0000000
 Dipole Z            :          0.0000000            0.0000000            0.0000000
 Magnitude           :                                                    0.0107429

 ------------------------------------------------------------------------------------

*** tstop() called on PNNL-KM3X724WWL at Tue Jul 28 16:59:58 2026
Module time:
	user time   =       0.45 seconds =       0.01 minutes
	system time =       0.10 seconds =       0.00 minutes
	total time  =          0 seconds =       0.00 minutes
Total time:
	user time   =      20.02 seconds =       0.33 minutes
	system time =       3.65 seconds =       0.06 minutes
	total time  =          6 seconds =       0.10 minutes

Scratch directory: /tmp/
   => Libint2 <=

    Primary   basis highest AM E, G, H:  7, 6, 3
    Auxiliary basis highest AM E, G, H:  7, 7, 4
    Onebody   basis highest AM E, G, H:  -, -, -
    Solid Harmonics ordering:            Gaussian

*** tstart() called on PNNL-KM3X724WWL
*** at Tue Jul 28 16:59:58 2026

   => Loading Basis Set <=

    Name: DEF2-SVPD
    Role: ORBITAL
    Keyword: BASIS
    atoms 1 entry O          line   149 file /opt/miniconda3/envs/rsfff/share/psi4/basis/def2-svpd.gbs 


         ---------------------------------------------------------
                                   SCF
               by Justin Turney, Rob Parrish, Andy Simmonett
                          and Daniel G. A. Smith
                              UKS Reference
                       14 Threads,   7629 MiB Core
         ---------------------------------------------------------

  ==> Geometry <==

    Molecular point group: c1
    Geometry (in Angstrom), charge = -1, multiplicity = 2:

       Center              X                  Y                   Z               Mass       
    ------------   -----------------  -----------------  -----------------  -----------------
         O            0.000000000000     0.000000000000     0.000000000000    15.994914619570

  Running in c1 symmetry.

  Rotational constants: A = ************  B = ************  C = ************ [cm^-1]
  Rotational constants: A = ************  B = ************  C = ************ [MHz]
  Nuclear repulsion =    0.000000000000000

  Charge       = -1
  Multiplicity = 2
  Electrons    = 9
  Nalpha       = 5
  Nbeta        = 4

  ==> Algorithm <==

  SCF Algorithm Type is DF.
  DIIS enabled.
  MOM disabled.
  Fractional occupation disabled.
  Guess Type is CORE.
  Energy threshold   = 1.00e-09
  Density threshold  = 1.00e-09
  Integral threshold = 1.00e-12

  ==> Primary Basis <==

  Basis Set: DEF2-SVPD
    Blend: DEF2-SVPD
    Number of shells: 9
    Number of basis functions: 23
    Number of Cartesian functions: 25
    Spherical Harmonics?: true
    Max angular momentum: 2

  ==> DFT Potential <==

   => LibXC <=

    Version 7.0.0
    S. Lehtola, C. Steigemann, M. J.T. Oliveira, and M. A.L. Marques.,  SoftwareX 7, 1–5 (2018) (10.1016/j.softx.2017.11.002)

   => Composite Functional: B3LYP <= 

    B3LYP Hyb-GGA Exchange-Correlation Functional

    P. J. Stephens, F. J. Devlin, C. F. Chabalowski, and M. J. Frisch.,  J. Phys. Chem. 98, 11623 (1994) (10.1021/j100096a001)

    Deriv               =              1
    GGA                 =           TRUE
    Meta                =          FALSE

    Exchange Hybrid     =           TRUE
    MP2 Hybrid          =          FALSE

   => Exchange Functionals <=

    0.0800   Slater exchange
    0.7200         Becke 88

   => Exact (HF) Exchange <=

    0.2000               HF 

   => Correlation Functionals <=

    0.1900   Vosko, Wilk & Nusair (VWN5_RPA)
    0.8100   Lee, Yang & Parr

   => LibXC Density Thresholds  <==

    XC_HYB_GGA_XC_B3LYP:  1.00E-15 

   => Molecular Quadrature <=

    Radial Scheme          =       TREUTLER
    Pruning Scheme         =           NONE
    Nuclear Scheme         =       TREUTLER

    Blocking Scheme        =         OCTREE
    BS radius alpha        =              1
    Pruning alpha          =              1
    Radial Points          =             75
    Spherical Points       =            302
    Total Points           =          22348
    Total Blocks           =            224
    Max Points             =            252
    Max Functions          =             23
    Weights Tolerance      =       1.00E-15

   => Loading Basis Set <=

    Name: (DEF2-SVPD AUX)
    Role: JKFIT
    Keyword: DF_BASIS_SCF
    atoms 1 entry O          line   318 file /opt/miniconda3/envs/rsfff/share/psi4/basis/def2-universal-jkfit.gbs 

  ==> Integral Setup <==

  DFHelper Memory: AOs need 0.001 GiB; user supplied 5.573 GiB. 
  SCF_SUBTYPE=INCORE selected. In-core MEM_DF algorithm will be used.
  Using in-core AOs.

  ==> MemDFJK: Density-Fitted J/K Matrices <==

    J tasked:                   Yes
    K tasked:                   Yes
    wK tasked:                   No
    OpenMP threads:              14
    Memory [MiB]:              5707
    Algorithm:                 Core
    Schwarz Cutoff:           1E-12
    Mask sparsity (%):       0.0000
    Fitting Condition:        1E-10

   => Auxiliary Basis Set <=

  Basis Set: (DEF2-SVPD AUX)
    Blend: DEF2-UNIVERSAL-JKFIT
    Number of shells: 25
    Number of basis functions: 77
    Number of Cartesian functions: 93
    Spherical Harmonics?: true
    Max angular momentum: 4

  Cached 100.0% of DFT collocation blocks in 0.015 [GiB].

  Perturbing V by 0.001000 mu(x).
  Minimum eigenvalue in the overlap matrix is 8.0241971007E-02.
  Reciprocal condition number of the overlap matrix is 3.3278560532E-02.
    Using symmetric orthogonalization.

  ==> Pre-Iterations <==

  SCF Guess: Core (One-Electron) Hamiltonian.

   -------------------------------------------------------
    Irrep   Nso     Nmo     Nalpha   Nbeta   Ndocc  Nsocc
   -------------------------------------------------------
     A         23      23       5       4       4       1
   -------------------------------------------------------
    Total      23      23       5       4       4       1
   -------------------------------------------------------

  ==> Iterations <==

                           Total Energy        Delta E     RMS |[F,P]|

   @DF-UKS iter   1:   -70.61760824197980   -7.06176e+01   9.30746e-02 ADIIS/DIIS
   @DF-UKS iter   2:   -66.77711120254486    3.84050e+00   9.14682e-02 ADIIS/DIIS
   @DF-UKS iter   3:   -75.03744664175449   -8.26034e+00   5.99066e-03 ADIIS/DIIS
   @DF-UKS iter   4:   -75.07050802275204   -3.30614e-02   3.21856e-03 ADIIS/DIIS
   @DF-UKS iter   5:   -75.07035883817163    1.49185e-04   3.19294e-03 ADIIS/DIIS
   @DF-UKS iter   6:   -75.07043074762969   -7.19095e-05   3.14568e-03 ADIIS/DIIS
   @DF-UKS iter   7:   -75.07265575417578   -2.22501e-03   4.99327e-04 ADIIS/DIIS
   @DF-UKS iter   8:   -75.07270865767707   -5.29035e-05   1.63960e-04 ADIIS/DIIS
   @DF-UKS iter   9:   -75.07271744742445   -8.78975e-06   6.15945e-05 DIIS
   @DF-UKS iter  10:   -75.07271843129078   -9.83866e-07   3.84739e-06 DIIS
   @DF-UKS iter  11:   -75.07271843516745   -3.87666e-09   9.99907e-07 DIIS
   @DF-UKS iter  12:   -75.07271843540524   -2.37790e-10   1.41260e-08 DIIS
   @DF-UKS iter  13:   -75.07271843540528   -4.26326e-14   7.90481e-10 DIIS
  Energy and wave function converged.


  ==> Post-Iterations <==

   Electrons on quadrature grid:
      Nalpha   =    5.0000000000 ; deviation = -5.556e-12
      Nbeta    =    4.0000000000 ; deviation = -5.548e-12
      Ntotal   =    9.0000000000 ; deviation = -1.110e-11 

   @Spin Contamination Metric:   5.989664919E-03
   @S^2 Expected:                7.500000000E-01
   @S^2 Observed:                7.559896649E-01
   @S   Expected:                5.000000000E-01
   @S   Observed:                5.000000000E-01

    Orbital Energies [Eh]
    ---------------------

    Alpha Occupied:                                                       

       1A    -18.829933     2A     -0.549550     3A     -0.041043  
       4A      0.023604     5A      0.023604  

    Alpha Virtual:                                                        

       6A      0.316967     7A      0.333843     8A      0.343270  
       9A      0.343270    10A      0.704289    11A      0.707751  
      12A      0.707751    13A      0.719969    14A      0.719969  
      15A      1.355429    16A      1.399914    17A      1.399914  
      18A      1.436536    19A      3.079984    20A      3.095937  
      21A      3.095937    22A      3.146417    23A      3.146417  

    Beta Occupied:                                                        

       1A    -18.805189     2A     -0.472198     3A      0.050903  
       4A      0.050903  

    Beta Virtual:                                                         

       5A      0.172952     6A      0.323324     7A      0.347986  
       8A      0.347986     9A      0.371929    10A      0.718367  
      11A      0.718367    12A      0.719236    13A      0.719236  
      14A      0.724366    15A      1.417214    16A      1.417214  
      17A      1.447715    18A      1.470769    19A      3.162765  
      20A      3.162765    21A      3.173254    22A      3.173254  
      23A      3.188512  

    Final Occupation by Irrep:
              A 
    DOCC [     4 ]
    SOCC [     1 ]
    NA   [     5 ]
    NB   [     4 ]

  @DF-UKS Final Energy:   -75.07271843540528

   => Energetics <=

    Nuclear Repulsion Energy =              0.0000000000000000
    One-Electron Energy =                -106.5441559546718793
    Two-Electron Energy =                  38.4954637869651393
    DFT Exchange-Correlation Energy =      -7.0240262676985292
    Empirical Dispersion Energy =           0.0000000000000000
    VV10 Nonlocal Energy =                  0.0000000000000000
    Total Energy =                        -75.0727184354052781

  UHF NO Occupations:
  HONO-2 :    3  A 1.9988161
  HONO-1 :    4  A 1.9988161
  HONO-0 :    5  A 1.0000000
  LUNO+0 :    6  A 0.0011839
  LUNO+1 :    7  A 0.0011839
  LUNO+2 :    8  A 0.0006285
  LUNO+3 :    9  A 0.0000001


Computation Completed


Properties will be evaluated at   0.000000,   0.000000,   0.000000 [a0]

Properties computed using the SCF density matrix


 Multipole Moments:

 ------------------------------------------------------------------------------------
     Multipole            Electronic (a.u.)      Nuclear  (a.u.)        Total (a.u.)
 ------------------------------------------------------------------------------------

 L = 1.  Multiply by 2.5417464519 to convert [e a0] to [Debye]
 Dipole X            :         -0.0107429            0.0000000           -0.0107429
 Dipole Y            :          0.0000000            0.0000000            0.0000000
 Dipole Z            :          0.0000000            0.0000000            0.0000000
 Magnitude           :                                                    0.0107429

 ------------------------------------------------------------------------------------

*** tstop() called on PNNL-KM3X724WWL at Tue Jul 28 16:59:58 2026
Module time:
	user time   =       0.45 seconds =       0.01 minutes
	system time =       0.10 seconds =       0.00 minutes
	total time  =          0 seconds =       0.00 minutes
Total time:
	user time   =      20.49 seconds =       0.34 minutes
	system time =       3.76 seconds =       0.06 minutes
	total time  =          6 seconds =       0.10 minutes

Scratch directory: /tmp/
   => Libint2 <=

    Primary   basis highest AM E, G, H:  7, 6, 3
    Auxiliary basis highest AM E, G, H:  7, 7, 4
    Onebody   basis highest AM E, G, H:  -, -, -
    Solid Harmonics ordering:            Gaussian

*** tstart() called on PNNL-KM3X724WWL
*** at Tue Jul 28 16:59:58 2026

   => Loading Basis Set <=

    Name: DEF2-SVPD
    Role: ORBITAL
    Keyword: BASIS
    atoms 1 entry O          line   149 file /opt/miniconda3/envs/rsfff/share/psi4/basis/def2-svpd.gbs 


         ---------------------------------------------------------
                                   SCF
               by Justin Turney, Rob Parrish, Andy Simmonett
                          and Daniel G. A. Smith
                              UKS Reference
                       14 Threads,   7629 MiB Core
         ---------------------------------------------------------

  ==> Geometry <==

    Molecular point group: c1
    Geometry (in Angstrom), charge = -1, multiplicity = 2:

       Center              X                  Y                   Z               Mass       
    ------------   -----------------  -----------------  -----------------  -----------------
         O            0.000000000000     0.000000000000     0.000000000000    15.994914619570

  Running in c1 symmetry.

  Rotational constants: A = ************  B = ************  C = ************ [cm^-1]
  Rotational constants: A = ************  B = ************  C = ************ [MHz]
  Nuclear repulsion =    0.000000000000000

  Charge       = -1
  Multiplicity = 2
  Electrons    = 9
  Nalpha       = 5
  Nbeta        = 4

  ==> Algorithm <==

  SCF Algorithm Type is DF.
  DIIS enabled.
  MOM disabled.
  Fractional occupation disabled.
  Guess Type is CORE.
  Energy threshold   = 1.00e-09
  Density threshold  = 1.00e-09
  Integral threshold = 1.00e-12

  ==> Primary Basis <==

  Basis Set: DEF2-SVPD
    Blend: DEF2-SVPD
    Number of shells: 9
    Number of basis functions: 23
    Number of Cartesian functions: 25
    Spherical Harmonics?: true
    Max angular momentum: 2

  ==> DFT Potential <==

   => LibXC <=

    Version 7.0.0
    S. Lehtola, C. Steigemann, M. J.T. Oliveira, and M. A.L. Marques.,  SoftwareX 7, 1–5 (2018) (10.1016/j.softx.2017.11.002)

   => Composite Functional: B3LYP <= 

    B3LYP Hyb-GGA Exchange-Correlation Functional

    P. J. Stephens, F. J. Devlin, C. F. Chabalowski, and M. J. Frisch.,  J. Phys. Chem. 98, 11623 (1994) (10.1021/j100096a001)

    Deriv               =              1
    GGA                 =           TRUE
    Meta                =          FALSE

    Exchange Hybrid     =           TRUE
    MP2 Hybrid          =          FALSE

   => Exchange Functionals <=

    0.0800   Slater exchange
    0.7200         Becke 88

   => Exact (HF) Exchange <=

    0.2000               HF 

   => Correlation Functionals <=

    0.1900   Vosko, Wilk & Nusair (VWN5_RPA)
    0.8100   Lee, Yang & Parr

   => LibXC Density Thresholds  <==

    XC_HYB_GGA_XC_B3LYP:  1.00E-15 

   => Molecular Quadrature <=

    Radial Scheme          =       TREUTLER
    Pruning Scheme         =           NONE
    Nuclear Scheme         =       TREUTLER

    Blocking Scheme        =         OCTREE
    BS radius alpha        =              1
    Pruning alpha          =              1
    Radial Points          =             75
    Spherical Points       =            302
    Total Points           =          22348
    Total Blocks           =            224
    Max Points             =            252
    Max Functions          =             23
    Weights Tolerance      =       1.00E-15

   => Loading Basis Set <=

    Name: (DEF2-SVPD AUX)
    Role: JKFIT
    Keyword: DF_BASIS_SCF
    atoms 1 entry O          line   318 file /opt/miniconda3/envs/rsfff/share/psi4/basis/def2-universal-jkfit.gbs 

  ==> Integral Setup <==

  DFHelper Memory: AOs need 0.001 GiB; user supplied 5.573 GiB. 
  SCF_SUBTYPE=INCORE selected. In-core MEM_DF algorithm will be used.
  Using in-core AOs.

  ==> MemDFJK: Density-Fitted J/K Matrices <==

    J tasked:                   Yes
    K tasked:                   Yes
    wK tasked:                   No
    OpenMP threads:              14
    Memory [MiB]:              5707
    Algorithm:                 Core
    Schwarz Cutoff:           1E-12
    Mask sparsity (%):       0.0000
    Fitting Condition:        1E-10

   => Auxiliary Basis Set <=

  Basis Set: (DEF2-SVPD AUX)
    Blend: DEF2-UNIVERSAL-JKFIT
    Number of shells: 25
    Number of basis functions: 77
    Number of Cartesian functions: 93
    Spherical Harmonics?: true
    Max angular momentum: 4

  Cached 100.0% of DFT collocation blocks in 0.015 [GiB].

  Perturbing V by -0.001000 mu(y).
  Minimum eigenvalue in the overlap matrix is 8.0241971007E-02.
  Reciprocal condition number of the overlap matrix is 3.3278560532E-02.
    Using symmetric orthogonalization.

  ==> Pre-Iterations <==

  SCF Guess: Core (One-Electron) Hamiltonian.

   -------------------------------------------------------
    Irrep   Nso     Nmo     Nalpha   Nbeta   Ndocc  Nsocc
   -------------------------------------------------------
     A         23      23       5       4       4       1
   -------------------------------------------------------
    Total      23      23       5       4       4       1
   -------------------------------------------------------

  ==> Iterations <==

                           Total Energy        Delta E     RMS |[F,P]|

   @DF-UKS iter   1:   -70.61760824197978   -7.06176e+01   9.30746e-02 ADIIS/DIIS
   @DF-UKS iter   2:   -66.77711120254490    3.84050e+00   9.14682e-02 ADIIS/DIIS
   @DF-UKS iter   3:   -75.03744664175450   -8.26034e+00   5.99066e-03 ADIIS/DIIS
   @DF-UKS iter   4:   -75.07050802275202   -3.30614e-02   3.21856e-03 ADIIS/DIIS
   @DF-UKS iter   5:   -75.07035883817171    1.49185e-04   3.19294e-03 ADIIS/DIIS
   @DF-UKS iter   6:   -75.07043074762970   -7.19095e-05   3.14568e-03 ADIIS/DIIS
   @DF-UKS iter   7:   -75.07265575417568   -2.22501e-03   4.99327e-04 ADIIS/DIIS
   @DF-UKS iter   8:   -75.07270865767708   -5.29035e-05   1.63960e-04 ADIIS/DIIS
   @DF-UKS iter   9:   -75.07271744742445   -8.78975e-06   6.15945e-05 DIIS
   @DF-UKS iter  10:   -75.07271843129071   -9.83866e-07   3.84739e-06 DIIS
   @DF-UKS iter  11:   -75.07271843516745   -3.87674e-09   9.99907e-07 DIIS
   @DF-UKS iter  12:   -75.07271843540526   -2.37819e-10   1.41260e-08 DIIS
   @DF-UKS iter  13:   -75.07271843540525    1.42109e-14   7.90480e-10 DIIS
  Energy and wave function converged.


  ==> Post-Iterations <==

   Electrons on quadrature grid:
      Nalpha   =    5.0000000000 ; deviation = -5.561e-12
      Nbeta    =    4.0000000000 ; deviation = -5.548e-12
      Ntotal   =    9.0000000000 ; deviation = -1.111e-11 

   @Spin Contamination Metric:   5.989664919E-03
   @S^2 Expected:                7.500000000E-01
   @S^2 Observed:                7.559896649E-01
   @S   Expected:                5.000000000E-01
   @S   Observed:                5.000000000E-01

    Orbital Energies [Eh]
    ---------------------

    Alpha Occupied:                                                       

       1A    -18.829933     2A     -0.549550     3A     -0.041043  
       4A      0.023604     5A      0.023604  

    Alpha Virtual:                                                        

       6A      0.316967     7A      0.333843     8A      0.343270  
       9A      0.343270    10A      0.704289    11A      0.707751  
      12A      0.707751    13A      0.719969    14A      0.719969  
      15A      1.355429    16A      1.399914    17A      1.399914  
      18A      1.436536    19A      3.079984    20A      3.095937  
      21A      3.095937    22A      3.146417    23A      3.146417  

    Beta Occupied:                                                        

       1A    -18.805189     2A     -0.472198     3A      0.050903  
       4A      0.050903  

    Beta Virtual:                                                         

       5A      0.172952     6A      0.323324     7A      0.347986  
       8A      0.347986     9A      0.371929    10A      0.718367  
      11A      0.718367    12A      0.719236    13A      0.719236  
      14A      0.724366    15A      1.417214    16A      1.417214  
      17A      1.447715    18A      1.470769    19A      3.162765  
      20A      3.162765    21A      3.173254    22A      3.173254  
      23A      3.188512  

    Final Occupation by Irrep:
              A 
    DOCC [     4 ]
    SOCC [     1 ]
    NA   [     5 ]
    NB   [     4 ]

  @DF-UKS Final Energy:   -75.07271843540525

   => Energetics <=

    Nuclear Repulsion Energy =              0.0000000000000000
    One-Electron Energy =                -106.5441559546716803
    Two-Electron Energy =                  38.4954637869649332
    DFT Exchange-Correlation Energy =      -7.0240262676985079
    Empirical Dispersion Energy =           0.0000000000000000
    VV10 Nonlocal Energy =                  0.0000000000000000
    Total Energy =                        -75.0727184354052497

  UHF NO Occupations:
  HONO-2 :    3  A 1.9988161
  HONO-1 :    4  A 1.9988161
  HONO-0 :    5  A 1.0000000
  LUNO+0 :    6  A 0.0011839
  LUNO+1 :    7  A 0.0011839
  LUNO+2 :    8  A 0.0006285
  LUNO+3 :    9  A 0.0000001


Computation Completed


Properties will be evaluated at   0.000000,   0.000000,   0.000000 [a0]

Properties computed using the SCF density matrix


 Multipole Moments:

 ------------------------------------------------------------------------------------
     Multipole            Electronic (a.u.)      Nuclear  (a.u.)        Total (a.u.)
 ------------------------------------------------------------------------------------

 L = 1.  Multiply by 2.5417464519 to convert [e a0] to [Debye]
 Dipole X            :         -0.0000000            0.0000000           -0.0000000
 Dipole Y            :          0.0107429            0.0000000            0.0107429
 Dipole Z            :          0.0000000            0.0000000            0.0000000
 Magnitude           :                                                    0.0107429

 ------------------------------------------------------------------------------------

*** tstop() called on PNNL-KM3X724WWL at Tue Jul 28 16:59:58 2026
Module time:
	user time   =       0.45 seconds =       0.01 minutes
	system time =       0.12 seconds =       0.00 minutes
	total time  =          0 seconds =       0.00 minutes
Total time:
	user time   =      20.96 seconds =       0.35 minutes
	system time =       3.88 seconds =       0.06 minutes
	total time  =          6 seconds =       0.10 minutes

Scratch directory: /tmp/
   => Libint2 <=

    Primary   basis highest AM E, G, H:  7, 6, 3
    Auxiliary basis highest AM E, G, H:  7, 7, 4
    Onebody   basis highest AM E, G, H:  -, -, -
    Solid Harmonics ordering:            Gaussian

*** tstart() called on PNNL-KM3X724WWL
*** at Tue Jul 28 16:59:58 2026

   => Loading Basis Set <=

    Name: DEF2-SVPD
    Role: ORBITAL
    Keyword: BASIS
    atoms 1 entry O          line   149 file /opt/miniconda3/envs/rsfff/share/psi4/basis/def2-svpd.gbs 


         ---------------------------------------------------------
                                   SCF
               by Justin Turney, Rob Parrish, Andy Simmonett
                          and Daniel G. A. Smith
                              UKS Reference
                       14 Threads,   7629 MiB Core
         ---------------------------------------------------------

  ==> Geometry <==

    Molecular point group: c1
    Geometry (in Angstrom), charge = -1, multiplicity = 2:

       Center              X                  Y                   Z               Mass       
    ------------   -----------------  -----------------  -----------------  -----------------
         O            0.000000000000     0.000000000000     0.000000000000    15.994914619570

  Running in c1 symmetry.

  Rotational constants: A = ************  B = ************  C = ************ [cm^-1]
  Rotational constants: A = ************  B = ************  C = ************ [MHz]
  Nuclear repulsion =    0.000000000000000

  Charge       = -1
  Multiplicity = 2
  Electrons    = 9
  Nalpha       = 5
  Nbeta        = 4

  ==> Algorithm <==

  SCF Algorithm Type is DF.
  DIIS enabled.
  MOM disabled.
  Fractional occupation disabled.
  Guess Type is CORE.
  Energy threshold   = 1.00e-09
  Density threshold  = 1.00e-09
  Integral threshold = 1.00e-12

  ==> Primary Basis <==

  Basis Set: DEF2-SVPD
    Blend: DEF2-SVPD
    Number of shells: 9
    Number of basis functions: 23
    Number of Cartesian functions: 25
    Spherical Harmonics?: true
    Max angular momentum: 2

  ==> DFT Potential <==

   => LibXC <=

    Version 7.0.0
    S. Lehtola, C. Steigemann, M. J.T. Oliveira, and M. A.L. Marques.,  SoftwareX 7, 1–5 (2018) (10.1016/j.softx.2017.11.002)

   => Composite Functional: B3LYP <= 

    B3LYP Hyb-GGA Exchange-Correlation Functional

    P. J. Stephens, F. J. Devlin, C. F. Chabalowski, and M. J. Frisch.,  J. Phys. Chem. 98, 11623 (1994) (10.1021/j100096a001)

    Deriv               =              1
    GGA                 =           TRUE
    Meta                =          FALSE

    Exchange Hybrid     =           TRUE
    MP2 Hybrid          =          FALSE

   => Exchange Functionals <=

    0.0800   Slater exchange
    0.7200         Becke 88

   => Exact (HF) Exchange <=

    0.2000               HF 

   => Correlation Functionals <=

    0.1900   Vosko, Wilk & Nusair (VWN5_RPA)
    0.8100   Lee, Yang & Parr

   => LibXC Density Thresholds  <==

    XC_HYB_GGA_XC_B3LYP:  1.00E-15 

   => Molecular Quadrature <=

    Radial Scheme          =       TREUTLER
    Pruning Scheme         =           NONE
    Nuclear Scheme         =       TREUTLER

    Blocking Scheme        =         OCTREE
    BS radius alpha        =              1
    Pruning alpha          =              1
    Radial Points          =             75
    Spherical Points       =            302
    Total Points           =          22348
    Total Blocks           =            224
    Max Points             =            252
    Max Functions          =             23
    Weights Tolerance      =       1.00E-15

   => Loading Basis Set <=

    Name: (DEF2-SVPD AUX)
    Role: JKFIT
    Keyword: DF_BASIS_SCF
    atoms 1 entry O          line   318 file /opt/miniconda3/envs/rsfff/share/psi4/basis/def2-universal-jkfit.gbs 

  ==> Integral Setup <==

  DFHelper Memory: AOs need 0.001 GiB; user supplied 5.573 GiB. 
  SCF_SUBTYPE=INCORE selected. In-core MEM_DF algorithm will be used.
  Using in-core AOs.

  ==> MemDFJK: Density-Fitted J/K Matrices <==

    J tasked:                   Yes
    K tasked:                   Yes
    wK tasked:                   No
    OpenMP threads:              14
    Memory [MiB]:              5707
    Algorithm:                 Core
    Schwarz Cutoff:           1E-12
    Mask sparsity (%):       0.0000
    Fitting Condition:        1E-10

   => Auxiliary Basis Set <=

  Basis Set: (DEF2-SVPD AUX)
    Blend: DEF2-UNIVERSAL-JKFIT
    Number of shells: 25
    Number of basis functions: 77
    Number of Cartesian functions: 93
    Spherical Harmonics?: true
    Max angular momentum: 4

  Cached 100.0% of DFT collocation blocks in 0.015 [GiB].

  Perturbing V by 0.001000 mu(y).
  Minimum eigenvalue in the overlap matrix is 8.0241971007E-02.
  Reciprocal condition number of the overlap matrix is 3.3278560532E-02.
    Using symmetric orthogonalization.

  ==> Pre-Iterations <==

  SCF Guess: Core (One-Electron) Hamiltonian.

   -------------------------------------------------------
    Irrep   Nso     Nmo     Nalpha   Nbeta   Ndocc  Nsocc
   -------------------------------------------------------
     A         23      23       5       4       4       1
   -------------------------------------------------------
    Total      23      23       5       4       4       1
   -------------------------------------------------------

  ==> Iterations <==

                           Total Energy        Delta E     RMS |[F,P]|

   @DF-UKS iter   1:   -70.61760824197981   -7.06176e+01   9.30746e-02 ADIIS/DIIS
   @DF-UKS iter   2:   -66.77711120254490    3.84050e+00   9.14682e-02 ADIIS/DIIS
   @DF-UKS iter   3:   -75.03744664175447   -8.26034e+00   5.99066e-03 ADIIS/DIIS
   @DF-UKS iter   4:   -75.07050802275205   -3.30614e-02   3.21856e-03 ADIIS/DIIS
   @DF-UKS iter   5:   -75.07035883817164    1.49185e-04   3.19294e-03 ADIIS/DIIS
   @DF-UKS iter   6:   -75.07043074762974   -7.19095e-05   3.14568e-03 ADIIS/DIIS
   @DF-UKS iter   7:   -75.07265575417578   -2.22501e-03   4.99327e-04 ADIIS/DIIS
   @DF-UKS iter   8:   -75.07270865767707   -5.29035e-05   1.63960e-04 ADIIS/DIIS
   @DF-UKS iter   9:   -75.07271744742444   -8.78975e-06   6.15945e-05 DIIS
   @DF-UKS iter  10:   -75.07271843129072   -9.83866e-07   3.84739e-06 DIIS
   @DF-UKS iter  11:   -75.07271843516742   -3.87669e-09   9.99907e-07 DIIS
   @DF-UKS iter  12:   -75.07271843540522   -2.37804e-10   1.41260e-08 DIIS
   @DF-UKS iter  13:   -75.07271843540526   -4.26326e-14   7.90480e-10 DIIS
  Energy and wave function converged.


  ==> Post-Iterations <==

   Electrons on quadrature grid:
      Nalpha   =    5.0000000000 ; deviation = -5.556e-12
      Nbeta    =    4.0000000000 ; deviation = -5.549e-12
      Ntotal   =    9.0000000000 ; deviation = -1.110e-11 

   @Spin Contamination Metric:   5.989664919E-03
   @S^2 Expected:                7.500000000E-01
   @S^2 Observed:                7.559896649E-01
   @S   Expected:                5.000000000E-01
   @S   Observed:                5.000000000E-01

    Orbital Energies [Eh]
    ---------------------

    Alpha Occupied:                                                       

       1A    -18.829933     2A     -0.549550     3A     -0.041043  
       4A      0.023604     5A      0.023604  

    Alpha Virtual:                                                        

       6A      0.316967     7A      0.333843     8A      0.343270  
       9A      0.343270    10A      0.704289    11A      0.707751  
      12A      0.707751    13A      0.719969    14A      0.719969  
      15A      1.355429    16A      1.399914    17A      1.399914  
      18A      1.436536    19A      3.079984    20A      3.095937  
      21A      3.095937    22A      3.146417    23A      3.146417  

    Beta Occupied:                                                        

       1A    -18.805189     2A     -0.472198     3A      0.050903  
       4A      0.050903  

    Beta Virtual:                                                         

       5A      0.172952     6A      0.323324     7A      0.347986  
       8A      0.347986     9A      0.371929    10A      0.718367  
      11A      0.718367    12A      0.719236    13A      0.719236  
      14A      0.724366    15A      1.417214    16A      1.417214  
      17A      1.447715    18A      1.470769    19A      3.162765  
      20A      3.162765    21A      3.173254    22A      3.173254  
      23A      3.188512  

    Final Occupation by Irrep:
              A 
    DOCC [     4 ]
    SOCC [     1 ]
    NA   [     5 ]
    NB   [     4 ]

  @DF-UKS Final Energy:   -75.07271843540526

   => Energetics <=

    Nuclear Repulsion Energy =              0.0000000000000000
    One-Electron Energy =                -106.5441559546717656
    Two-Electron Energy =                  38.4954637869650114
    DFT Exchange-Correlation Energy =      -7.0240262676985150
    Empirical Dispersion Energy =           0.0000000000000000
    VV10 Nonlocal Energy =                  0.0000000000000000
    Total Energy =                        -75.0727184354052639

  UHF NO Occupations:
  HONO-2 :    3  A 1.9988161
  HONO-1 :    4  A 1.9988161
  HONO-0 :    5  A 1.0000000
  LUNO+0 :    6  A 0.0011839
  LUNO+1 :    7  A 0.0011839
  LUNO+2 :    8  A 0.0006285
  LUNO+3 :    9  A 0.0000001


Computation Completed


Properties will be evaluated at   0.000000,   0.000000,   0.000000 [a0]

Properties computed using the SCF density matrix


 Multipole Moments:

 ------------------------------------------------------------------------------------
     Multipole            Electronic (a.u.)      Nuclear  (a.u.)        Total (a.u.)
 ------------------------------------------------------------------------------------

 L = 1.  Multiply by 2.5417464519 to convert [e a0] to [Debye]
 Dipole X            :          0.0000000            0.0000000            0.0000000
 Dipole Y            :         -0.0107429            0.0000000           -0.0107429
 Dipole Z            :         -0.0000000            0.0000000           -0.0000000
 Magnitude           :                                                    0.0107429

 ------------------------------------------------------------------------------------

*** tstop() called on PNNL-KM3X724WWL at Tue Jul 28 16:59:59 2026
Module time:
	user time   =       0.44 seconds =       0.01 minutes
	system time =       0.10 seconds =       0.00 minutes
	total time  =          1 seconds =       0.02 minutes
Total time:
	user time   =      21.42 seconds =       0.36 minutes
	system time =       3.98 seconds =       0.07 minutes
	total time  =          7 seconds =       0.12 minutes

Scratch directory: /tmp/
   => Libint2 <=

    Primary   basis highest AM E, G, H:  7, 6, 3
    Auxiliary basis highest AM E, G, H:  7, 7, 4
    Onebody   basis highest AM E, G, H:  -, -, -
    Solid Harmonics ordering:            Gaussian

*** tstart() called on PNNL-KM3X724WWL
*** at Tue Jul 28 16:59:59 2026

   => Loading Basis Set <=

    Name: DEF2-SVPD
    Role: ORBITAL
    Keyword: BASIS
    atoms 1 entry O          line   149 file /opt/miniconda3/envs/rsfff/share/psi4/basis/def2-svpd.gbs 


         ---------------------------------------------------------
                                   SCF
               by Justin Turney, Rob Parrish, Andy Simmonett
                          and Daniel G. A. Smith
                              UKS Reference
                       14 Threads,   7629 MiB Core
         ---------------------------------------------------------

  ==> Geometry <==

    Molecular point group: c1
    Geometry (in Angstrom), charge = -1, multiplicity = 2:

       Center              X                  Y                   Z               Mass       
    ------------   -----------------  -----------------  -----------------  -----------------
         O            0.000000000000     0.000000000000     0.000000000000    15.994914619570

  Running in c1 symmetry.

  Rotational constants: A = ************  B = ************  C = ************ [cm^-1]
  Rotational constants: A = ************  B = ************  C = ************ [MHz]
  Nuclear repulsion =    0.000000000000000

  Charge       = -1
  Multiplicity = 2
  Electrons    = 9
  Nalpha       = 5
  Nbeta        = 4

  ==> Algorithm <==

  SCF Algorithm Type is DF.
  DIIS enabled.
  MOM disabled.
  Fractional occupation disabled.
  Guess Type is CORE.
  Energy threshold   = 1.00e-09
  Density threshold  = 1.00e-09
  Integral threshold = 1.00e-12

  ==> Primary Basis <==

  Basis Set: DEF2-SVPD
    Blend: DEF2-SVPD
    Number of shells: 9
    Number of basis functions: 23
    Number of Cartesian functions: 25
    Spherical Harmonics?: true
    Max angular momentum: 2

  ==> DFT Potential <==

   => LibXC <=

    Version 7.0.0
    S. Lehtola, C. Steigemann, M. J.T. Oliveira, and M. A.L. Marques.,  SoftwareX 7, 1–5 (2018) (10.1016/j.softx.2017.11.002)

   => Composite Functional: B3LYP <= 

    B3LYP Hyb-GGA Exchange-Correlation Functional

    P. J. Stephens, F. J. Devlin, C. F. Chabalowski, and M. J. Frisch.,  J. Phys. Chem. 98, 11623 (1994) (10.1021/j100096a001)

    Deriv               =              1
    GGA                 =           TRUE
    Meta                =          FALSE

    Exchange Hybrid     =           TRUE
    MP2 Hybrid          =          FALSE

   => Exchange Functionals <=

    0.0800   Slater exchange
    0.7200         Becke 88

   => Exact (HF) Exchange <=

    0.2000               HF 

   => Correlation Functionals <=

    0.1900   Vosko, Wilk & Nusair (VWN5_RPA)
    0.8100   Lee, Yang & Parr

   => LibXC Density Thresholds  <==

    XC_HYB_GGA_XC_B3LYP:  1.00E-15 

   => Molecular Quadrature <=

    Radial Scheme          =       TREUTLER
    Pruning Scheme         =           NONE
    Nuclear Scheme         =       TREUTLER

    Blocking Scheme        =         OCTREE
    BS radius alpha        =              1
    Pruning alpha          =              1
    Radial Points          =             75
    Spherical Points       =            302
    Total Points           =          22348
    Total Blocks           =            224
    Max Points             =            252
    Max Functions          =             23
    Weights Tolerance      =       1.00E-15

   => Loading Basis Set <=

    Name: (DEF2-SVPD AUX)
    Role: JKFIT
    Keyword: DF_BASIS_SCF
    atoms 1 entry O          line   318 file /opt/miniconda3/envs/rsfff/share/psi4/basis/def2-universal-jkfit.gbs 

  ==> Integral Setup <==

  DFHelper Memory: AOs need 0.001 GiB; user supplied 5.573 GiB. 
  SCF_SUBTYPE=INCORE selected. In-core MEM_DF algorithm will be used.
  Using in-core AOs.

  ==> MemDFJK: Density-Fitted J/K Matrices <==

    J tasked:                   Yes
    K tasked:                   Yes
    wK tasked:                   No
    OpenMP threads:              14
    Memory [MiB]:              5707
    Algorithm:                 Core
    Schwarz Cutoff:           1E-12
    Mask sparsity (%):       0.0000
    Fitting Condition:        1E-10

   => Auxiliary Basis Set <=

  Basis Set: (DEF2-SVPD AUX)
    Blend: DEF2-UNIVERSAL-JKFIT
    Number of shells: 25
    Number of basis functions: 77
    Number of Cartesian functions: 93
    Spherical Harmonics?: true
    Max angular momentum: 4

  Cached 100.0% of DFT collocation blocks in 0.015 [GiB].

  Perturbing V by -0.001000 mu(z).
  Minimum eigenvalue in the overlap matrix is 8.0241971007E-02.
  Reciprocal condition number of the overlap matrix is 3.3278560532E-02.
    Using symmetric orthogonalization.

  ==> Pre-Iterations <==

  SCF Guess: Core (One-Electron) Hamiltonian.

   -------------------------------------------------------
    Irrep   Nso     Nmo     Nalpha   Nbeta   Ndocc  Nsocc
   -------------------------------------------------------
     A         23      23       5       4       4       1
   -------------------------------------------------------
    Total      23      23       5       4       4       1
   -------------------------------------------------------

  ==> Iterations <==

                           Total Energy        Delta E     RMS |[F,P]|

   @DF-UKS iter   1:   -70.61760824197970   -7.06176e+01   9.30746e-02 ADIIS/DIIS
   @DF-UKS iter   2:   -66.77711120254473    3.84050e+00   9.14682e-02 ADIIS/DIIS
   @DF-UKS iter   3:   -75.03744664175441   -8.26034e+00   5.99066e-03 ADIIS/DIIS
   @DF-UKS iter   4:   -75.07050802275199   -3.30614e-02   3.21856e-03 ADIIS/DIIS
   @DF-UKS iter   5:   -75.07035883817157    1.49185e-04   3.19294e-03 ADIIS/DIIS
   @DF-UKS iter   6:   -75.07043074762973   -7.19095e-05   3.14568e-03 ADIIS/DIIS
   @DF-UKS iter   7:   -75.07265575417570   -2.22501e-03   4.99327e-04 ADIIS/DIIS
   @DF-UKS iter   8:   -75.07270865767707   -5.29035e-05   1.63960e-04 ADIIS/DIIS
   @DF-UKS iter   9:   -75.07271744742447   -8.78975e-06   6.15945e-05 DIIS
   @DF-UKS iter  10:   -75.07271843129071   -9.83866e-07   3.84739e-06 DIIS
   @DF-UKS iter  11:   -75.07271843516745   -3.87674e-09   9.99907e-07 DIIS
   @DF-UKS iter  12:   -75.07271843540516   -2.37719e-10   1.41260e-08 DIIS
   @DF-UKS iter  13:   -75.07271843540524   -7.10543e-14   7.90481e-10 DIIS
  Energy and wave function converged.


  ==> Post-Iterations <==

   Electrons on quadrature grid:
      Nalpha   =    5.0000000000 ; deviation = -5.560e-12
      Nbeta    =    4.0000000000 ; deviation = -5.550e-12
      Ntotal   =    9.0000000000 ; deviation = -1.111e-11 

   @Spin Contamination Metric:   5.989664919E-03
   @S^2 Expected:                7.500000000E-01
   @S^2 Observed:                7.559896649E-01
   @S   Expected:                5.000000000E-01
   @S   Observed:                5.000000000E-01

    Orbital Energies [Eh]
    ---------------------

    Alpha Occupied:                                                       

       1A    -18.829933     2A     -0.549550     3A     -0.041043  
       4A      0.023604     5A      0.023604  

    Alpha Virtual:                                                        

       6A      0.316967     7A      0.333843     8A      0.343270  
       9A      0.343270    10A      0.704289    11A      0.707751  
      12A      0.707751    13A      0.719969    14A      0.719969  
      15A      1.355429    16A      1.399914    17A      1.399914  
      18A      1.436536    19A      3.079984    20A      3.095937  
      21A      3.095937    22A      3.146417    23A      3.146417  

    Beta Occupied:                                                        

       1A    -18.805189     2A     -0.472198     3A      0.050903  
       4A      0.050903  

    Beta Virtual:                                                         

       5A      0.172952     6A      0.323324     7A      0.347986  
       8A      0.347986     9A      0.371929    10A      0.718367  
      11A      0.718367    12A      0.719236    13A      0.719236  
      14A      0.724366    15A      1.417214    16A      1.417214  
      17A      1.447715    18A      1.470769    19A      3.162765  
      20A      3.162765    21A      3.173254    22A      3.173254  
      23A      3.188512  

    Final Occupation by Irrep:
              A 
    DOCC [     4 ]
    SOCC [     1 ]
    NA   [     5 ]
    NB   [     4 ]

  @DF-UKS Final Energy:   -75.07271843540524

   => Energetics <=

    Nuclear Repulsion Energy =              0.0000000000000000
    One-Electron Energy =                -106.5441559546718793
    Two-Electron Energy =                  38.4954637869651819
    DFT Exchange-Correlation Energy =      -7.0240262676985310
    Empirical Dispersion Energy =           0.0000000000000000
    VV10 Nonlocal Energy =                  0.0000000000000000
    Total Energy =                        -75.0727184354052213

  UHF NO Occupations:
  HONO-2 :    3  A 1.9988161
  HONO-1 :    4  A 1.9988161
  HONO-0 :    5  A 1.0000000
  LUNO+0 :    6  A 0.0011839
  LUNO+1 :    7  A 0.0011839
  LUNO+2 :    8  A 0.0006285
  LUNO+3 :    9  A 0.0000001


Computation Completed


Properties will be evaluated at   0.000000,   0.000000,   0.000000 [a0]

Properties computed using the SCF density matrix


 Multipole Moments:

 ------------------------------------------------------------------------------------
     Multipole            Electronic (a.u.)      Nuclear  (a.u.)        Total (a.u.)
 ------------------------------------------------------------------------------------

 L = 1.  Multiply by 2.5417464519 to convert [e a0] to [Debye]
 Dipole X            :         -0.0000000            0.0000000           -0.0000000
 Dipole Y            :          0.0000000            0.0000000            0.0000000
 Dipole Z            :          0.0107429            0.0000000            0.0107429
 Magnitude           :                                                    0.0107429

 ------------------------------------------------------------------------------------

*** tstop() called on PNNL-KM3X724WWL at Tue Jul 28 16:59:59 2026
Module time:
	user time   =       0.44 seconds =       0.01 minutes
	system time =       0.11 seconds =       0.00 minutes
	total time  =          0 seconds =       0.00 minutes
Total time:
	user time   =      21.88 seconds =       0.36 minutes
	system time =       4.09 seconds =       0.07 minutes
	total time  =          7 seconds =       0.12 minutes

Scratch directory: /tmp/
   => Libint2 <=

    Primary   basis highest AM E, G, H:  7, 6, 3
    Auxiliary basis highest AM E, G, H:  7, 7, 4
    Onebody   basis highest AM E, G, H:  -, -, -
    Solid Harmonics ordering:            Gaussian

*** tstart() called on PNNL-KM3X724WWL
*** at Tue Jul 28 16:59:59 2026

   => Loading Basis Set <=

    Name: DEF2-SVPD
    Role: ORBITAL
    Keyword: BASIS
    atoms 1 entry O          line   149 file /opt/miniconda3/envs/rsfff/share/psi4/basis/def2-svpd.gbs 


         ---------------------------------------------------------
                                   SCF
               by Justin Turney, Rob Parrish, Andy Simmonett
                          and Daniel G. A. Smith
                              UKS Reference
                       14 Threads,   7629 MiB Core
         ---------------------------------------------------------

  ==> Geometry <==

    Molecular point group: c1
    Geometry (in Angstrom), charge = -1, multiplicity = 2:

       Center              X                  Y                   Z               Mass       
    ------------   -----------------  -----------------  -----------------  -----------------
         O            0.000000000000     0.000000000000     0.000000000000    15.994914619570

  Running in c1 symmetry.

  Rotational constants: A = ************  B = ************  C = ************ [cm^-1]
  Rotational constants: A = ************  B = ************  C = ************ [MHz]
  Nuclear repulsion =    0.000000000000000

  Charge       = -1
  Multiplicity = 2
  Electrons    = 9
  Nalpha       = 5
  Nbeta        = 4

  ==> Algorithm <==

  SCF Algorithm Type is DF.
  DIIS enabled.
  MOM disabled.
  Fractional occupation disabled.
  Guess Type is CORE.
  Energy threshold   = 1.00e-09
  Density threshold  = 1.00e-09
  Integral threshold = 1.00e-12

  ==> Primary Basis <==

  Basis Set: DEF2-SVPD
    Blend: DEF2-SVPD
    Number of shells: 9
    Number of basis functions: 23
    Number of Cartesian functions: 25
    Spherical Harmonics?: true
    Max angular momentum: 2

  ==> DFT Potential <==

   => LibXC <=

    Version 7.0.0
    S. Lehtola, C. Steigemann, M. J.T. Oliveira, and M. A.L. Marques.,  SoftwareX 7, 1–5 (2018) (10.1016/j.softx.2017.11.002)

   => Composite Functional: B3LYP <= 

    B3LYP Hyb-GGA Exchange-Correlation Functional

    P. J. Stephens, F. J. Devlin, C. F. Chabalowski, and M. J. Frisch.,  J. Phys. Chem. 98, 11623 (1994) (10.1021/j100096a001)

    Deriv               =              1
    GGA                 =           TRUE
    Meta                =          FALSE

    Exchange Hybrid     =           TRUE
    MP2 Hybrid          =          FALSE

   => Exchange Functionals <=

    0.0800   Slater exchange
    0.7200         Becke 88

   => Exact (HF) Exchange <=

    0.2000               HF 

   => Correlation Functionals <=

    0.1900   Vosko, Wilk & Nusair (VWN5_RPA)
    0.8100   Lee, Yang & Parr

   => LibXC Density Thresholds  <==

    XC_HYB_GGA_XC_B3LYP:  1.00E-15 

   => Molecular Quadrature <=

    Radial Scheme          =       TREUTLER
    Pruning Scheme         =           NONE
    Nuclear Scheme         =       TREUTLER

    Blocking Scheme        =         OCTREE
    BS radius alpha        =              1
    Pruning alpha          =              1
    Radial Points          =             75
    Spherical Points       =            302
    Total Points           =          22348
    Total Blocks           =            224
    Max Points             =            252
    Max Functions          =             23
    Weights Tolerance      =       1.00E-15

   => Loading Basis Set <=

    Name: (DEF2-SVPD AUX)
    Role: JKFIT
    Keyword: DF_BASIS_SCF
    atoms 1 entry O          line   318 file /opt/miniconda3/envs/rsfff/share/psi4/basis/def2-universal-jkfit.gbs 

  ==> Integral Setup <==

  DFHelper Memory: AOs need 0.001 GiB; user supplied 5.573 GiB. 
  SCF_SUBTYPE=INCORE selected. In-core MEM_DF algorithm will be used.
  Using in-core AOs.

  ==> MemDFJK: Density-Fitted J/K Matrices <==

    J tasked:                   Yes
    K tasked:                   Yes
    wK tasked:                   No
    OpenMP threads:              14
    Memory [MiB]:              5707
    Algorithm:                 Core
    Schwarz Cutoff:           1E-12
    Mask sparsity (%):       0.0000
    Fitting Condition:        1E-10

   => Auxiliary Basis Set <=

  Basis Set: (DEF2-SVPD AUX)
    Blend: DEF2-UNIVERSAL-JKFIT
    Number of shells: 25
    Number of basis functions: 77
    Number of Cartesian functions: 93
    Spherical Harmonics?: true
    Max angular momentum: 4

  Cached 100.0% of DFT collocation blocks in 0.015 [GiB].

  Perturbing V by 0.001000 mu(z).
  Minimum eigenvalue in the overlap matrix is 8.0241971007E-02.
  Reciprocal condition number of the overlap matrix is 3.3278560532E-02.
    Using symmetric orthogonalization.

  ==> Pre-Iterations <==

  SCF Guess: Core (One-Electron) Hamiltonian.

   -------------------------------------------------------
    Irrep   Nso     Nmo     Nalpha   Nbeta   Ndocc  Nsocc
   -------------------------------------------------------
     A         23      23       5       4       4       1
   -------------------------------------------------------
    Total      23      23       5       4       4       1
   -------------------------------------------------------

  ==> Iterations <==

                           Total Energy        Delta E     RMS |[F,P]|

   @DF-UKS iter   1:   -70.61760824197978   -7.06176e+01   9.30746e-02 ADIIS/DIIS
   @DF-UKS iter   2:   -66.77711120254472    3.84050e+00   9.14682e-02 ADIIS/DIIS
   @DF-UKS iter   3:   -75.03744664175449   -8.26034e+00   5.99066e-03 ADIIS/DIIS
   @DF-UKS iter   4:   -75.07050802275197   -3.30614e-02   3.21856e-03 ADIIS/DIIS
   @DF-UKS iter   5:   -75.07035883817170    1.49185e-04   3.19294e-03 ADIIS/DIIS
   @DF-UKS iter   6:   -75.07043074762973   -7.19095e-05   3.14568e-03 ADIIS/DIIS
   @DF-UKS iter   7:   -75.07265575417580   -2.22501e-03   4.99327e-04 ADIIS/DIIS
   @DF-UKS iter   8:   -75.07270865767711   -5.29035e-05   1.63960e-04 ADIIS/DIIS
   @DF-UKS iter   9:   -75.07271744742445   -8.78975e-06   6.15945e-05 DIIS
   @DF-UKS iter  10:   -75.07271843129074   -9.83866e-07   3.84739e-06 DIIS
   @DF-UKS iter  11:   -75.07271843516743   -3.87669e-09   9.99907e-07 DIIS
   @DF-UKS iter  12:   -75.07271843540519   -2.37762e-10   1.41260e-08 DIIS
   @DF-UKS iter  13:   -75.07271843540521   -1.42109e-14   7.90480e-10 DIIS
  Energy and wave function converged.


  ==> Post-Iterations <==

   Electrons on quadrature grid:
      Nalpha   =    5.0000000000 ; deviation = -5.558e-12
      Nbeta    =    4.0000000000 ; deviation = -5.551e-12
      Ntotal   =    9.0000000000 ; deviation = -1.111e-11 

   @Spin Contamination Metric:   5.989664919E-03
   @S^2 Expected:                7.500000000E-01
   @S^2 Observed:                7.559896649E-01
   @S   Expected:                5.000000000E-01
   @S   Observed:                5.000000000E-01

    Orbital Energies [Eh]
    ---------------------

    Alpha Occupied:                                                       

       1A    -18.829933     2A     -0.549550     3A     -0.041043  
       4A      0.023604     5A      0.023604  

    Alpha Virtual:                                                        

       6A      0.316967     7A      0.333843     8A      0.343270  
       9A      0.343270    10A      0.704289    11A      0.707751  
      12A      0.707751    13A      0.719969    14A      0.719969  
      15A      1.355429    16A      1.399914    17A      1.399914  
      18A      1.436536    19A      3.079984    20A      3.095937  
      21A      3.095937    22A      3.146417    23A      3.146417  

    Beta Occupied:                                                        

       1A    -18.805189     2A     -0.472198     3A      0.050903  
       4A      0.050903  

    Beta Virtual:                                                         

       5A      0.172952     6A      0.323324     7A      0.347986  
       8A      0.347986     9A      0.371929    10A      0.718367  
      11A      0.718367    12A      0.719236    13A      0.719236  
      14A      0.724366    15A      1.417214    16A      1.417214  
      17A      1.447715    18A      1.470769    19A      3.162765  
      20A      3.162765    21A      3.173254    22A      3.173254  
      23A      3.188512  

    Final Occupation by Irrep:
              A 
    DOCC [     4 ]
    SOCC [     1 ]
    NA   [     5 ]
    NB   [     4 ]

  @DF-UKS Final Energy:   -75.07271843540521

   => Energetics <=

    Nuclear Repulsion Energy =              0.0000000000000000
    One-Electron Energy =                -106.5441559546717940
    Two-Electron Energy =                  38.4954637869650895
    DFT Exchange-Correlation Energy =      -7.0240262676985212
    Empirical Dispersion Energy =           0.0000000000000000
    VV10 Nonlocal Energy =                  0.0000000000000000
    Total Energy =                        -75.0727184354052213

  UHF NO Occupations:
  HONO-2 :    3  A 1.9988161
  HONO-1 :    4  A 1.9988161
  HONO-0 :    5  A 1.0000000
  LUNO+0 :    6  A 0.0011839
  LUNO+1 :    7  A 0.0011839
  LUNO+2 :    8  A 0.0006285
  LUNO+3 :    9  A 0.0000001


Computation Completed


Properties will be evaluated at   0.000000,   0.000000,   0.000000 [a0]

Properties computed using the SCF density matrix


 Multipole Moments:

 ------------------------------------------------------------------------------------
     Multipole            Electronic (a.u.)      Nuclear  (a.u.)        Total (a.u.)
 ------------------------------------------------------------------------------------

 L = 1.  Multiply by 2.5417464519 to convert [e a0] to [Debye]
 Dipole X            :          0.0000000            0.0000000            0.0000000
 Dipole Y            :         -0.0000000            0.0000000           -0.0000000
 Dipole Z            :         -0.0107429            0.0000000           -0.0107429
 Magnitude           :                                                    0.0107429

 ------------------------------------------------------------------------------------

*** tstop() called on PNNL-KM3X724WWL at Tue Jul 28 16:59:59 2026
Module time:
	user time   =       0.43 seconds =       0.01 minutes
	system time =       0.10 seconds =       0.00 minutes
	total time  =          0 seconds =       0.00 minutes
Total time:
	user time   =      22.33 seconds =       0.37 minutes
	system time =       4.19 seconds =       0.07 minutes
	total time  =          7 seconds =       0.12 minutes

Scratch directory: /tmp/
   => Libint2 <=

    Primary   basis highest AM E, G, H:  7, 6, 3
    Auxiliary basis highest AM E, G, H:  7, 7, 4
    Onebody   basis highest AM E, G, H:  -, -, -
    Solid Harmonics ordering:            Gaussian

*** tstart() called on PNNL-KM3X724WWL
*** at Tue Jul 28 16:59:59 2026

   => Loading Basis Set <=

    Name: DEF2-SVPD
    Role: ORBITAL
    Keyword: BASIS
    atoms 1 entry O          line   149 file /opt/miniconda3/envs/rsfff/share/psi4/basis/def2-svpd.gbs 


         ---------------------------------------------------------
                                   SCF
               by Justin Turney, Rob Parrish, Andy Simmonett
                          and Daniel G. A. Smith
                              RKS Reference
                       14 Threads,   7629 MiB Core
         ---------------------------------------------------------

  ==> Geometry <==

    Molecular point group: c1
    Geometry (in Angstrom), charge = -2, multiplicity = 1:

       Center              X                  Y                   Z               Mass       
    ------------   -----------------  -----------------  -----------------  -----------------
         O            0.000000000000     0.000000000000     0.000000000000    15.994914619570

  Running in c1 symmetry.

  Rotational constants: A = ************  B = ************  C = ************ [cm^-1]
  Rotational constants: A = ************  B = ************  C = ************ [MHz]
  Nuclear repulsion =    0.000000000000000

  Charge       = -2
  Multiplicity = 1
  Electrons    = 10
  Nalpha       = 5
  Nbeta        = 5

  ==> Algorithm <==

  SCF Algorithm Type is DF.
  DIIS enabled.
  MOM disabled.
  Fractional occupation disabled.
  Guess Type is CORE.
  Energy threshold   = 1.00e-09
  Density threshold  = 1.00e-09
  Integral threshold = 1.00e-12

  ==> Primary Basis <==

  Basis Set: DEF2-SVPD
    Blend: DEF2-SVPD
    Number of shells: 9
    Number of basis functions: 23
    Number of Cartesian functions: 25
    Spherical Harmonics?: true
    Max angular momentum: 2

  ==> DFT Potential <==

   => LibXC <=

    Version 7.0.0
    S. Lehtola, C. Steigemann, M. J.T. Oliveira, and M. A.L. Marques.,  SoftwareX 7, 1–5 (2018) (10.1016/j.softx.2017.11.002)

   => Composite Functional: B3LYP <= 

    B3LYP Hyb-GGA Exchange-Correlation Functional

    P. J. Stephens, F. J. Devlin, C. F. Chabalowski, and M. J. Frisch.,  J. Phys. Chem. 98, 11623 (1994) (10.1021/j100096a001)

    Deriv               =              1
    GGA                 =           TRUE
    Meta                =          FALSE

    Exchange Hybrid     =           TRUE
    MP2 Hybrid          =          FALSE

   => Exchange Functionals <=

    0.0800   Slater exchange
    0.7200         Becke 88

   => Exact (HF) Exchange <=

    0.2000               HF 

   => Correlation Functionals <=

    0.1900   Vosko, Wilk & Nusair (VWN5_RPA)
    0.8100   Lee, Yang & Parr

   => LibXC Density Thresholds  <==

    XC_HYB_GGA_XC_B3LYP:  1.00E-15 

   => Molecular Quadrature <=

    Radial Scheme          =       TREUTLER
    Pruning Scheme         =           NONE
    Nuclear Scheme         =       TREUTLER

    Blocking Scheme        =         OCTREE
    BS radius alpha        =              1
    Pruning alpha          =              1
    Radial Points          =             75
    Spherical Points       =            302
    Total Points           =          22348
    Total Blocks           =            224
    Max Points             =            252
    Max Functions          =             23
    Weights Tolerance      =       1.00E-15

   => Loading Basis Set <=

    Name: (DEF2-SVPD AUX)
    Role: JKFIT
    Keyword: DF_BASIS_SCF
    atoms 1 entry O          line   318 file /opt/miniconda3/envs/rsfff/share/psi4/basis/def2-universal-jkfit.gbs 

  ==> Integral Setup <==

  DFHelper Memory: AOs need 0.001 GiB; user supplied 5.573 GiB. 
  SCF_SUBTYPE=INCORE selected. In-core MEM_DF algorithm will be used.
  Using in-core AOs.

  ==> MemDFJK: Density-Fitted J/K Matrices <==

    J tasked:                   Yes
    K tasked:                   Yes
    wK tasked:                   No
    OpenMP threads:              14
    Memory [MiB]:              5707
    Algorithm:                 Core
    Schwarz Cutoff:           1E-12
    Mask sparsity (%):       0.0000
    Fitting Condition:        1E-10

   => Auxiliary Basis Set <=

  Basis Set: (DEF2-SVPD AUX)
    Blend: DEF2-UNIVERSAL-JKFIT
    Number of shells: 25
    Number of basis functions: 77
    Number of Cartesian functions: 93
    Spherical Harmonics?: true
    Max angular momentum: 4

  Cached 100.0% of DFT collocation blocks in 0.015 [GiB].

  Minimum eigenvalue in the overlap matrix is 8.0241971007E-02.
  Reciprocal condition number of the overlap matrix is 3.3278560532E-02.
    Using symmetric orthogonalization.

  ==> Pre-Iterations <==

  SCF Guess: Core (One-Electron) Hamiltonian.

   -------------------------------------------------------
    Irrep   Nso     Nmo     Nalpha   Nbeta   Ndocc  Nsocc
   -------------------------------------------------------
     A         23      23       5       5       5       0
   -------------------------------------------------------
    Total      23      23       5       5       5       0
   -------------------------------------------------------

  ==> Iterations <==

                           Total Energy        Delta E     RMS |[F,P]|

   @DF-RKS iter   1:   -67.88910110263609   -6.78891e+01   1.07828e-01 ADIIS
   @DF-RKS iter   2:   -64.93939514400932    2.94971e+00   6.40009e-02 ADIIS/DIIS
   @DF-RKS iter   3:   -73.59525670491099   -8.65586e+00   6.61983e-02 ADIIS/DIIS
   @DF-RKS iter   4:   -74.39384249720327   -7.98586e-01   4.04678e-02 ADIIS/DIIS
   @DF-RKS iter   5:   -74.82273825691041   -4.28896e-01   2.30755e-03 ADIIS/DIIS
   @DF-RKS iter   6:   -74.81299599366115    9.74226e-03   7.23322e-03 ADIIS/DIIS
   @DF-RKS iter   7:   -74.82431760097330   -1.13216e-02   1.94333e-03 ADIIS/DIIS
   @DF-RKS iter   8:   -74.82521384509998   -8.96244e-04   1.99141e-05 DIIS
   @DF-RKS iter   9:   -74.82521391553121   -7.04312e-08   6.08723e-06 DIIS
   @DF-RKS iter  10:   -74.82521392429919   -8.76798e-09   5.26702e-08 DIIS
   @DF-RKS iter  11:   -74.82521392429993   -7.38964e-13   1.53693e-08 DIIS
   @DF-RKS iter  12:   -74.82521392429993    0.00000e+00   1.31944e-10 DIIS
  Energy and wave function converged.


  ==> Post-Iterations <==

   Electrons on quadrature grid:
      Ntotal   =   10.0000000000 ; deviation = -1.113e-11 

    Orbital Energies [Eh]
    ---------------------

    Doubly Occupied:                                                      

       1A    -18.537397     2A     -0.224856     3A      0.312241  
       4A      0.312241     5A      0.312241  

    Virtual:                                                              

       6A      0.531598     7A      0.551950     8A      0.551950  
       9A      0.551950    10A      0.956905    11A      0.956905  
      12A      0.956905    13A      0.956905    14A      0.956905  
      15A      1.673699    16A      1.673699    17A      1.673699  
      18A      1.720049    19A      3.430412    20A      3.430412  
      21A      3.430412    22A      3.430412    23A      3.430412  

    Final Occupation by Irrep:
              A 
    DOCC [     5 ]
    NA   [     5 ]
    NB   [     5 ]

  @DF-RKS Final Energy:   -74.82521392429993

   => Energetics <=

    Nuclear Repulsion Energy =              0.0000000000000000
    One-Electron Energy =                -108.8651683409614037
    Two-Electron Energy =                  41.1764812232500148
    DFT Exchange-Correlation Energy =      -7.1365268065885354
    Empirical Dispersion Energy =           0.0000000000000000
    VV10 Nonlocal Energy =                  0.0000000000000000
    Total Energy =                        -74.8252139242999306

Computation Completed


Properties will be evaluated at   0.000000,   0.000000,   0.000000 [a0]

Properties computed using the SCF density matrix


 Multipole Moments:

 ------------------------------------------------------------------------------------
     Multipole            Electronic (a.u.)      Nuclear  (a.u.)        Total (a.u.)
 ------------------------------------------------------------------------------------

 L = 1.  Multiply by 2.5417464519 to convert [e a0] to [Debye]
 Dipole X            :         -0.0000000            0.0000000           -0.0000000
 Dipole Y            :         -0.0000000            0.0000000           -0.0000000
 Dipole Z            :          0.0000000            0.0000000            0.0000000
 Magnitude           :                                                    0.0000000

 ------------------------------------------------------------------------------------

*** tstop() called on PNNL-KM3X724WWL at Tue Jul 28 16:59:59 2026
Module time:
	user time   =       0.27 seconds =       0.00 minutes
	system time =       0.07 seconds =       0.00 minutes
	total time  =          0 seconds =       0.00 minutes
Total time:
	user time   =      22.62 seconds =       0.38 minutes
	system time =       4.27 seconds =       0.07 minutes
	total time  =          7 seconds =       0.12 minutes

Scratch directory: /tmp/
   => Libint2 <=

    Primary   basis highest AM E, G, H:  7, 6, 3
    Auxiliary basis highest AM E, G, H:  7, 7, 4
    Onebody   basis highest AM E, G, H:  -, -, -
    Solid Harmonics ordering:            Gaussian

*** tstart() called on PNNL-KM3X724WWL
*** at Tue Jul 28 16:59:59 2026

   => Loading Basis Set <=

    Name: DEF2-SVPD
    Role: ORBITAL
    Keyword: BASIS
    atoms 1 entry O          line   149 file /opt/miniconda3/envs/rsfff/share/psi4/basis/def2-svpd.gbs 


         ---------------------------------------------------------
                                   SCF
               by Justin Turney, Rob Parrish, Andy Simmonett
                          and Daniel G. A. Smith
                              RKS Reference
                       14 Threads,   7629 MiB Core
         ---------------------------------------------------------

  ==> Geometry <==

    Molecular point group: c1
    Geometry (in Angstrom), charge = -2, multiplicity = 1:

       Center              X                  Y                   Z               Mass       
    ------------   -----------------  -----------------  -----------------  -----------------
         O            0.000000000000     0.000000000000     0.000000000000    15.994914619570

  Running in c1 symmetry.

  Rotational constants: A = ************  B = ************  C = ************ [cm^-1]
  Rotational constants: A = ************  B = ************  C = ************ [MHz]
  Nuclear repulsion =    0.000000000000000

  Charge       = -2
  Multiplicity = 1
  Electrons    = 10
  Nalpha       = 5
  Nbeta        = 5

  ==> Algorithm <==

  SCF Algorithm Type is DF.
  DIIS enabled.
  MOM disabled.
  Fractional occupation disabled.
  Guess Type is CORE.
  Energy threshold   = 1.00e-09
  Density threshold  = 1.00e-09
  Integral threshold = 1.00e-12

  ==> Primary Basis <==

  Basis Set: DEF2-SVPD
    Blend: DEF2-SVPD
    Number of shells: 9
    Number of basis functions: 23
    Number of Cartesian functions: 25
    Spherical Harmonics?: true
    Max angular momentum: 2

  ==> DFT Potential <==

   => LibXC <=

    Version 7.0.0
    S. Lehtola, C. Steigemann, M. J.T. Oliveira, and M. A.L. Marques.,  SoftwareX 7, 1–5 (2018) (10.1016/j.softx.2017.11.002)

   => Composite Functional: B3LYP <= 

    B3LYP Hyb-GGA Exchange-Correlation Functional

    P. J. Stephens, F. J. Devlin, C. F. Chabalowski, and M. J. Frisch.,  J. Phys. Chem. 98, 11623 (1994) (10.1021/j100096a001)

    Deriv               =              1
    GGA                 =           TRUE
    Meta                =          FALSE

    Exchange Hybrid     =           TRUE
    MP2 Hybrid          =          FALSE

   => Exchange Functionals <=

    0.0800   Slater exchange
    0.7200         Becke 88

   => Exact (HF) Exchange <=

    0.2000               HF 

   => Correlation Functionals <=

    0.1900   Vosko, Wilk & Nusair (VWN5_RPA)
    0.8100   Lee, Yang & Parr

   => LibXC Density Thresholds  <==

    XC_HYB_GGA_XC_B3LYP:  1.00E-15 

   => Molecular Quadrature <=

    Radial Scheme          =       TREUTLER
    Pruning Scheme         =           NONE
    Nuclear Scheme         =       TREUTLER

    Blocking Scheme        =         OCTREE
    BS radius alpha        =              1
    Pruning alpha          =              1
    Radial Points          =             75
    Spherical Points       =            302
    Total Points           =          22348
    Total Blocks           =            224
    Max Points             =            252
    Max Functions          =             23
    Weights Tolerance      =       1.00E-15

   => Loading Basis Set <=

    Name: (DEF2-SVPD AUX)
    Role: JKFIT
    Keyword: DF_BASIS_SCF
    atoms 1 entry O          line   318 file /opt/miniconda3/envs/rsfff/share/psi4/basis/def2-universal-jkfit.gbs 

  ==> Integral Setup <==

  DFHelper Memory: AOs need 0.001 GiB; user supplied 5.573 GiB. 
  SCF_SUBTYPE=INCORE selected. In-core MEM_DF algorithm will be used.
  Using in-core AOs.

  ==> MemDFJK: Density-Fitted J/K Matrices <==

    J tasked:                   Yes
    K tasked:                   Yes
    wK tasked:                   No
    OpenMP threads:              14
    Memory [MiB]:              5707
    Algorithm:                 Core
    Schwarz Cutoff:           1E-12
    Mask sparsity (%):       0.0000
    Fitting Condition:        1E-10

   => Auxiliary Basis Set <=

  Basis Set: (DEF2-SVPD AUX)
    Blend: DEF2-UNIVERSAL-JKFIT
    Number of shells: 25
    Number of basis functions: 77
    Number of Cartesian functions: 93
    Spherical Harmonics?: true
    Max angular momentum: 4

  Cached 100.0% of DFT collocation blocks in 0.015 [GiB].

  Perturbing V by -0.001000 mu(x).
  Minimum eigenvalue in the overlap matrix is 8.0241971007E-02.
  Reciprocal condition number of the overlap matrix is 3.3278560532E-02.
    Using symmetric orthogonalization.

  ==> Pre-Iterations <==

  SCF Guess: Core (One-Electron) Hamiltonian.

   -------------------------------------------------------
    Irrep   Nso     Nmo     Nalpha   Nbeta   Ndocc  Nsocc
   -------------------------------------------------------
     A         23      23       5       5       5       0
   -------------------------------------------------------
    Total      23      23       5       5       5       0
   -------------------------------------------------------

  ==> Iterations <==

                           Total Energy        Delta E     RMS |[F,P]|

   @DF-RKS iter   1:   -67.88910148730093   -6.78891e+01   1.07828e-01 ADIIS
   @DF-RKS iter   2:   -64.93944487109916    2.94966e+00   6.40016e-02 ADIIS/DIIS
   @DF-RKS iter   3:   -73.59530445082899   -8.65586e+00   6.61970e-02 ADIIS/DIIS
   @DF-RKS iter   4:   -74.39385447602176   -7.98550e-01   4.04680e-02 ADIIS/DIIS
   @DF-RKS iter   5:   -74.82275327568551   -4.28899e-01   2.30610e-03 ADIIS/DIIS
   @DF-RKS iter   6:   -74.81300941770962    9.74386e-03   7.23390e-03 ADIIS/DIIS
   @DF-RKS iter   7:   -74.82433341748099   -1.13240e-02   1.94331e-03 ADIIS/DIIS
   @DF-RKS iter   8:   -74.82522964006054   -8.96223e-04   1.92732e-05 DIIS
   @DF-RKS iter   9:   -74.82522967776796   -3.77074e-08   1.24665e-05 DIIS
   @DF-RKS iter  10:   -74.82522971270804   -3.49401e-08   2.45154e-06 DIIS
   @DF-RKS iter  11:   -74.82522971409901   -1.39097e-09   2.37381e-07 DIIS
   @DF-RKS iter  12:   -74.82522971411220   -1.31877e-11   1.21432e-08 DIIS
   @DF-RKS iter  13:   -74.82522971411220    0.00000e+00   1.71358e-09 DIIS
   @DF-RKS iter  14:   -74.82522971411218    1.42109e-14   6.32805e-12 DIIS
  Energy and wave function converged.


  ==> Post-Iterations <==

   Electrons on quadrature grid:
      Ntotal   =   10.0000000000 ; deviation = -1.113e-11 

    Orbital Energies [Eh]
    ---------------------

    Doubly Occupied:                                                      

       1A    -18.537409     2A     -0.224865     3A      0.312231  
       4A      0.312233     5A      0.312233  

    Virtual:                                                              

       6A      0.531484     7A      0.551946     8A      0.551946  
       9A      0.552061    10A      0.956903    11A      0.956903  
      12A      0.956904    13A      0.956904    14A      0.956905  
      15A      1.673685    16A      1.673692    17A      1.673692  
      18A      1.720050    19A      3.430401    20A      3.430402  
      21A      3.430402    22A      3.430405    23A      3.430405  

    Final Occupation by Irrep:
              A 
    DOCC [     5 ]
    NA   [     5 ]
    NB   [     5 ]

  @DF-RKS Final Energy:   -74.82522971411218

   => Energetics <=

    Nuclear Repulsion Energy =              0.0000000000000000
    One-Electron Energy =                -108.8651109494135341
    Two-Electron Energy =                  41.1764036063383543
    DFT Exchange-Correlation Energy =      -7.1365223710370014
    Empirical Dispersion Energy =           0.0000000000000000
    VV10 Nonlocal Energy =                  0.0000000000000000
    Total Energy =                        -74.8252297141121829

Computation Completed


Properties will be evaluated at   0.000000,   0.000000,   0.000000 [a0]

Properties computed using the SCF density matrix


 Multipole Moments:

 ------------------------------------------------------------------------------------
     Multipole            Electronic (a.u.)      Nuclear  (a.u.)        Total (a.u.)
 ------------------------------------------------------------------------------------

 L = 1.  Multiply by 2.5417464519 to convert [e a0] to [Debye]
 Dipole X            :          0.0315798            0.0000000            0.0315798
 Dipole Y            :         -0.0000000            0.0000000           -0.0000000
 Dipole Z            :          0.0000000            0.0000000            0.0000000
 Magnitude           :                                                    0.0315798

 ------------------------------------------------------------------------------------

*** tstop() called on PNNL-KM3X724WWL at Tue Jul 28 16:59:59 2026
Module time:
	user time   =       0.32 seconds =       0.01 minutes
	system time =       0.07 seconds =       0.00 minutes
	total time  =          0 seconds =       0.00 minutes
Total time:
	user time   =      22.96 seconds =       0.38 minutes
	system time =       4.34 seconds =       0.07 minutes
	total time  =          7 seconds =       0.12 minutes

Scratch directory: /tmp/
   => Libint2 <=

    Primary   basis highest AM E, G, H:  7, 6, 3
    Auxiliary basis highest AM E, G, H:  7, 7, 4
    Onebody   basis highest AM E, G, H:  -, -, -
    Solid Harmonics ordering:            Gaussian

*** tstart() called on PNNL-KM3X724WWL
*** at Tue Jul 28 16:59:59 2026

   => Loading Basis Set <=

    Name: DEF2-SVPD
    Role: ORBITAL
    Keyword: BASIS
    atoms 1 entry O          line   149 file /opt/miniconda3/envs/rsfff/share/psi4/basis/def2-svpd.gbs 


         ---------------------------------------------------------
                                   SCF
               by Justin Turney, Rob Parrish, Andy Simmonett
                          and Daniel G. A. Smith
                              RKS Reference
                       14 Threads,   7629 MiB Core
         ---------------------------------------------------------

  ==> Geometry <==

    Molecular point group: c1
    Geometry (in Angstrom), charge = -2, multiplicity = 1:

       Center              X                  Y                   Z               Mass       
    ------------   -----------------  -----------------  -----------------  -----------------
         O            0.000000000000     0.000000000000     0.000000000000    15.994914619570

  Running in c1 symmetry.

  Rotational constants: A = ************  B = ************  C = ************ [cm^-1]
  Rotational constants: A = ************  B = ************  C = ************ [MHz]
  Nuclear repulsion =    0.000000000000000

  Charge       = -2
  Multiplicity = 1
  Electrons    = 10
  Nalpha       = 5
  Nbeta        = 5

  ==> Algorithm <==

  SCF Algorithm Type is DF.
  DIIS enabled.
  MOM disabled.
  Fractional occupation disabled.
  Guess Type is CORE.
  Energy threshold   = 1.00e-09
  Density threshold  = 1.00e-09
  Integral threshold = 1.00e-12

  ==> Primary Basis <==

  Basis Set: DEF2-SVPD
    Blend: DEF2-SVPD
    Number of shells: 9
    Number of basis functions: 23
    Number of Cartesian functions: 25
    Spherical Harmonics?: true
    Max angular momentum: 2

  ==> DFT Potential <==

   => LibXC <=

    Version 7.0.0
    S. Lehtola, C. Steigemann, M. J.T. Oliveira, and M. A.L. Marques.,  SoftwareX 7, 1–5 (2018) (10.1016/j.softx.2017.11.002)

   => Composite Functional: B3LYP <= 

    B3LYP Hyb-GGA Exchange-Correlation Functional

    P. J. Stephens, F. J. Devlin, C. F. Chabalowski, and M. J. Frisch.,  J. Phys. Chem. 98, 11623 (1994) (10.1021/j100096a001)

    Deriv               =              1
    GGA                 =           TRUE
    Meta                =          FALSE

    Exchange Hybrid     =           TRUE
    MP2 Hybrid          =          FALSE

   => Exchange Functionals <=

    0.0800   Slater exchange
    0.7200         Becke 88

   => Exact (HF) Exchange <=

    0.2000               HF 

   => Correlation Functionals <=

    0.1900   Vosko, Wilk & Nusair (VWN5_RPA)
    0.8100   Lee, Yang & Parr

   => LibXC Density Thresholds  <==

    XC_HYB_GGA_XC_B3LYP:  1.00E-15 

   => Molecular Quadrature <=

    Radial Scheme          =       TREUTLER
    Pruning Scheme         =           NONE
    Nuclear Scheme         =       TREUTLER

    Blocking Scheme        =         OCTREE
    BS radius alpha        =              1
    Pruning alpha          =              1
    Radial Points          =             75
    Spherical Points       =            302
    Total Points           =          22348
    Total Blocks           =            224
    Max Points             =            252
    Max Functions          =             23
    Weights Tolerance      =       1.00E-15

   => Loading Basis Set <=

    Name: (DEF2-SVPD AUX)
    Role: JKFIT
    Keyword: DF_BASIS_SCF
    atoms 1 entry O          line   318 file /opt/miniconda3/envs/rsfff/share/psi4/basis/def2-universal-jkfit.gbs 

  ==> Integral Setup <==

  DFHelper Memory: AOs need 0.001 GiB; user supplied 5.573 GiB. 
  SCF_SUBTYPE=INCORE selected. In-core MEM_DF algorithm will be used.
  Using in-core AOs.

  ==> MemDFJK: Density-Fitted J/K Matrices <==

    J tasked:                   Yes
    K tasked:                   Yes
    wK tasked:                   No
    OpenMP threads:              14
    Memory [MiB]:              5707
    Algorithm:                 Core
    Schwarz Cutoff:           1E-12
    Mask sparsity (%):       0.0000
    Fitting Condition:        1E-10

   => Auxiliary Basis Set <=

  Basis Set: (DEF2-SVPD AUX)
    Blend: DEF2-UNIVERSAL-JKFIT
    Number of shells: 25
    Number of basis functions: 77
    Number of Cartesian functions: 93
    Spherical Harmonics?: true
    Max angular momentum: 4

  Cached 100.0% of DFT collocation blocks in 0.015 [GiB].

  Perturbing V by 0.001000 mu(x).
  Minimum eigenvalue in the overlap matrix is 8.0241971007E-02.
  Reciprocal condition number of the overlap matrix is 3.3278560532E-02.
    Using symmetric orthogonalization.

  ==> Pre-Iterations <==

  SCF Guess: Core (One-Electron) Hamiltonian.

   -------------------------------------------------------
    Irrep   Nso     Nmo     Nalpha   Nbeta   Ndocc  Nsocc
   -------------------------------------------------------
     A         23      23       5       5       5       0
   -------------------------------------------------------
    Total      23      23       5       5       5       0
   -------------------------------------------------------

  ==> Iterations <==

                           Total Energy        Delta E     RMS |[F,P]|

   @DF-RKS iter   1:   -67.88910148730088   -6.78891e+01   1.07828e-01 ADIIS
   @DF-RKS iter   2:   -64.93944487109910    2.94966e+00   6.40016e-02 ADIIS/DIIS
   @DF-RKS iter   3:   -73.59530445082891   -8.65586e+00   6.61970e-02 ADIIS/DIIS
   @DF-RKS iter   4:   -74.39385447602173   -7.98550e-01   4.04680e-02 ADIIS/DIIS
   @DF-RKS iter   5:   -74.82275327568553   -4.28899e-01   2.30610e-03 ADIIS/DIIS
   @DF-RKS iter   6:   -74.81300941770962    9.74386e-03   7.23390e-03 ADIIS/DIIS
   @DF-RKS iter   7:   -74.82433341748103   -1.13240e-02   1.94331e-03 ADIIS/DIIS
   @DF-RKS iter   8:   -74.82522964006056   -8.96223e-04   1.92732e-05 DIIS
   @DF-RKS iter   9:   -74.82522967776794   -3.77074e-08   1.24665e-05 DIIS
   @DF-RKS iter  10:   -74.82522971270802   -3.49401e-08   2.45154e-06 DIIS
   @DF-RKS iter  11:   -74.82522971409901   -1.39099e-09   2.37381e-07 DIIS
   @DF-RKS iter  12:   -74.82522971411225   -1.32445e-11   1.21432e-08 DIIS
   @DF-RKS iter  13:   -74.82522971411228   -2.84217e-14   1.71358e-09 DIIS
   @DF-RKS iter  14:   -74.82522971411221    7.10543e-14   6.29988e-12 DIIS
  Energy and wave function converged.


  ==> Post-Iterations <==

   Electrons on quadrature grid:
      Ntotal   =   10.0000000000 ; deviation = -1.113e-11 

    Orbital Energies [Eh]
    ---------------------

    Doubly Occupied:                                                      

       1A    -18.537409     2A     -0.224865     3A      0.312231  
       4A      0.312233     5A      0.312233  

    Virtual:                                                              

       6A      0.531484     7A      0.551946     8A      0.551946  
       9A      0.552061    10A      0.956903    11A      0.956903  
      12A      0.956904    13A      0.956904    14A      0.956905  
      15A      1.673685    16A      1.673692    17A      1.673692  
      18A      1.720050    19A      3.430401    20A      3.430402  
      21A      3.430402    22A      3.430405    23A      3.430405  

    Final Occupation by Irrep:
              A 
    DOCC [     5 ]
    NA   [     5 ]
    NB   [     5 ]

  @DF-RKS Final Energy:   -74.82522971411221

   => Energetics <=

    Nuclear Repulsion Energy =              0.0000000000000000
    One-Electron Energy =                -108.8651109494092850
    Two-Electron Energy =                  41.1764036063335936
    DFT Exchange-Correlation Energy =      -7.1365223710365244
    Empirical Dispersion Energy =           0.0000000000000000
    VV10 Nonlocal Energy =                  0.0000000000000000
    Total Energy =                        -74.8252297141122114

Computation Completed


Properties will be evaluated at   0.000000,   0.000000,   0.000000 [a0]

Properties computed using the SCF density matrix


 Multipole Moments:

 ------------------------------------------------------------------------------------
     Multipole            Electronic (a.u.)      Nuclear  (a.u.)        Total (a.u.)
 ------------------------------------------------------------------------------------

 L = 1.  Multiply by 2.5417464519 to convert [e a0] to [Debye]
 Dipole X            :         -0.0315798            0.0000000           -0.0315798
 Dipole Y            :         -0.0000000            0.0000000           -0.0000000
 Dipole Z            :          0.0000000            0.0000000            0.0000000
 Magnitude           :                                                    0.0315798

 ------------------------------------------------------------------------------------

*** tstop() called on PNNL-KM3X724WWL at Tue Jul 28 16:59:59 2026
Module time:
	user time   =       0.32 seconds =       0.01 minutes
	system time =       0.07 seconds =       0.00 minutes
	total time  =          0 seconds =       0.00 minutes
Total time:
	user time   =      23.29 seconds =       0.39 minutes
	system time =       4.41 seconds =       0.07 minutes
	total time  =          7 seconds =       0.12 minutes

Scratch directory: /tmp/
   => Libint2 <=

    Primary   basis highest AM E, G, H:  7, 6, 3
    Auxiliary basis highest AM E, G, H:  7, 7, 4
    Onebody   basis highest AM E, G, H:  -, -, -
    Solid Harmonics ordering:            Gaussian

*** tstart() called on PNNL-KM3X724WWL
*** at Tue Jul 28 16:59:59 2026

   => Loading Basis Set <=

    Name: DEF2-SVPD
    Role: ORBITAL
    Keyword: BASIS
    atoms 1 entry O          line   149 file /opt/miniconda3/envs/rsfff/share/psi4/basis/def2-svpd.gbs 


         ---------------------------------------------------------
                                   SCF
               by Justin Turney, Rob Parrish, Andy Simmonett
                          and Daniel G. A. Smith
                              RKS Reference
                       14 Threads,   7629 MiB Core
         ---------------------------------------------------------

  ==> Geometry <==

    Molecular point group: c1
    Geometry (in Angstrom), charge = -2, multiplicity = 1:

       Center              X                  Y                   Z               Mass       
    ------------   -----------------  -----------------  -----------------  -----------------
         O            0.000000000000     0.000000000000     0.000000000000    15.994914619570

  Running in c1 symmetry.

  Rotational constants: A = ************  B = ************  C = ************ [cm^-1]
  Rotational constants: A = ************  B = ************  C = ************ [MHz]
  Nuclear repulsion =    0.000000000000000

  Charge       = -2
  Multiplicity = 1
  Electrons    = 10
  Nalpha       = 5
  Nbeta        = 5

  ==> Algorithm <==

  SCF Algorithm Type is DF.
  DIIS enabled.
  MOM disabled.
  Fractional occupation disabled.
  Guess Type is CORE.
  Energy threshold   = 1.00e-09
  Density threshold  = 1.00e-09
  Integral threshold = 1.00e-12

  ==> Primary Basis <==

  Basis Set: DEF2-SVPD
    Blend: DEF2-SVPD
    Number of shells: 9
    Number of basis functions: 23
    Number of Cartesian functions: 25
    Spherical Harmonics?: true
    Max angular momentum: 2

  ==> DFT Potential <==

   => LibXC <=

    Version 7.0.0
    S. Lehtola, C. Steigemann, M. J.T. Oliveira, and M. A.L. Marques.,  SoftwareX 7, 1–5 (2018) (10.1016/j.softx.2017.11.002)

   => Composite Functional: B3LYP <= 

    B3LYP Hyb-GGA Exchange-Correlation Functional

    P. J. Stephens, F. J. Devlin, C. F. Chabalowski, and M. J. Frisch.,  J. Phys. Chem. 98, 11623 (1994) (10.1021/j100096a001)

    Deriv               =              1
    GGA                 =           TRUE
    Meta                =          FALSE

    Exchange Hybrid     =           TRUE
    MP2 Hybrid          =          FALSE

   => Exchange Functionals <=

    0.0800   Slater exchange
    0.7200         Becke 88

   => Exact (HF) Exchange <=

    0.2000               HF 

   => Correlation Functionals <=

    0.1900   Vosko, Wilk & Nusair (VWN5_RPA)
    0.8100   Lee, Yang & Parr

   => LibXC Density Thresholds  <==

    XC_HYB_GGA_XC_B3LYP:  1.00E-15 

   => Molecular Quadrature <=

    Radial Scheme          =       TREUTLER
    Pruning Scheme         =           NONE
    Nuclear Scheme         =       TREUTLER

    Blocking Scheme        =         OCTREE
    BS radius alpha        =              1
    Pruning alpha          =              1
    Radial Points          =             75
    Spherical Points       =            302
    Total Points           =          22348
    Total Blocks           =            224
    Max Points             =            252
    Max Functions          =             23
    Weights Tolerance      =       1.00E-15

   => Loading Basis Set <=

    Name: (DEF2-SVPD AUX)
    Role: JKFIT
    Keyword: DF_BASIS_SCF
    atoms 1 entry O          line   318 file /opt/miniconda3/envs/rsfff/share/psi4/basis/def2-universal-jkfit.gbs 

  ==> Integral Setup <==

  DFHelper Memory: AOs need 0.001 GiB; user supplied 5.573 GiB. 
  SCF_SUBTYPE=INCORE selected. In-core MEM_DF algorithm will be used.
  Using in-core AOs.

  ==> MemDFJK: Density-Fitted J/K Matrices <==

    J tasked:                   Yes
    K tasked:                   Yes
    wK tasked:                   No
    OpenMP threads:              14
    Memory [MiB]:              5707
    Algorithm:                 Core
    Schwarz Cutoff:           1E-12
    Mask sparsity (%):       0.0000
    Fitting Condition:        1E-10

   => Auxiliary Basis Set <=

  Basis Set: (DEF2-SVPD AUX)
    Blend: DEF2-UNIVERSAL-JKFIT
    Number of shells: 25
    Number of basis functions: 77
    Number of Cartesian functions: 93
    Spherical Harmonics?: true
    Max angular momentum: 4

  Cached 100.0% of DFT collocation blocks in 0.015 [GiB].

  Perturbing V by -0.001000 mu(y).
  Minimum eigenvalue in the overlap matrix is 8.0241971007E-02.
  Reciprocal condition number of the overlap matrix is 3.3278560532E-02.
    Using symmetric orthogonalization.

  ==> Pre-Iterations <==

  SCF Guess: Core (One-Electron) Hamiltonian.

   -------------------------------------------------------
    Irrep   Nso     Nmo     Nalpha   Nbeta   Ndocc  Nsocc
   -------------------------------------------------------
     A         23      23       5       5       5       0
   -------------------------------------------------------
    Total      23      23       5       5       5       0
   -------------------------------------------------------

  ==> Iterations <==

                           Total Energy        Delta E     RMS |[F,P]|

   @DF-RKS iter   1:   -67.88910148730085   -6.78891e+01   1.07828e-01 ADIIS
   @DF-RKS iter   2:   -64.93944487109916    2.94966e+00   6.40016e-02 ADIIS/DIIS
   @DF-RKS iter   3:   -73.59530445082893   -8.65586e+00   6.61970e-02 ADIIS/DIIS
   @DF-RKS iter   4:   -74.39385447602179   -7.98550e-01   4.04680e-02 ADIIS/DIIS
   @DF-RKS iter   5:   -74.82275327568556   -4.28899e-01   2.30610e-03 ADIIS/DIIS
   @DF-RKS iter   6:   -74.81300941770958    9.74386e-03   7.23390e-03 ADIIS/DIIS
   @DF-RKS iter   7:   -74.82433341748096   -1.13240e-02   1.94331e-03 ADIIS/DIIS
   @DF-RKS iter   8:   -74.82522964006050   -8.96223e-04   1.92732e-05 DIIS
   @DF-RKS iter   9:   -74.82522967776794   -3.77074e-08   1.24665e-05 DIIS
   @DF-RKS iter  10:   -74.82522971270804   -3.49401e-08   2.45154e-06 DIIS
   @DF-RKS iter  11:   -74.82522971409905   -1.39102e-09   2.37381e-07 DIIS
   @DF-RKS iter  12:   -74.82522971411213   -1.30740e-11   1.21432e-08 DIIS
   @DF-RKS iter  13:   -74.82522971411217   -4.26326e-14   1.71356e-09 DIIS
   @DF-RKS iter  14:   -74.82522971411225   -8.52651e-14   6.25548e-12 DIIS
  Energy and wave function converged.


  ==> Post-Iterations <==

   Electrons on quadrature grid:
      Ntotal   =   10.0000000000 ; deviation = -1.113e-11 

    Orbital Energies [Eh]
    ---------------------

    Doubly Occupied:                                                      

       1A    -18.537409     2A     -0.224865     3A      0.312231  
       4A      0.312233     5A      0.312233  

    Virtual:                                                              

       6A      0.531484     7A      0.551946     8A      0.551946  
       9A      0.552061    10A      0.956903    11A      0.956903  
      12A      0.956904    13A      0.956904    14A      0.956905  
      15A      1.673685    16A      1.673692    17A      1.673692  
      18A      1.720050    19A      3.430401    20A      3.430402  
      21A      3.430402    22A      3.430405    23A      3.430405  

    Final Occupation by Irrep:
              A 
    DOCC [     5 ]
    NA   [     5 ]
    NB   [     5 ]

  @DF-RKS Final Energy:   -74.82522971411225

   => Energetics <=

    Nuclear Repulsion Energy =              0.0000000000000000
    One-Electron Energy =                -108.8651109494025775
    Two-Electron Energy =                  41.1764036063260832
    DFT Exchange-Correlation Energy =      -7.1365223710357668
    Empirical Dispersion Energy =           0.0000000000000000
    VV10 Nonlocal Energy =                  0.0000000000000000
    Total Energy =                        -74.8252297141122540

Computation Completed


Properties will be evaluated at   0.000000,   0.000000,   0.000000 [a0]

Properties computed using the SCF density matrix


 Multipole Moments:

 ------------------------------------------------------------------------------------
     Multipole            Electronic (a.u.)      Nuclear  (a.u.)        Total (a.u.)
 ------------------------------------------------------------------------------------

 L = 1.  Multiply by 2.5417464519 to convert [e a0] to [Debye]
 Dipole X            :         -0.0000000            0.0000000           -0.0000000
 Dipole Y            :          0.0315798            0.0000000            0.0315798
 Dipole Z            :          0.0000000            0.0000000            0.0000000
 Magnitude           :                                                    0.0315798

 ------------------------------------------------------------------------------------

*** tstop() called on PNNL-KM3X724WWL at Tue Jul 28 16:59:59 2026
Module time:
	user time   =       0.31 seconds =       0.01 minutes
	system time =       0.08 seconds =       0.00 minutes
	total time  =          0 seconds =       0.00 minutes
Total time:
	user time   =      23.62 seconds =       0.39 minutes
	system time =       4.49 seconds =       0.07 minutes
	total time  =          7 seconds =       0.12 minutes

Scratch directory: /tmp/
   => Libint2 <=

    Primary   basis highest AM E, G, H:  7, 6, 3
    Auxiliary basis highest AM E, G, H:  7, 7, 4
    Onebody   basis highest AM E, G, H:  -, -, -
    Solid Harmonics ordering:            Gaussian

*** tstart() called on PNNL-KM3X724WWL
*** at Tue Jul 28 17:00:00 2026

   => Loading Basis Set <=

    Name: DEF2-SVPD
    Role: ORBITAL
    Keyword: BASIS
    atoms 1 entry O          line   149 file /opt/miniconda3/envs/rsfff/share/psi4/basis/def2-svpd.gbs 


         ---------------------------------------------------------
                                   SCF
               by Justin Turney, Rob Parrish, Andy Simmonett
                          and Daniel G. A. Smith
                              RKS Reference
                       14 Threads,   7629 MiB Core
         ---------------------------------------------------------

  ==> Geometry <==

    Molecular point group: c1
    Geometry (in Angstrom), charge = -2, multiplicity = 1:

       Center              X                  Y                   Z               Mass       
    ------------   -----------------  -----------------  -----------------  -----------------
         O            0.000000000000     0.000000000000     0.000000000000    15.994914619570

  Running in c1 symmetry.

  Rotational constants: A = ************  B = ************  C = ************ [cm^-1]
  Rotational constants: A = ************  B = ************  C = ************ [MHz]
  Nuclear repulsion =    0.000000000000000

  Charge       = -2
  Multiplicity = 1
  Electrons    = 10
  Nalpha       = 5
  Nbeta        = 5

  ==> Algorithm <==

  SCF Algorithm Type is DF.
  DIIS enabled.
  MOM disabled.
  Fractional occupation disabled.
  Guess Type is CORE.
  Energy threshold   = 1.00e-09
  Density threshold  = 1.00e-09
  Integral threshold = 1.00e-12

  ==> Primary Basis <==

  Basis Set: DEF2-SVPD
    Blend: DEF2-SVPD
    Number of shells: 9
    Number of basis functions: 23
    Number of Cartesian functions: 25
    Spherical Harmonics?: true
    Max angular momentum: 2

  ==> DFT Potential <==

   => LibXC <=

    Version 7.0.0
    S. Lehtola, C. Steigemann, M. J.T. Oliveira, and M. A.L. Marques.,  SoftwareX 7, 1–5 (2018) (10.1016/j.softx.2017.11.002)

   => Composite Functional: B3LYP <= 

    B3LYP Hyb-GGA Exchange-Correlation Functional

    P. J. Stephens, F. J. Devlin, C. F. Chabalowski, and M. J. Frisch.,  J. Phys. Chem. 98, 11623 (1994) (10.1021/j100096a001)

    Deriv               =              1
    GGA                 =           TRUE
    Meta                =          FALSE

    Exchange Hybrid     =           TRUE
    MP2 Hybrid          =          FALSE

   => Exchange Functionals <=

    0.0800   Slater exchange
    0.7200         Becke 88

   => Exact (HF) Exchange <=

    0.2000               HF 

   => Correlation Functionals <=

    0.1900   Vosko, Wilk & Nusair (VWN5_RPA)
    0.8100   Lee, Yang & Parr

   => LibXC Density Thresholds  <==

    XC_HYB_GGA_XC_B3LYP:  1.00E-15 

   => Molecular Quadrature <=

    Radial Scheme          =       TREUTLER
    Pruning Scheme         =           NONE
    Nuclear Scheme         =       TREUTLER

    Blocking Scheme        =         OCTREE
    BS radius alpha        =              1
    Pruning alpha          =              1
    Radial Points          =             75
    Spherical Points       =            302
    Total Points           =          22348
    Total Blocks           =            224
    Max Points             =            252
    Max Functions          =             23
    Weights Tolerance      =       1.00E-15

   => Loading Basis Set <=

    Name: (DEF2-SVPD AUX)
    Role: JKFIT
    Keyword: DF_BASIS_SCF
    atoms 1 entry O          line   318 file /opt/miniconda3/envs/rsfff/share/psi4/basis/def2-universal-jkfit.gbs 

  ==> Integral Setup <==

  DFHelper Memory: AOs need 0.001 GiB; user supplied 5.573 GiB. 
  SCF_SUBTYPE=INCORE selected. In-core MEM_DF algorithm will be used.
  Using in-core AOs.

  ==> MemDFJK: Density-Fitted J/K Matrices <==

    J tasked:                   Yes
    K tasked:                   Yes
    wK tasked:                   No
    OpenMP threads:              14
    Memory [MiB]:              5707
    Algorithm:                 Core
    Schwarz Cutoff:           1E-12
    Mask sparsity (%):       0.0000
    Fitting Condition:        1E-10

   => Auxiliary Basis Set <=

  Basis Set: (DEF2-SVPD AUX)
    Blend: DEF2-UNIVERSAL-JKFIT
    Number of shells: 25
    Number of basis functions: 77
    Number of Cartesian functions: 93
    Spherical Harmonics?: true
    Max angular momentum: 4

  Cached 100.0% of DFT collocation blocks in 0.015 [GiB].

  Perturbing V by 0.001000 mu(y).
  Minimum eigenvalue in the overlap matrix is 8.0241971007E-02.
  Reciprocal condition number of the overlap matrix is 3.3278560532E-02.
    Using symmetric orthogonalization.

  ==> Pre-Iterations <==

  SCF Guess: Core (One-Electron) Hamiltonian.

   -------------------------------------------------------
    Irrep   Nso     Nmo     Nalpha   Nbeta   Ndocc  Nsocc
   -------------------------------------------------------
     A         23      23       5       5       5       0
   -------------------------------------------------------
    Total      23      23       5       5       5       0
   -------------------------------------------------------

  ==> Iterations <==

                           Total Energy        Delta E     RMS |[F,P]|

   @DF-RKS iter   1:   -67.88910148730088   -6.78891e+01   1.07828e-01 ADIIS
   @DF-RKS iter   2:   -64.93944487109914    2.94966e+00   6.40016e-02 ADIIS/DIIS
   @DF-RKS iter   3:   -73.59530445082893   -8.65586e+00   6.61970e-02 ADIIS/DIIS
   @DF-RKS iter   4:   -74.39385447602180   -7.98550e-01   4.04680e-02 ADIIS/DIIS
   @DF-RKS iter   5:   -74.82275327568549   -4.28899e-01   2.30610e-03 ADIIS/DIIS
   @DF-RKS iter   6:   -74.81300941770957    9.74386e-03   7.23390e-03 ADIIS/DIIS
   @DF-RKS iter   7:   -74.82433341748103   -1.13240e-02   1.94331e-03 ADIIS/DIIS
   @DF-RKS iter   8:   -74.82522964006053   -8.96223e-04   1.92732e-05 DIIS
   @DF-RKS iter   9:   -74.82522967776796   -3.77074e-08   1.24665e-05 DIIS
   @DF-RKS iter  10:   -74.82522971270804   -3.49401e-08   2.45154e-06 DIIS
   @DF-RKS iter  11:   -74.82522971409904   -1.39100e-09   2.37381e-07 DIIS
   @DF-RKS iter  12:   -74.82522971411218   -1.31450e-11   1.21432e-08 DIIS
   @DF-RKS iter  13:   -74.82522971411223   -4.26326e-14   1.71357e-09 DIIS
   @DF-RKS iter  14:   -74.82522971411225   -2.84217e-14   6.29595e-12 DIIS
  Energy and wave function converged.


  ==> Post-Iterations <==

   Electrons on quadrature grid:
      Ntotal   =   10.0000000000 ; deviation = -1.112e-11 

    Orbital Energies [Eh]
    ---------------------

    Doubly Occupied:                                                      

       1A    -18.537409     2A     -0.224865     3A      0.312231  
       4A      0.312233     5A      0.312233  

    Virtual:                                                              

       6A      0.531484     7A      0.551946     8A      0.551946  
       9A      0.552061    10A      0.956903    11A      0.956903  
      12A      0.956904    13A      0.956904    14A      0.956905  
      15A      1.673685    16A      1.673692    17A      1.673692  
      18A      1.720050    19A      3.430401    20A      3.430402  
      21A      3.430402    22A      3.430405    23A      3.430405  

    Final Occupation by Irrep:
              A 
    DOCC [     5 ]
    NA   [     5 ]
    NB   [     5 ]

  @DF-RKS Final Energy:   -74.82522971411225

   => Energetics <=

    Nuclear Repulsion Energy =              0.0000000000000000
    One-Electron Energy =                -108.8651109494087734
    Two-Electron Energy =                  41.1764036063329897
    DFT Exchange-Correlation Energy =      -7.1365223710364596
    Empirical Dispersion Energy =           0.0000000000000000
    VV10 Nonlocal Energy =                  0.0000000000000000
    Total Energy =                        -74.8252297141122398

Computation Completed


Properties will be evaluated at   0.000000,   0.000000,   0.000000 [a0]

Properties computed using the SCF density matrix


 Multipole Moments:

 ------------------------------------------------------------------------------------
     Multipole            Electronic (a.u.)      Nuclear  (a.u.)        Total (a.u.)
 ------------------------------------------------------------------------------------

 L = 1.  Multiply by 2.5417464519 to convert [e a0] to [Debye]
 Dipole X            :         -0.0000000            0.0000000           -0.0000000
 Dipole Y            :         -0.0315798            0.0000000           -0.0315798
 Dipole Z            :         -0.0000000            0.0000000           -0.0000000
 Magnitude           :                                                    0.0315798

 ------------------------------------------------------------------------------------

*** tstop() called on PNNL-KM3X724WWL at Tue Jul 28 17:00:00 2026
Module time:
	user time   =       0.29 seconds =       0.00 minutes
	system time =       0.07 seconds =       0.00 minutes
	total time  =          0 seconds =       0.00 minutes
Total time:
	user time   =      23.93 seconds =       0.40 minutes
	system time =       4.56 seconds =       0.08 minutes
	total time  =          8 seconds =       0.13 minutes

Scratch directory: /tmp/
   => Libint2 <=

    Primary   basis highest AM E, G, H:  7, 6, 3
    Auxiliary basis highest AM E, G, H:  7, 7, 4
    Onebody   basis highest AM E, G, H:  -, -, -
    Solid Harmonics ordering:            Gaussian

*** tstart() called on PNNL-KM3X724WWL
*** at Tue Jul 28 17:00:00 2026

   => Loading Basis Set <=

    Name: DEF2-SVPD
    Role: ORBITAL
    Keyword: BASIS
    atoms 1 entry O          line   149 file /opt/miniconda3/envs/rsfff/share/psi4/basis/def2-svpd.gbs 


         ---------------------------------------------------------
                                   SCF
               by Justin Turney, Rob Parrish, Andy Simmonett
                          and Daniel G. A. Smith
                              RKS Reference
                       14 Threads,   7629 MiB Core
         ---------------------------------------------------------

  ==> Geometry <==

    Molecular point group: c1
    Geometry (in Angstrom), charge = -2, multiplicity = 1:

       Center              X                  Y                   Z               Mass       
    ------------   -----------------  -----------------  -----------------  -----------------
         O            0.000000000000     0.000000000000     0.000000000000    15.994914619570

  Running in c1 symmetry.

  Rotational constants: A = ************  B = ************  C = ************ [cm^-1]
  Rotational constants: A = ************  B = ************  C = ************ [MHz]
  Nuclear repulsion =    0.000000000000000

  Charge       = -2
  Multiplicity = 1
  Electrons    = 10
  Nalpha       = 5
  Nbeta        = 5

  ==> Algorithm <==

  SCF Algorithm Type is DF.
  DIIS enabled.
  MOM disabled.
  Fractional occupation disabled.
  Guess Type is CORE.
  Energy threshold   = 1.00e-09
  Density threshold  = 1.00e-09
  Integral threshold = 1.00e-12

  ==> Primary Basis <==

  Basis Set: DEF2-SVPD
    Blend: DEF2-SVPD
    Number of shells: 9
    Number of basis functions: 23
    Number of Cartesian functions: 25
    Spherical Harmonics?: true
    Max angular momentum: 2

  ==> DFT Potential <==

   => LibXC <=

    Version 7.0.0
    S. Lehtola, C. Steigemann, M. J.T. Oliveira, and M. A.L. Marques.,  SoftwareX 7, 1–5 (2018) (10.1016/j.softx.2017.11.002)

   => Composite Functional: B3LYP <= 

    B3LYP Hyb-GGA Exchange-Correlation Functional

    P. J. Stephens, F. J. Devlin, C. F. Chabalowski, and M. J. Frisch.,  J. Phys. Chem. 98, 11623 (1994) (10.1021/j100096a001)

    Deriv               =              1
    GGA                 =           TRUE
    Meta                =          FALSE

    Exchange Hybrid     =           TRUE
    MP2 Hybrid          =          FALSE

   => Exchange Functionals <=

    0.0800   Slater exchange
    0.7200         Becke 88

   => Exact (HF) Exchange <=

    0.2000               HF 

   => Correlation Functionals <=

    0.1900   Vosko, Wilk & Nusair (VWN5_RPA)
    0.8100   Lee, Yang & Parr

   => LibXC Density Thresholds  <==

    XC_HYB_GGA_XC_B3LYP:  1.00E-15 

   => Molecular Quadrature <=

    Radial Scheme          =       TREUTLER
    Pruning Scheme         =           NONE
    Nuclear Scheme         =       TREUTLER

    Blocking Scheme        =         OCTREE
    BS radius alpha        =              1
    Pruning alpha          =              1
    Radial Points          =             75
    Spherical Points       =            302
    Total Points           =          22348
    Total Blocks           =            224
    Max Points             =            252
    Max Functions          =             23
    Weights Tolerance      =       1.00E-15

   => Loading Basis Set <=

    Name: (DEF2-SVPD AUX)
    Role: JKFIT
    Keyword: DF_BASIS_SCF
    atoms 1 entry O          line   318 file /opt/miniconda3/envs/rsfff/share/psi4/basis/def2-universal-jkfit.gbs 

  ==> Integral Setup <==

  DFHelper Memory: AOs need 0.001 GiB; user supplied 5.573 GiB. 
  SCF_SUBTYPE=INCORE selected. In-core MEM_DF algorithm will be used.
  Using in-core AOs.

  ==> MemDFJK: Density-Fitted J/K Matrices <==

    J tasked:                   Yes
    K tasked:                   Yes
    wK tasked:                   No
    OpenMP threads:              14
    Memory [MiB]:              5707
    Algorithm:                 Core
    Schwarz Cutoff:           1E-12
    Mask sparsity (%):       0.0000
    Fitting Condition:        1E-10

   => Auxiliary Basis Set <=

  Basis Set: (DEF2-SVPD AUX)
    Blend: DEF2-UNIVERSAL-JKFIT
    Number of shells: 25
    Number of basis functions: 77
    Number of Cartesian functions: 93
    Spherical Harmonics?: true
    Max angular momentum: 4

  Cached 100.0% of DFT collocation blocks in 0.015 [GiB].

  Perturbing V by -0.001000 mu(z).
  Minimum eigenvalue in the overlap matrix is 8.0241971007E-02.
  Reciprocal condition number of the overlap matrix is 3.3278560532E-02.
    Using symmetric orthogonalization.

  ==> Pre-Iterations <==

  SCF Guess: Core (One-Electron) Hamiltonian.

   -------------------------------------------------------
    Irrep   Nso     Nmo     Nalpha   Nbeta   Ndocc  Nsocc
   -------------------------------------------------------
     A         23      23       5       5       5       0
   -------------------------------------------------------
    Total      23      23       5       5       5       0
   -------------------------------------------------------

  ==> Iterations <==

                           Total Energy        Delta E     RMS |[F,P]|

   @DF-RKS iter   1:   -67.88910148730082   -6.78891e+01   1.07828e-01 ADIIS
   @DF-RKS iter   2:   -64.93944487109916    2.94966e+00   6.40016e-02 ADIIS/DIIS
   @DF-RKS iter   3:   -73.59530445082889   -8.65586e+00   6.61970e-02 ADIIS/DIIS
   @DF-RKS iter   4:   -74.39385447602173   -7.98550e-01   4.04680e-02 ADIIS/DIIS
   @DF-RKS iter   5:   -74.82275327568560   -4.28899e-01   2.30610e-03 ADIIS/DIIS
   @DF-RKS iter   6:   -74.81300941770955    9.74386e-03   7.23390e-03 ADIIS/DIIS
   @DF-RKS iter   7:   -74.82433341748104   -1.13240e-02   1.94331e-03 ADIIS/DIIS
   @DF-RKS iter   8:   -74.82522964006053   -8.96223e-04   1.92732e-05 DIIS
   @DF-RKS iter   9:   -74.82522967776792   -3.77074e-08   1.24665e-05 DIIS
   @DF-RKS iter  10:   -74.82522971270802   -3.49401e-08   2.45154e-06 DIIS
   @DF-RKS iter  11:   -74.82522971409914   -1.39111e-09   2.37381e-07 DIIS
   @DF-RKS iter  12:   -74.82522971411221   -1.30740e-11   1.21432e-08 DIIS
   @DF-RKS iter  13:   -74.82522971411227   -5.68434e-14   1.71357e-09 DIIS
   @DF-RKS iter  14:   -74.82522971411223    4.26326e-14   6.24944e-12 DIIS
  Energy and wave function converged.


  ==> Post-Iterations <==

   Electrons on quadrature grid:
      Ntotal   =   10.0000000000 ; deviation = -1.113e-11 

    Orbital Energies [Eh]
    ---------------------

    Doubly Occupied:                                                      

       1A    -18.537409     2A     -0.224865     3A      0.312231  
       4A      0.312233     5A      0.312233  

    Virtual:                                                              

       6A      0.531484     7A      0.551946     8A      0.551946  
       9A      0.552061    10A      0.956903    11A      0.956903  
      12A      0.956904    13A      0.956904    14A      0.956905  
      15A      1.673685    16A      1.673692    17A      1.673692  
      18A      1.720050    19A      3.430401    20A      3.430402  
      21A      3.430402    22A      3.430405    23A      3.430405  

    Final Occupation by Irrep:
              A 
    DOCC [     5 ]
    NA   [     5 ]
    NB   [     5 ]

  @DF-RKS Final Energy:   -74.82522971411223

   => Energetics <=

    Nuclear Repulsion Energy =              0.0000000000000000
    One-Electron Energy =                -108.8651109494016254
    Two-Electron Energy =                  41.1764036063250458
    DFT Exchange-Correlation Energy =      -7.1365223710356602
    Empirical Dispersion Energy =           0.0000000000000000
    VV10 Nonlocal Energy =                  0.0000000000000000
    Total Energy =                        -74.8252297141122256

Computation Completed


Properties will be evaluated at   0.000000,   0.000000,   0.000000 [a0]

Properties computed using the SCF density matrix


 Multipole Moments:

 ------------------------------------------------------------------------------------
     Multipole            Electronic (a.u.)      Nuclear  (a.u.)        Total (a.u.)
 ------------------------------------------------------------------------------------

 L = 1.  Multiply by 2.5417464519 to convert [e a0] to [Debye]
 Dipole X            :         -0.0000000            0.0000000           -0.0000000
 Dipole Y            :         -0.0000000            0.0000000           -0.0000000
 Dipole Z            :          0.0315798            0.0000000            0.0315798
 Magnitude           :                                                    0.0315798

 ------------------------------------------------------------------------------------

*** tstop() called on PNNL-KM3X724WWL at Tue Jul 28 17:00:00 2026
Module time:
	user time   =       0.31 seconds =       0.01 minutes
	system time =       0.08 seconds =       0.00 minutes
	total time  =          0 seconds =       0.00 minutes
Total time:
	user time   =      24.26 seconds =       0.40 minutes
	system time =       4.64 seconds =       0.08 minutes
	total time  =          8 seconds =       0.13 minutes

Scratch directory: /tmp/
   => Libint2 <=

    Primary   basis highest AM E, G, H:  7, 6, 3
    Auxiliary basis highest AM E, G, H:  7, 7, 4
    Onebody   basis highest AM E, G, H:  -, -, -
    Solid Harmonics ordering:            Gaussian

*** tstart() called on PNNL-KM3X724WWL
*** at Tue Jul 28 17:00:00 2026

   => Loading Basis Set <=

    Name: DEF2-SVPD
    Role: ORBITAL
    Keyword: BASIS
    atoms 1 entry O          line   149 file /opt/miniconda3/envs/rsfff/share/psi4/basis/def2-svpd.gbs 


         ---------------------------------------------------------
                                   SCF
               by Justin Turney, Rob Parrish, Andy Simmonett
                          and Daniel G. A. Smith
                              RKS Reference
                       14 Threads,   7629 MiB Core
         ---------------------------------------------------------

  ==> Geometry <==

    Molecular point group: c1
    Geometry (in Angstrom), charge = -2, multiplicity = 1:

       Center              X                  Y                   Z               Mass       
    ------------   -----------------  -----------------  -----------------  -----------------
         O            0.000000000000     0.000000000000     0.000000000000    15.994914619570

  Running in c1 symmetry.

  Rotational constants: A = ************  B = ************  C = ************ [cm^-1]
  Rotational constants: A = ************  B = ************  C = ************ [MHz]
  Nuclear repulsion =    0.000000000000000

  Charge       = -2
  Multiplicity = 1
  Electrons    = 10
  Nalpha       = 5
  Nbeta        = 5

  ==> Algorithm <==

  SCF Algorithm Type is DF.
  DIIS enabled.
  MOM disabled.
  Fractional occupation disabled.
  Guess Type is CORE.
  Energy threshold   = 1.00e-09
  Density threshold  = 1.00e-09
  Integral threshold = 1.00e-12

  ==> Primary Basis <==

  Basis Set: DEF2-SVPD
    Blend: DEF2-SVPD
    Number of shells: 9
    Number of basis functions: 23
    Number of Cartesian functions: 25
    Spherical Harmonics?: true
    Max angular momentum: 2

  ==> DFT Potential <==

   => LibXC <=

    Version 7.0.0
    S. Lehtola, C. Steigemann, M. J.T. Oliveira, and M. A.L. Marques.,  SoftwareX 7, 1–5 (2018) (10.1016/j.softx.2017.11.002)

   => Composite Functional: B3LYP <= 

    B3LYP Hyb-GGA Exchange-Correlation Functional

    P. J. Stephens, F. J. Devlin, C. F. Chabalowski, and M. J. Frisch.,  J. Phys. Chem. 98, 11623 (1994) (10.1021/j100096a001)

    Deriv               =              1
    GGA                 =           TRUE
    Meta                =          FALSE

    Exchange Hybrid     =           TRUE
    MP2 Hybrid          =          FALSE

   => Exchange Functionals <=

    0.0800   Slater exchange
    0.7200         Becke 88

   => Exact (HF) Exchange <=

    0.2000               HF 

   => Correlation Functionals <=

    0.1900   Vosko, Wilk & Nusair (VWN5_RPA)
    0.8100   Lee, Yang & Parr

   => LibXC Density Thresholds  <==

    XC_HYB_GGA_XC_B3LYP:  1.00E-15 

   => Molecular Quadrature <=

    Radial Scheme          =       TREUTLER
    Pruning Scheme         =           NONE
    Nuclear Scheme         =       TREUTLER

    Blocking Scheme        =         OCTREE
    BS radius alpha        =              1
    Pruning alpha          =              1
    Radial Points          =             75
    Spherical Points       =            302
    Total Points           =          22348
    Total Blocks           =            224
    Max Points             =            252
    Max Functions          =             23
    Weights Tolerance      =       1.00E-15

   => Loading Basis Set <=

    Name: (DEF2-SVPD AUX)
    Role: JKFIT
    Keyword: DF_BASIS_SCF
    atoms 1 entry O          line   318 file /opt/miniconda3/envs/rsfff/share/psi4/basis/def2-universal-jkfit.gbs 

  ==> Integral Setup <==

  DFHelper Memory: AOs need 0.001 GiB; user supplied 5.573 GiB. 
  SCF_SUBTYPE=INCORE selected. In-core MEM_DF algorithm will be used.
  Using in-core AOs.

  ==> MemDFJK: Density-Fitted J/K Matrices <==

    J tasked:                   Yes
    K tasked:                   Yes
    wK tasked:                   No
    OpenMP threads:              14
    Memory [MiB]:              5707
    Algorithm:                 Core
    Schwarz Cutoff:           1E-12
    Mask sparsity (%):       0.0000
    Fitting Condition:        1E-10

   => Auxiliary Basis Set <=

  Basis Set: (DEF2-SVPD AUX)
    Blend: DEF2-UNIVERSAL-JKFIT
    Number of shells: 25
    Number of basis functions: 77
    Number of Cartesian functions: 93
    Spherical Harmonics?: true
    Max angular momentum: 4

  Cached 100.0% of DFT collocation blocks in 0.015 [GiB].

  Perturbing V by 0.001000 mu(z).
  Minimum eigenvalue in the overlap matrix is 8.0241971007E-02.
  Reciprocal condition number of the overlap matrix is 3.3278560532E-02.
    Using symmetric orthogonalization.

  ==> Pre-Iterations <==

  SCF Guess: Core (One-Electron) Hamiltonian.

   -------------------------------------------------------
    Irrep   Nso     Nmo     Nalpha   Nbeta   Ndocc  Nsocc
   -------------------------------------------------------
     A         23      23       5       5       5       0
   -------------------------------------------------------
    Total      23      23       5       5       5       0
   -------------------------------------------------------

  ==> Iterations <==

                           Total Energy        Delta E     RMS |[F,P]|

   @DF-RKS iter   1:   -67.88910148730091   -6.78891e+01   1.07828e-01 ADIIS
   @DF-RKS iter   2:   -64.93944487109913    2.94966e+00   6.40016e-02 ADIIS/DIIS
   @DF-RKS iter   3:   -73.59530445082896   -8.65586e+00   6.61970e-02 ADIIS/DIIS
   @DF-RKS iter   4:   -74.39385447602174   -7.98550e-01   4.04680e-02 ADIIS/DIIS
   @DF-RKS iter   5:   -74.82275327568563   -4.28899e-01   2.30610e-03 ADIIS/DIIS
   @DF-RKS iter   6:   -74.81300941770957    9.74386e-03   7.23390e-03 ADIIS/DIIS
   @DF-RKS iter   7:   -74.82433341748097   -1.13240e-02   1.94331e-03 ADIIS/DIIS
   @DF-RKS iter   8:   -74.82522964006046   -8.96223e-04   1.92732e-05 DIIS
   @DF-RKS iter   9:   -74.82522967776794   -3.77075e-08   1.24665e-05 DIIS
   @DF-RKS iter  10:   -74.82522971270798   -3.49400e-08   2.45154e-06 DIIS
   @DF-RKS iter  11:   -74.82522971409904   -1.39106e-09   2.37381e-07 DIIS
   @DF-RKS iter  12:   -74.82522971411217   -1.31308e-11   1.21432e-08 DIIS
   @DF-RKS iter  13:   -74.82522971411215    1.42109e-14   1.71356e-09 DIIS
   @DF-RKS iter  14:   -74.82522971411225   -9.94760e-14   6.26466e-12 DIIS
  Energy and wave function converged.


  ==> Post-Iterations <==

   Electrons on quadrature grid:
      Ntotal   =   10.0000000000 ; deviation = -1.113e-11 

    Orbital Energies [Eh]
    ---------------------

    Doubly Occupied:                                                      

       1A    -18.537409     2A     -0.224865     3A      0.312231  
       4A      0.312233     5A      0.312233  

    Virtual:                                                              

       6A      0.531484     7A      0.551946     8A      0.551946  
       9A      0.552061    10A      0.956903    11A      0.956903  
      12A      0.956904    13A      0.956904    14A      0.956905  
      15A      1.673685    16A      1.673692    17A      1.673692  
      18A      1.720050    19A      3.430401    20A      3.430402  
      21A      3.430402    22A      3.430405    23A      3.430405  

    Final Occupation by Irrep:
              A 
    DOCC [     5 ]
    NA   [     5 ]
    NB   [     5 ]

  @DF-RKS Final Energy:   -74.82522971411225

   => Energetics <=

    Nuclear Repulsion Energy =              0.0000000000000000
    One-Electron Energy =                -108.8651109494039275
    Two-Electron Energy =                  41.1764036063276038
    DFT Exchange-Correlation Energy =      -7.1365223710359196
    Empirical Dispersion Energy =           0.0000000000000000
    VV10 Nonlocal Energy =                  0.0000000000000000
    Total Energy =                        -74.8252297141122398

Computation Completed


Properties will be evaluated at   0.000000,   0.000000,   0.000000 [a0]

Properties computed using the SCF density matrix


 Multipole Moments:

 ------------------------------------------------------------------------------------
     Multipole            Electronic (a.u.)      Nuclear  (a.u.)        Total (a.u.)
 ------------------------------------------------------------------------------------

 L = 1.  Multiply by 2.5417464519 to convert [e a0] to [Debye]
 Dipole X            :         -0.0000000            0.0000000           -0.0000000
 Dipole Y            :          0.0000000            0.0000000            0.0000000
 Dipole Z            :         -0.0315798            0.0000000           -0.0315798
 Magnitude           :                                                    0.0315798

 ------------------------------------------------------------------------------------

*** tstop() called on PNNL-KM3X724WWL at Tue Jul 28 17:00:00 2026
Module time:
	user time   =       0.33 seconds =       0.01 minutes
	system time =       0.07 seconds =       0.00 minutes
	total time  =          0 seconds =       0.00 minutes
Total time:
	user time   =      24.61 seconds =       0.41 minutes
	system time =       4.71 seconds =       0.08 minutes
	total time  =          8 seconds =       0.13 minutes
